 vasp.6.2.0 18Jan21 (build Jun 12 2021 23:27:24) complex

 executed on             LinuxIFC date 2022.05.27  06:05:37

 INCAR:
   ISMEAR = -5
   SIGMA = 0.1
   ISPIN = 1
   EDIFF = 1.d-5
   EDIFFG = -0.01
   NSW = 0
   NELM = 150
   ENCUT = 500
   ISIF = 2
   IBRION = 2
   LREAL = Auto
   ALGO = Fast
   ICHARG = 11
   LORBIT = 10
   LCHARG = .F.
   LWAVE = .F.

 POTCAR:    PAW_PBE Cu 22Jun2005
 POTCAR:    PAW_PBE Ni 02Aug2007
 POTCAR:    PAW_PBE N 08Apr2002
|           W    W    AA    RRRRR   N    N  II  N    N   GGGG   !!!           |
|           W    W   A  A   R    R  NN   N  II  NN   N  G    G  !!!           |
|           W    W  A    A  R    R  N N  N  II  N N  N  G       !!!           |
|           W WW W  AAAAAA  RRRRR   N  N N  II  N  N N  G  GGG   !            |
|           WW  WW  A    A  R   R   N   NN  II  N   NN  G    G                |
|           W    W  A    A  R    R  N    N  II  N    N   GGGG   !!!           |
|     For optimal performance we recommend to set                             |
|       NCORE = 2 up to number-of-cores-per-socket                            |
|     This setting can greatly improve the performance of VASP for DFT.       |
|     The default, NCORE=1 might be grossly inefficient on modern             |
|     multi-core architectures or massively parallel machines. Do your        |
|     Unfortunately you need to use the default for GW and RPA                |
|     calculations (for HF NCORE is supported but not extensively tested      |
|     yet).                                                                   |

 POTCAR:    PAW_PBE Cu 22Jun2005
   VRHFIN =Cu: d10 p1

   TITEL  = PAW_PBE Cu 22Jun2005
   POMASS =   63.546; ZVAL   =   11.000    mass and valenz
   ENMAX  =  295.446; ENMIN  =  221.585 eV

 POTCAR:    PAW_PBE Ni 02Aug2007
   VRHFIN =Ni:

   TITEL  = PAW_PBE Ni 02Aug2007
   POMASS =   58.690; ZVAL   =   10.000    mass and valenz
   ENMAX  =  269.532; ENMIN  =  202.149 eV

 POTCAR:    PAW_PBE N 08Apr2002
   VRHFIN =N: s2p3

   TITEL  = PAW_PBE N 08Apr2002
   POMASS =   14.001; ZVAL   =    5.000    mass and valenz
   ENMAX  =  400.000; ENMIN  =  300.000 eV

 Optimization of the real space projectors (new method)

 maximal supplied QI-value         = 16.25
 optimisation between [QCUT,QGAM] = [ 11.38, 22.75] = [ 36.24,144.96] Ry
 Optimized for a Real-space Cutoff    1.52 Angstroem

   l    n(q)    QCUT    max X(q) W(low)/X(q) W(high)/X(q)  e(spline)
   2      9    11.376     4.610    0.21E-03    0.10E-03    0.26E-06
   2      9    11.376     8.522    0.33E-03    0.16E-03    0.37E-06
   0     10    11.376    51.609    0.62E-04    0.20E-04    0.13E-06
   0     10    11.376    27.747    0.54E-04    0.20E-04    0.13E-06
   1     10    11.376    20.408    0.13E-04    0.99E-04    0.19E-06
   1     10    11.376    13.425    0.12E-04    0.87E-04    0.17E-06
 Optimization of the real space projectors (new method)

[...]

   l    n(q)    QCUT    max X(q) W(low)/X(q) W(high)/X(q)  e(spline)
   2      8    11.376    60.317    0.19E-03    0.33E-04    0.13E-06
   2      8    11.376    55.921    0.20E-03    0.34E-04    0.14E-06
   0      9    11.376    51.690    0.82E-04    0.12E-03    0.20E-06
   0      9    11.376    30.015    0.74E-04    0.11E-03    0.18E-06
   1      9    11.376    18.849    0.39E-03    0.12E-03    0.13E-06
   1      9    11.376    14.624    0.33E-03    0.10E-03    0.11E-06
 Optimization of the real space projectors (new method)

 maximal supplied QI-value         = 25.13
 optimisation between [QCUT,QGAM] = [ 11.31, 22.87] = [ 35.82,146.48] Ry
 Optimized for a Real-space Cutoff    1.27 Angstroem

   l    n(q)    QCUT    max X(q) W(low)/X(q) W(high)/X(q)  e(spline)
   0      9    11.310    79.467    0.75E-04    0.16E-03    0.36E-06
   0      9    11.310    66.151    0.74E-04    0.16E-03    0.36E-06
   1      8    11.310    17.416    0.35E-03    0.12E-03    0.95E-06
   1      8    11.310    12.382    0.37E-03    0.13E-03    0.98E-06
  PAW_PBE Cu 22Jun2005                  :
  PAW_PBE Ni 02Aug2007                  :
  PAW_PBE N 08Apr2002                   :

 POSCAR: Cu-Ni-N2
  positions in direct lattice
  velocities in cartesian coordinates
 exchange correlation table for  LEXCH =        8
   RHO(1)=    0.500       N(1)  =     2000
   RHO(2)=  100.500       N(2)  =     4000

 VTST: version 3.2, (02/03/18)

 CHAIN: initializing optimizer

 OPT: Using VASP Conjugate-Gradient optimizer
 CHAIN: Read ICHAIN            0

 POSCAR: Cu-Ni-N2
  positions in direct lattice
  velocities in cartesian coordinates

 ion  position               nearest neighbor table
   1  0.000  0.000  0.252-   7 2.57   3 2.57   4 2.57   2 2.57   6 2.57   8 2.57  12 2.57  10 2.57
                            16 2.57
   2  0.333  0.000  0.252-   8 2.57   9 2.57   5 2.57   1 2.57   3 2.57  11 2.57   4 2.57  10 2.57
                            17 2.57
   3  0.667  0.000  0.252-   1 2.57   7 2.57   6 2.57   9 2.57   2 2.57  12 2.57   5 2.57  18 2.57
                            11 2.57
   4  0.000  0.333  0.252-   5 2.57   6 2.57   1 2.57   7 2.57   2 2.57  13 2.57   9 2.57  10 2.57
                            15 2.57
   5  0.333  0.333  0.252-   4 2.57   2 2.57   7 2.57  13 2.57   8 2.57   6 2.57   3 2.57  11 2.57
                            14 2.57
   6  0.667  0.333  0.252-   4 2.57   9 2.57  15 2.57   3 2.57   1 2.57   8 2.57  14 2.57   5 2.57
                            12 2.57
   7  0.000  0.667  0.252-   1 2.57   3 2.57  16 2.57  18 2.57   4 2.57   5 2.57   8 2.57   9 2.57
                            13 2.57
   8  0.333  0.667  0.252-   9 2.57   2 2.57  17 2.57   6 2.57   1 2.57   7 2.57   5 2.57  14 2.57
                            16 2.57
   9  0.667  0.667  0.252-   8 2.57   6 2.57   2 2.57  17 2.57   3 2.57   7 2.57   4 2.57  15 2.57
                            18 2.57
  10  0.111  0.111  0.351-  20 2.55  26 2.56  19 2.56  11 2.57  12 2.57  13 2.57   1 2.57   2 2.57
                             4 2.57  15 2.57  16 2.57  17 2.57
  11  0.444  0.111  0.351-  20 2.55  21 2.55  27 2.56  10 2.57  13 2.57   2 2.57  17 2.57  14 2.57
                            12 2.57   5 2.57   3 2.57  18 2.57
  12  0.778  0.111  0.351-  21 2.55  19 2.56  25 2.56  15 2.57  10 2.57  14 2.57  18 2.57   3 2.57
                             1 2.57  16 2.57  11 2.57   6 2.57
  13  0.111  0.444  0.351-  23 2.55  20 2.55  22 2.56  16 2.57  18 2.57  10 2.57  11 2.57  14 2.57
                             5 2.57   4 2.57   7 2.57  15 2.57
  14  0.444  0.444  0.351-  21 2.55  23 2.55  24 2.56  15 2.57  17 2.57  12 2.57  16 2.57  13 2.57
                            11 2.57   6 2.57   8 2.57   5 2.57
  15  0.778  0.444  0.351-  24 2.55  22 2.55  19 2.56  14 2.57  17 2.57  12 2.57   6 2.57  18 2.57
                            10 2.57   9 2.57  13 2.57   4 2.57
  16  0.111  0.778  0.351-  23 2.55  25 2.56  26 2.56  18 2.57  13 2.57   7 2.57  14 2.57  17 2.57
                            12 2.57  10 2.57   8 2.57   1 2.57
  17  0.444  0.778  0.351-  27 2.55  24 2.55  26 2.56  14 2.57  15 2.57   8 2.57   9 2.57  11 2.57
                            16 2.57  18 2.57  10 2.57   2 2.57
  18  0.778  0.778  0.351-  22 2.55  27 2.55  25 2.56  16 2.57  13 2.57   7 2.57  15 2.57  12 2.57
                            17 2.57   9 2.57   3 2.57  11 2.57
  19  0.889  0.223  0.449-  28 2.54  32 2.55  31 2.55  15 2.56  12 2.56  10 2.56  22 2.56  24 2.56
                            21 2.57  20 2.57  25 2.57  26 2.57
  20  0.222  0.222  0.448-  36 2.48  29 2.54  31 2.54  10 2.55  11 2.55  13 2.55  26 2.57  19 2.57
                            27 2.57  22 2.57  23 2.57  21 2.57
  21  0.556  0.222  0.448-  36 2.48  32 2.54  30 2.54  12 2.55  14 2.55  11 2.55  19 2.57  25 2.57
                            24 2.57  27 2.57  20 2.57  23 2.57
  22  0.889  0.556  0.449-  35 2.54  31 2.55  33 2.55  18 2.55  15 2.55  13 2.56  19 2.56  25 2.56
                            24 2.57  27 2.57  23 2.57  20 2.57
  23  0.222  0.556  0.448-  36 2.48  33 2.54  34 2.54  16 2.55  13 2.55  14 2.55  25 2.57  26 2.57
                            22 2.57  24 2.57  20 2.57  21 2.57
  24  0.556  0.556  0.449-  35 2.54  32 2.55  34 2.55  15 2.55  17 2.55  14 2.56  19 2.56  26 2.56
                            22 2.57  27 2.57  21 2.57  23 2.57
  25  0.889  0.889  0.449-  28 2.54  33 2.55  30 2.55  18 2.56  16 2.56  12 2.56  22 2.56  27 2.56
                            21 2.57  23 2.57  19 2.57  26 2.57
  26  0.223  0.889  0.449-  28 2.54  29 2.55  34 2.55  17 2.56  10 2.56  16 2.56  27 2.56  24 2.56
                            20 2.57  23 2.57  25 2.57  19 2.57
  27  0.556  0.889  0.449-  35 2.54  29 2.55  30 2.55  17 2.55  18 2.55  11 2.56  26 2.56  25 2.56
                            24 2.57  22 2.57  20 2.57  21 2.57
  28  0.000  0.000  0.546-  25 2.54  19 2.54  26 2.54  33 2.57  30 2.57  31 2.57  29 2.57  32 2.57
                            34 2.57
  29  0.333  0.002  0.546-  20 2.54  27 2.55  31 2.55  36 2.55  30 2.55  26 2.55  28 2.57  35 2.57
                            34 2.60
  30  0.665  0.002  0.546-  21 2.54  27 2.55  32 2.55  36 2.55  29 2.55  25 2.55  28 2.57  35 2.57
                            33 2.60
  31  0.002  0.333  0.546-  20 2.54  22 2.55  29 2.55  36 2.55  33 2.55  19 2.55  28 2.57  35 2.57
                            32 2.60
  32  0.665  0.333  0.546-  21 2.54  24 2.55  30 2.55  36 2.55  34 2.55  19 2.55  28 2.57  35 2.57
                            31 2.60
  33  0.002  0.665  0.546-  23 2.54  22 2.55  34 2.55  36 2.55  31 2.55  25 2.55  28 2.57  35 2.57
                            30 2.60
  34  0.333  0.665  0.546-  23 2.54  24 2.55  33 2.55  36 2.55  32 2.55  26 2.55  28 2.57  35 2.57
                            29 2.60
  35  0.667  0.667  0.546-  24 2.54  27 2.54  22 2.54  34 2.57  32 2.57  29 2.57  30 2.57  33 2.57
                            31 2.57
  36  0.333  0.333  0.542-  23 2.48  20 2.48  21 2.48  31 2.55  29 2.55  33 2.55  34 2.55  32 2.55
                            30 2.55
  37  0.264  0.328  0.774-  38 1.11
  38  0.408  0.328  0.774-  37 1.11

  LATTYP: Found a hexagonal cell.
 ALAT       =     7.6967864036
 C/A-ratio  =     2.7653617908

  Lattice vectors:

 A1 = (  -3.8483927580,  -6.6656128093,   0.0000000000)
 A2 = (   7.6967864037,   0.0000000000,   0.0000000000)
 A3 = (   0.0000000000,   0.0000000000,  21.2843990326)

Analysis of symmetry for initial positions (statically):
 Subroutine PRICEL returns:
 Original cell was already a primitive cell.

 Routine SETGRP: Setting up the symmetry group for a
 hexagonal supercell.

 Subroutine GETGRP returns: Found  2 space group operations
 (whereof  2 operations were pure point group operations)
 out of a pool of 24 trial point group operations.

The static configuration has the point symmetry C_1h.

Analysis of symmetry for dynamics (positions and initial velocities):
 Subroutine PRICEL returns:
 Original cell was already a primitive cell.

[...]

The dynamic configuration has the point symmetry C_1h.

Analysis of constrained symmetry for selective dynamics:
 Subroutine PRICEL returns:
 Original cell was already a primitive cell.

 Routine SETGRP: Setting up the symmetry group for a
 hexagonal supercell.

[...]
     33      -3.8794      2.00000
     34      -3.8658      2.00000
     35      -3.8635      2.00000
     36      -3.8375      2.00000
     37      -3.7794      2.00000
     38      -3.7689      2.00000
     39      -3.7501      2.00000
     40      -3.6557      2.00000
     41      -3.6425      2.00000
     42      -3.5605      2.00000
     43      -3.5578      2.00000
     44      -3.4763      2.00000
     45      -3.4712      2.00000
     46      -3.4478      2.00000
     47      -3.4321      2.00000
     48      -3.4267      2.00000
     49      -3.3993      2.00000
     50      -3.3854      2.00000
     51      -3.2238      2.00000
     52      -3.2033      2.00000
     53      -3.1983      2.00000
     54      -3.1922      2.00000
     55      -3.1411      2.00000
     56      -3.1360      2.00000
     57      -3.1250      2.00000
     58      -3.0963      2.00000
     59      -3.0887      2.00000
     60      -3.0634      2.00000
[...]
    238       5.8099      0.00000
    239       5.8542      0.00000
    240       6.2060      0.00000
    241       6.2361      0.00000
    242       6.5117      0.00000
    243       6.5738      0.00000
    244       6.6200      0.00000
    245       6.6287      0.00000
    246       6.7010      0.00000
    247       7.0066      0.00000
    248       7.1405      0.00000
    249       7.1947      0.00000
    250       7.4337      0.00000
    251       7.4414      0.00000
    252       7.4672      0.00000

 soft charge-density along one line, spin component           1
         0         1         2         3         4         5         6         7         8         9
 total charge-density along one line

------------------------ aborting loop because EDIFF is reached ----------------------------------------

 total charge

# of ion       s       p       d       tot
    1        0.446   0.286   9.190   9.922
    2        0.449   0.284   9.188   9.922
    3        0.449   0.284   9.188   9.922
    4        0.449   0.284   9.188   9.922
    5        0.446   0.286   9.185   9.917
    6        0.449   0.284   9.188   9.922
    7        0.449   0.284   9.188   9.922
    8        0.449   0.284   9.188   9.922
    9        0.449   0.283   9.188   9.920
   10        0.441   0.373   9.176   9.990
   11        0.443   0.368   9.182   9.992
   12        0.441   0.373   9.176   9.990
   13        0.443   0.368   9.182   9.992
   14        0.443   0.368   9.182   9.992
   15        0.439   0.370   9.180   9.989
   16        0.441   0.373   9.176   9.990
   17        0.439   0.370   9.180   9.989
   18        0.439   0.370   9.180   9.989
   19        0.442   0.373   9.183   9.998
   20        0.446   0.381   9.177  10.004
   21        0.446   0.381   9.177  10.004
   22        0.440   0.376   9.179   9.995
   23        0.446   0.381   9.177  10.004
   24        0.440   0.376   9.179   9.995
   25        0.442   0.373   9.183   9.998
   26        0.442   0.373   9.183   9.998
   27        0.440   0.376   9.179   9.995
   28        0.449   0.284   9.193   9.926
   29        0.451   0.289   9.187   9.928
   30        0.451   0.289   9.187   9.928
   31        0.451   0.289   9.188   9.928
   32        0.451   0.289   9.188   9.928
   33        0.451   0.289   9.187   9.928
   34        0.451   0.289   9.187   9.928
   35        0.447   0.286   9.193   9.926
   36        0.451   0.317   8.385   9.153
   37        1.373   2.469   0.000   3.842
   38        1.373   2.469   0.000   3.842
tot         18.787  16.843 329.820 365.450

  FORCE on cell =-STRESS in cart. coord.  units (eV):
  Direction    XX          YY          ZZ          XY          YZ          ZX
  Alpha Z   897.94138   897.94138   897.94138
  Ewald  167413.96042167092.06633************     0.00040     0.11710     0.00017
  Hartree180670.32946180555.35502************     0.00005     0.10687     0.00007
  E(xc)   -2342.79331 -2344.03168 -2348.70034    -0.00032    -0.00000    -0.00004
  Local  ************************360854.37736     0.02044    -0.22450    -0.00076
  n-local  -794.41917  -781.87605  -797.13219     1.69558     0.00016     0.16037
  augment  3486.18702  3485.90139  3502.34253    -0.01868     0.00050     0.00032
  Kinetic  3383.98013  3402.05131  3425.84751     0.84721     0.00029    -0.12893
  Fock        0.00000     0.00000     0.00000     0.00000     0.00000     0.00000
  Total      -3.33964    -3.34366     4.59883     0.00000     0.00043    -0.00000
  in kB      -4.90004    -4.90594     6.74756     0.00000     0.00064    -0.00000

 VOLUME and BASIS-vectors are now :
  energy-cutoff  :      500.00
  volume of cell :     1091.97
      direct lattice vectors                 reciprocal lattice vectors
     7.696786404  0.000000000  0.000000000     0.129924354 -0.075011849  0.000000000
     3.848392758  6.665612809  0.000000000     0.000000000  0.150023716  0.000000000
     0.000000000  0.000000000 21.284399033     0.000000000  0.000000000  0.046982769

  length of vectors
     7.696786404  7.696786404 21.284399033     0.150023716  0.150023716  0.046982769

 FORCES acting on ions
    electron-ion (+dipol)            ewald-force                    non-local-force                 convergence-correction
   -.405E-04 0.503E-02 0.348E+04   0.578E-04 -.422E-02 -.347E+04   0.138E-10 -.208E-03 -.243E+01   -.307E-03 -.699E-03 -.814E+00
   -.276E-01 0.344E+00 0.348E+04   -.175E+00 -.180E+00 -.347E+04   0.243E-01 -.608E-01 -.201E+01   0.175E+00 -.101E+00 -.613E+00
   0.276E-01 0.344E+00 0.348E+04   0.174E+00 -.180E+00 -.347E+04   -.243E-01 -.608E-01 -.201E+01   -.174E+00 -.981E-01 -.613E+00
   0.279E+00 -.203E+00 0.348E+04   -.239E+00 -.615E-01 -.347E+04   -.401E-01 0.507E-01 -.201E+01   0.137E-02 0.208E+00 -.612E+00
   -.620E-04 -.114E-01 0.348E+04   0.116E-03 0.187E-02 -.347E+04   0.364E-09 -.547E-02 -.203E+01   0.122E-01 0.151E-01 -.627E+00
   -.279E+00 -.203E+00 0.348E+04   0.239E+00 -.617E-01 -.347E+04   0.401E-01 0.507E-01 -.201E+01   -.298E-02 0.209E+00 -.611E+00
   0.309E+00 -.141E+00 0.348E+04   -.647E-01 0.241E+00 -.347E+04   -.645E-01 0.977E-02 -.201E+01   -.173E+00 -.108E+00 -.609E+00
   -.309E+00 -.141E+00 0.348E+04   0.644E-01 0.241E+00 -.347E+04   0.645E-01 0.977E-02 -.201E+01   0.176E+00 -.109E+00 -.609E+00
   -.143E-03 0.645E-02 0.348E+04   0.263E-03 0.235E-02 -.347E+04   -.343E-09 0.515E-02 -.218E+01   -.132E-01 -.140E-01 -.553E+00
   0.175E+01 0.101E+01 0.119E+04   -.175E+01 -.102E+01 -.119E+04   -.877E-01 -.507E-01 -.833E+00   0.116E+00 0.702E-01 -.185E+00
   -.913E-04 0.128E+01 0.119E+04   0.190E-03 -.145E+01 -.119E+04   -.994E-09 0.149E-01 -.681E+00   0.117E-01 0.143E+00 -.954E-01
   -.175E+01 0.101E+01 0.119E+04   0.175E+01 -.102E+01 -.119E+04   0.877E-01 -.507E-01 -.833E+00   -.118E+00 0.717E-01 -.185E+00
   0.110E+01 -.654E+00 0.119E+04   -.125E+01 0.731E+00 -.119E+04   0.173E-01 -.151E-01 -.682E+00   0.126E+00 -.521E-01 -.959E-01
   -.110E+01 -.654E+00 0.119E+04   0.125E+01 0.731E+00 -.119E+04   -.173E-01 -.151E-01 -.682E+00   -.101E+00 -.532E-01 -.969E-01
   -.143E-03 0.970E-01 0.119E+04   0.299E-03 -.340E+00 -.119E+04   -.426E-08 0.639E-01 -.758E+00   -.353E-02 0.170E+00 -.273E+00
   -.910E-04 -.201E+01 0.119E+04   0.186E-03 0.202E+01 -.119E+04   -.684E-08 0.103E+00 -.831E+00   -.355E-03 -.145E+00 -.185E+00
   0.956E-01 -.459E-01 0.119E+04   -.302E+00 0.174E+00 -.119E+04   0.564E-01 -.309E-01 -.756E+00   0.143E+00 -.937E-01 -.273E+00
   -.955E-01 -.458E-01 0.119E+04   0.302E+00 0.174E+00 -.119E+04   -.564E-01 -.309E-01 -.756E+00   -.142E+00 -.911E-01 -.272E+00
   -.575E-04 0.781E+00 -.112E+04   0.673E-04 -.890E+00 0.112E+04   0.245E-08 -.368E-01 0.594E+00   -.108E-01 0.141E+00 -.148E+00
   0.324E+01 0.188E+01 -.111E+04   -.334E+01 -.194E+01 0.111E+04   -.300E+00 -.168E+00 -.164E+00   0.373E+00 0.219E+00 -.822E-01
   -.324E+01 0.188E+01 -.111E+04   0.334E+01 -.194E+01 0.111E+04   0.300E+00 -.168E+00 -.164E+00   -.392E+00 0.220E+00 -.826E-01
   0.498E+00 -.344E+00 -.111E+04   -.906E+00 0.584E+00 0.111E+04   0.240E+00 -.134E+00 0.634E+00   0.145E+00 -.993E-01 -.219E+00
   -.729E-04 -.380E+01 -.111E+04   0.143E-03 0.391E+01 0.111E+04   -.233E-07 0.351E+00 -.164E+00   -.101E-01 -.452E+00 -.830E-01
   -.498E+00 -.343E+00 -.111E+04   0.906E+00 0.584E+00 0.111E+04   -.240E+00 -.134E+00 0.634E+00   -.166E+00 -.997E-01 -.219E+00
   -.667E+00 -.332E+00 -.112E+04   0.758E+00 0.391E+00 0.112E+04   0.365E-01 0.257E-01 0.593E+00   -.134E+00 -.823E-01 -.148E+00
   0.667E+00 -.332E+00 -.112E+04   -.758E+00 0.391E+00 0.112E+04   -.365E-01 0.257E-01 0.593E+00   0.114E+00 -.832E-01 -.148E+00
   -.132E-03 0.627E+00 -.111E+04   0.244E-03 -.109E+01 0.111E+04   -.187E-07 0.281E+00 0.633E+00   -.110E-01 0.168E+00 -.218E+00
   -.283E-04 0.426E+00 -.340E+04   0.366E-04 -.427E+00 0.340E+04   -.638E-10 0.958E-03 0.242E+01   0.106E-04 -.435E-03 0.707E+00
   0.113E+01 0.338E+01 -.340E+04   -.825E+00 -.299E+01 0.340E+04   -.393E+00 -.504E+00 0.215E+01   0.842E-01 0.111E+00 0.595E+00
   -.113E+01 0.338E+01 -.340E+04   0.825E+00 -.299E+01 0.340E+04   0.393E+00 -.504E+00 0.215E+01   -.833E-01 0.113E+00 0.594E+00
   0.316E+01 -.663E+00 -.340E+04   -.267E+01 0.727E+00 0.340E+04   -.633E+00 -.881E-01 0.217E+01   0.140E+00 0.224E-01 0.593E+00
   -.316E+01 -.663E+00 -.340E+04   0.267E+01 0.726E+00 0.340E+04   0.633E+00 -.881E-01 0.217E+01   -.140E+00 0.235E-01 0.593E+00
   0.192E+01 -.270E+01 -.340E+04   -.174E+01 0.225E+01 0.340E+04   -.241E+00 0.592E+00 0.215E+01   0.558E-01 -.134E+00 0.593E+00
   -.192E+01 -.270E+01 -.340E+04   0.174E+01 0.225E+01 0.340E+04   0.241E+00 0.592E+00 0.215E+01   -.525E-01 -.135E+00 0.593E+00
   -.129E-03 -.236E+00 -.340E+04   0.255E-03 0.245E+00 0.340E+04   -.271E-09 0.407E-02 0.250E+01   -.129E-01 -.126E-01 0.552E+00
   -.614E-04 -.188E+00 -.304E+04   0.130E-03 0.181E+00 0.304E+04   0.229E-09 -.344E-02 0.178E+01   0.843E-02 0.109E-01 0.592E+00
   0.240E+03 -.150E-01 -.870E+03   -.285E+03 0.136E-01 0.870E+03   0.456E+02 -.125E-02 0.254E-02   0.508E-02 0.136E-02 0.434E-02
   -.240E+03 -.150E-01 -.870E+03   0.285E+03 0.136E-01 0.870E+03   -.456E+02 -.125E-02 0.254E-02   -.511E-02 0.136E-02 0.432E-02
   0.164E-05 0.138E-01 0.589E+01   0.114E-12 0.120E-13 0.313E-10   -.175E-08 0.263E-01 -.266E+01   -.589E-01 -.447E-01 -.325E+01

 POSITION                                       TOTAL-FORCE (eV/Angst)
      0.00000      0.00000      5.37156        -0.000000      0.000023      0.099941
      2.56560      0.00000      5.37156        -0.003301      0.004282      0.078546
      5.13119      0.00000      5.37156         0.003301      0.004282      0.078546
      1.28280      2.22187      5.37156         0.001971     -0.004990      0.078570
      3.84839      2.22187      5.37156        -0.000000      0.000303      0.071606
      6.41399      2.22187      5.37156        -0.001971     -0.004990      0.078570
      2.56560      4.44374      5.37156         0.005373      0.001073      0.078506
      5.13119      4.44374      5.37156        -0.005373      0.001073      0.078506
      7.69679      4.44374      5.37156        -0.000000      0.000045      0.063005
      1.28280      0.74062      7.46636         0.024486      0.014317     -0.079560
      3.84839      0.74062      7.46636         0.000000     -0.018483     -0.112249
      6.41399      0.74062      7.46636        -0.024486      0.014317     -0.079560
      2.56560      2.96249      7.46636        -0.016410      0.009921     -0.112336
      5.13119      2.96249      7.46636         0.016410      0.009921     -0.112336
      7.69679      2.96249      7.46636         0.000000     -0.008863     -0.059795
      3.84839      5.18437      7.46636         0.000000     -0.028218     -0.079329
      6.41399      5.18437      7.46636        -0.007775      0.004553     -0.059486
      8.97958      5.18437      7.46636         0.007775      0.004553     -0.059486
      7.69679      1.48353      9.55071         0.000000     -0.004178      0.001288
      2.56540      1.48114      9.54275        -0.012791     -0.007689     -0.001872
      5.13138      1.48114      9.54275         0.012791     -0.007689     -0.001872
      8.97935      3.70325      9.54809        -0.012720      0.007023      0.006146
      3.84839      3.70334      9.54275        -0.000000      0.014426     -0.001895
      6.41422      3.70325      9.54809         0.012720      0.007023      0.006146
     10.26040      5.92385      9.55071         0.003467      0.001889      0.000610
      5.13317      5.92385      9.55071        -0.003467      0.001889      0.000610
      7.69679      5.92472      9.54809         0.000000     -0.014725      0.005609
      0.00000      0.00000     11.61525         0.000000     -0.000416      0.012111
      2.57297      0.01446     11.62005        -0.003642     -0.003751      0.001536
      5.12381      0.01446     11.62005         0.003642     -0.003751      0.001536
      1.29901      2.22103     11.62005        -0.004700     -0.001333      0.002371
      6.39777      2.22103     11.62005         0.004700     -0.001333      0.002371
      2.57443      4.43012     11.62005        -0.001129      0.005520      0.001514
      5.12235      4.43012     11.62005         0.001129      0.005520      0.001514
      7.69679      4.44374     11.61370        -0.000000      0.000410     -0.000266
      3.84839      2.22187     11.53520        -0.000000      0.000395      0.014749
      3.29158      2.18501     16.47367        -0.001067     -0.001174     -0.001932
      4.40520      2.18501     16.47367         0.001067     -0.001174     -0.001932
    total drift:                               -0.058940     -0.004549     -0.022273

  FREE ENERGIE OF THE ION-ELECTRON SYSTEM (eV)
  free  energy   TOTEN  =      -144.03682753 eV

  energy  without entropy=     -144.03682753  energy(sigma->0) =     -144.03682753

 stress matrix after NEB project (eV)
     -3.33964      0.00000     -0.00000
      0.00000     -3.34366      0.00043
     -0.00000      0.00043      4.59883
  FORCES: max atom, RMS     0.002500    0.000574
  FORCE total and by dimension    0.003536    0.001932
  Stress total and by dimension    6.594128    4.598829
|           W    W    AA    RRRRR   N    N  II  N    N   GGGG   !!!           |
|           W    W   A  A   R    R  NN   N  II  NN   N  G    G  !!!           |
|           W    W  A    A  R    R  N N  N  II  N N  N  G       !!!           |
|           W WW W  AAAAAA  RRRRR   N  N N  II  N  N N  G  GGG   !            |
|           WW  WW  A    A  R   R   N   NN  II  N   NN  G    G                |
|           W    W  A    A  R    R  N    N  II  N    N   GGGG   !!!           |
|     Tetrahedron method does not include variations of the Fermi             |
|     occupations, so forces and stress will be inaccurate. We suggest        |
|     using a different smearing scheme ISMEAR = 1 or 2 for metals in         |
|     relaxations.                                                            |

 total charge

# of ion       s       p       d       tot
    1        0.446   0.286   9.190   9.922
    2        0.449   0.284   9.188   9.922
    3        0.449   0.284   9.188   9.922
    4        0.449   0.284   9.188   9.922
    5        0.446   0.286   9.185   9.917
    6        0.449   0.284   9.188   9.922
    7        0.449   0.284   9.188   9.922
    8        0.449   0.284   9.188   9.922
    9        0.449   0.283   9.188   9.920
   10        0.441   0.373   9.176   9.990
   11        0.443   0.368   9.182   9.992
   12        0.441   0.373   9.176   9.990
   13        0.443   0.368   9.182   9.992
   14        0.443   0.368   9.182   9.992
   15        0.439   0.370   9.180   9.989
   16        0.441   0.373   9.176   9.990
   17        0.439   0.370   9.180   9.989
   18        0.439   0.370   9.180   9.989
   19        0.442   0.373   9.183   9.998
   20        0.446   0.381   9.177  10.004
   21        0.446   0.381   9.177  10.004
   22        0.440   0.376   9.179   9.995
   23        0.446   0.381   9.177  10.004
   24        0.440   0.376   9.179   9.995
   25        0.442   0.373   9.183   9.998
   26        0.442   0.373   9.183   9.998
   27        0.440   0.376   9.179   9.995
   28        0.449   0.284   9.193   9.926
   29        0.451   0.289   9.187   9.928
   30        0.451   0.289   9.187   9.928
   31        0.451   0.289   9.188   9.928
   32        0.451   0.289   9.188   9.928
   33        0.451   0.289   9.187   9.928
   34        0.451   0.289   9.187   9.928
   35        0.447   0.286   9.193   9.926
   36        0.451   0.317   8.385   9.153
   37        1.373   2.469   0.000   3.842
   38        1.373   2.469   0.000   3.842
tot         18.787  16.843 329.820 365.450

 BZINTS: Fermi energy:    0.183485;  405.000000 electrons
         Band energy:-0.110415E+04;  BLOECHL correction:   -0.070449