 vasp.6.2.0 18Jan21 (build Jun 12 2021 23:27:24) complex

 executed on             LinuxIFC date 2022.05.26  20:02:05

 INCAR:
   ISMEAR = -5
   SIGMA = 0.1
   ISPIN = 1
   EDIFF = 1.d-5
   EDIFFG = -0.01
   NSW = 0
   NELM = 150
   ENCUT = 500
   ISIF = 2
   IBRION = 2
   LREAL = Auto
   ALGO = Fast
   ICHARG = 11
   LORBIT = 10
   LCHARG = .F.
   LWAVE = .F.

 POTCAR:    PAW_PBE Cu 22Jun2005
 POTCAR:    PAW_PBE Zr_sv 04Jan2005
 POTCAR:    PAW_PBE O 08Apr2002
|           W    W    AA    RRRRR   N    N  II  N    N   GGGG   !!!           |
|           W    W   A  A   R    R  NN   N  II  NN   N  G    G  !!!           |
|           W    W  A    A  R    R  N N  N  II  N N  N  G       !!!           |
|           W WW W  AAAAAA  RRRRR   N  N N  II  N  N N  G  GGG   !            |
|           WW  WW  A    A  R   R   N   NN  II  N   NN  G    G                |
|           W    W  A    A  R    R  N    N  II  N    N   GGGG   !!!           |
|     For optimal performance we recommend to set                             |
|       NCORE = 2 up to number-of-cores-per-socket                            |
|     This setting can greatly improve the performance of VASP for DFT.       |
|     The default, NCORE=1 might be grossly inefficient on modern             |
|     multi-core architectures or massively parallel machines. Do your        |
|     Unfortunately you need to use the default for GW and RPA                |
|     calculations (for HF NCORE is supported but not extensively tested      |
|     yet).                                                                   |

 POTCAR:    PAW_PBE Cu 22Jun2005
   VRHFIN =Cu: d10 p1

   TITEL  = PAW_PBE Cu 22Jun2005
   POMASS =   63.546; ZVAL   =   11.000    mass and valenz
   ENMAX  =  295.446; ENMIN  =  221.585 eV

 POTCAR:    PAW_PBE Zr_sv 04Jan2005
   VRHFIN =Zr: 4s4p5s4d

   TITEL  = PAW_PBE Zr_sv 04Jan2005
   POMASS =   91.224; ZVAL   =   12.000    mass and valenz
   ENMAX  =  229.898; ENMIN  =  172.424 eV

 POTCAR:    PAW_PBE O 08Apr2002
   VRHFIN =O: s2p4

   TITEL  = PAW_PBE O 08Apr2002
   POMASS =   16.000; ZVAL   =    6.000    mass and valenz
   ENMAX  =  400.000; ENMIN  =  300.000 eV

 Optimization of the real space projectors (new method)

 maximal supplied QI-value         = 16.25
 optimisation between [QCUT,QGAM] = [ 11.38, 22.75] = [ 36.24,144.96] Ry
 Optimized for a Real-space Cutoff    1.52 Angstroem

   l    n(q)    QCUT    max X(q) W(low)/X(q) W(high)/X(q)  e(spline)
   2      9    11.376     4.610    0.21E-03    0.10E-03    0.26E-06
   2      9    11.376     8.522    0.33E-03    0.16E-03    0.37E-06
   0     10    11.376    51.609    0.62E-04    0.20E-04    0.13E-06
   0     10    11.376    27.747    0.54E-04    0.20E-04    0.13E-06
   1     10    11.376    20.408    0.13E-04    0.99E-04    0.19E-06
   1     10    11.376    13.425    0.12E-04    0.87E-04    0.17E-06
 Optimization of the real space projectors (new method)

[...]

   l    n(q)    QCUT    max X(q) W(low)/X(q) W(high)/X(q)  e(spline)
   0     10    11.338    12.107    0.38E-04    0.13E-04    0.27E-07
   0     10    11.338     9.948    0.69E-04    0.30E-04    0.38E-07
   1     10    11.338     3.563    0.26E-04    0.18E-04    0.40E-07
   1     10    11.338     4.524    0.25E-03    0.39E-04    0.44E-06
   2      9    11.338    87.261    0.26E-03    0.91E-05    0.26E-06
   2      9    11.338    70.950    0.25E-03    0.91E-05    0.25E-06
 Optimization of the real space projectors (new method)

 maximal supplied QI-value         = 24.76
 optimisation between [QCUT,QGAM] = [ 11.39, 22.77] = [ 36.31,145.25] Ry
 Optimized for a Real-space Cutoff    1.00 Angstroem

   l    n(q)    QCUT    max X(q) W(low)/X(q) W(high)/X(q)  e(spline)
   0      7    11.387    20.381    0.39E-03    0.13E-02    0.15E-06
   0      7    11.387    15.268    0.42E-03    0.14E-02    0.17E-06
   1      6    11.387     5.964    0.41E-03    0.11E-02    0.17E-06
   1      6    11.387     5.382    0.39E-03    0.87E-03    0.15E-06
  PAW_PBE Cu 22Jun2005                  :
  PAW_PBE Zr_sv 04Jan2005               :
  PAW_PBE O 08Apr2002                   :

 POSCAR: Cu-Zr-O
  positions in direct lattice
  velocities in cartesian coordinates
 exchange correlation table for  LEXCH =        8
   RHO(1)=    0.500       N(1)  =     2000
   RHO(2)=  100.500       N(2)  =     4000

 VTST: version 3.2, (02/03/18)

 CHAIN: initializing optimizer

 OPT: Using VASP Conjugate-Gradient optimizer
 CHAIN: Read ICHAIN            0

 POSCAR: Cu-Zr-O
  positions in direct lattice
  velocities in cartesian coordinates

 ion  position               nearest neighbor table
   1  0.000  0.000  0.252-   7 2.57   3 2.57   4 2.57   2 2.57   6 2.57   8 2.57  12 2.57  10 2.57
                            16 2.57
   2  0.333  0.000  0.252-   8 2.57   9 2.57   5 2.57   1 2.57   3 2.57  11 2.57   4 2.57  10 2.57
                            17 2.57
   3  0.667  0.000  0.252-   1 2.57   7 2.57   6 2.57   9 2.57   2 2.57  12 2.57   5 2.57  18 2.57
                            11 2.57
   4  0.000  0.333  0.252-   5 2.57   6 2.57   1 2.57   7 2.57   2 2.57  13 2.57   9 2.57  10 2.57
                            15 2.57
   5  0.333  0.333  0.252-   4 2.57   2 2.57   7 2.57  13 2.57   8 2.57   6 2.57   3 2.57  11 2.57
                            14 2.57
   6  0.667  0.333  0.252-   4 2.57   9 2.57  15 2.57   3 2.57   1 2.57   8 2.57  14 2.57   5 2.57
                            12 2.57
   7  0.000  0.667  0.252-   1 2.57   3 2.57  16 2.57  18 2.57   4 2.57   5 2.57   8 2.57   9 2.57
                            13 2.57
   8  0.333  0.667  0.252-   9 2.57   2 2.57  17 2.57   6 2.57   1 2.57   7 2.57   5 2.57  14 2.57
                            16 2.57
   9  0.667  0.667  0.252-   8 2.57   6 2.57   2 2.57  17 2.57   3 2.57   7 2.57   4 2.57  15 2.57
                            18 2.57
  10  0.111  0.111  0.351-  26 2.54  19 2.54  11 2.57  12 2.57  13 2.57   1 2.57   2 2.57   4 2.57
                            15 2.57  16 2.57  17 2.57  20 2.59
  11  0.444  0.111  0.351-  27 2.56  10 2.57  13 2.57   2 2.57  17 2.57  14 2.57  12 2.57   5 2.57
                             3 2.57  18 2.57  20 2.58  21 2.58
  12  0.778  0.111  0.351-  19 2.54  25 2.54  15 2.57  10 2.57  14 2.57  18 2.57   3 2.57   1 2.57
                            16 2.57  11 2.57   6 2.57  21 2.59
  13  0.111  0.444  0.351-  22 2.56  16 2.57  18 2.57  10 2.57  11 2.57  14 2.57   5 2.57   4 2.57
                             7 2.57  15 2.57  23 2.58  20 2.58
  14  0.444  0.444  0.351-  24 2.56  15 2.57  17 2.57  12 2.57  16 2.57  13 2.57  11 2.57   6 2.57
                             8 2.57   5 2.57  21 2.58  23 2.58
  15  0.778  0.444  0.351-  19 2.54  24 2.56  22 2.56  14 2.57  17 2.57  12 2.57   6 2.57  18 2.57
                            10 2.57   9 2.57  13 2.57   4 2.57
  16  0.111  0.778  0.351-  25 2.54  26 2.54  18 2.57  13 2.57   7 2.57  14 2.57  17 2.57  12 2.57
                            10 2.57   8 2.57   1 2.57  23 2.59
  17  0.444  0.778  0.351-  26 2.54  27 2.56  24 2.56  14 2.57  15 2.57   8 2.57   9 2.57  11 2.57
                            16 2.57  18 2.57  10 2.57   2 2.57
  18  0.778  0.778  0.351-  25 2.54  22 2.56  27 2.56  16 2.57  13 2.57   7 2.57  15 2.57  12 2.57
                            17 2.57   9 2.57   3 2.57  11 2.57
  19  0.889  0.221  0.448-  12 2.54  10 2.54  15 2.54  25 2.55  26 2.55  32 2.56  31 2.56  22 2.57
                            24 2.57  28 2.57  21 2.58  20 2.58
  20  0.223  0.223  0.450-  23 2.55  21 2.55  29 2.57  31 2.57  27 2.57  22 2.57  26 2.58  19 2.58
                            11 2.58  13 2.58  10 2.59  36 2.86
  21  0.554  0.223  0.450-  20 2.55  23 2.55  32 2.57  30 2.57  24 2.57  27 2.57  19 2.58  25 2.58
                            14 2.58  11 2.58  12 2.59  36 2.86
  22  0.889  0.556  0.449-  18 2.56  15 2.56  13 2.56  31 2.56  33 2.56  24 2.57  27 2.57  23 2.57
                            20 2.57  19 2.57  25 2.57  35 2.58
  23  0.223  0.554  0.450-  20 2.55  21 2.55  33 2.57  34 2.57  22 2.57  24 2.57  25 2.58  26 2.58
                            13 2.58  14 2.58  16 2.59  36 2.86
  24  0.556  0.556  0.449-  15 2.56  17 2.56  14 2.56  32 2.56  34 2.56  22 2.57  27 2.57  21 2.57
                            23 2.57  19 2.57  26 2.57  35 2.58
  25  0.889  0.889  0.448-  12 2.54  16 2.54  18 2.54  19 2.55  26 2.55  33 2.56  30 2.56  22 2.57
                            27 2.57  28 2.57  21 2.58  23 2.58
  26  0.221  0.889  0.448-  10 2.54  16 2.54  17 2.54  25 2.55  19 2.55  29 2.56  34 2.56  27 2.57
                            24 2.57  28 2.57  20 2.58  23 2.58
  27  0.556  0.889  0.449-  17 2.56  18 2.56  11 2.56  29 2.56  30 2.56  24 2.57  22 2.57  20 2.57
                            21 2.57  26 2.57  25 2.57  35 2.58
  28  0.000  0.000  0.547-  33 2.55  30 2.55  31 2.55  29 2.55  32 2.55  34 2.55  25 2.57  19 2.57
                            26 2.57
  29  0.334  0.994  0.547-  34 2.47  35 2.54  28 2.55  27 2.56  26 2.56  20 2.57  30 2.60  31 2.62
                            36 2.64
  30  0.672  0.994  0.547-  33 2.47  35 2.54  28 2.55  27 2.56  25 2.56  21 2.57  29 2.60  32 2.62
                            36 2.64
  31  0.994  0.334  0.547-  32 2.47  35 2.54  28 2.55  22 2.56  19 2.56  20 2.57  33 2.60  29 2.62
                            36 2.64
  32  0.672  0.334  0.547-  31 2.47  35 2.54  28 2.55  24 2.56  19 2.56  21 2.57  34 2.60  30 2.62
                            36 2.64
  33  0.994  0.672  0.547-  30 2.47  35 2.54  28 2.55  22 2.56  25 2.56  23 2.57  31 2.60  34 2.62
                            36 2.64
  34  0.334  0.672  0.547-  29 2.47  35 2.54  28 2.55  24 2.56  26 2.56  23 2.57  32 2.60  33 2.62
                            36 2.64
  35  0.667  0.667  0.548-  34 2.54  32 2.54  29 2.54  30 2.54  33 2.54  31 2.54  24 2.58  27 2.58
                            22 2.58
  36  0.333  0.333  0.565-  37 1.78  31 2.64  29 2.64  33 2.64  32 2.64  34 2.64  30 2.64  23 2.86
                            20 2.86  21 2.86
  37  0.333  0.333  0.649-  36 1.78

  LATTYP: Found a hexagonal cell.
 ALAT       =     7.6967864036
 C/A-ratio  =     2.7653617908

  Lattice vectors:

 A1 = (  -3.8483927580,  -6.6656128093,   0.0000000000)
 A2 = (   7.6967864037,   0.0000000000,   0.0000000000)
 A3 = (   0.0000000000,   0.0000000000,  21.2843990326)

Analysis of symmetry for initial positions (statically):
 Subroutine PRICEL returns:
 Original cell was already a primitive cell.

 Routine SETGRP: Setting up the symmetry group for a
 hexagonal supercell.

 Subroutine GETGRP returns: Found  6 space group operations
 (whereof  6 operations were pure point group operations)
 out of a pool of 24 trial point group operations.

The static configuration has the point symmetry C_3v.

Analysis of symmetry for dynamics (positions and initial velocities):
 Subroutine PRICEL returns:
 Original cell was already a primitive cell.

[...]

The dynamic configuration has the point symmetry C_3v.

Analysis of constrained symmetry for selective dynamics:
 Subroutine PRICEL returns:
 Original cell was already a primitive cell.

 Routine SETGRP: Setting up the symmetry group for a
 hexagonal supercell.

 Subroutine GETGRP returns: Found  6 space group operations
[...]
     24      -4.5623      2.00000
     25      -4.5193      2.00000
     26      -4.5047      2.00000
     27      -4.4900      2.00000
     28      -4.4249      2.00000
     29      -4.3145      2.00000
     30      -4.2692      2.00000
     31      -4.2550      2.00000
     32      -4.2315      2.00000
     33      -4.2153      2.00000
     34      -4.1936      2.00000
     35      -4.1924      2.00000
     36      -4.1864      2.00000
     37      -4.1822      2.00000
     38      -4.1394      2.00000
     39      -4.0844      2.00000
     40      -4.0526      2.00000
     41      -4.0222      2.00000
     42      -3.8869      2.00000
     43      -3.8701      2.00000
     44      -3.8357      2.00000
     45      -3.8130      2.00000
     46      -3.7950      2.00000
     47      -3.7828      2.00000
     48      -3.7717      2.00000
     49      -3.7661      2.00000
     50      -3.7532      2.00000
     51      -3.6153      2.00000
     52      -3.5903      2.00000
     53      -3.5753      2.00000
     54      -3.5583      2.00000
     55      -3.5034      2.00000
     56      -3.4889      2.00000
     57      -3.4797      2.00000
     58      -3.4634      2.00000
     59      -3.4546      2.00000
     60      -3.4514      2.00000
[...]
    238       5.9798      0.00000
    239       6.1477      0.00000
    240       6.1620      0.00000
    241       6.3458      0.00000
    242       6.5831      0.00000
    243       6.7217      0.00000
    244       6.8543      0.00000
    245       7.1489      0.00000
    246       7.2160      0.00000
    247       7.2280      0.00000
    248       7.2435      0.00000
    249       7.3061      0.00000
    250       7.3460      0.00000
    251       7.5058      0.00000
    252       7.6148      0.00000

 soft charge-density along one line, spin component           1
         0         1         2         3         4         5         6         7         8         9
 total charge-density along one line

------------------------ aborting loop because EDIFF is reached ----------------------------------------

 total charge

# of ion       s       p       d       tot
    1        0.448   0.284   9.187   9.920
    2        0.448   0.285   9.187   9.920
    3        0.448   0.285   9.187   9.920
    4        0.448   0.285   9.187   9.920
    5        0.449   0.284   9.187   9.919
    6        0.448   0.285   9.187   9.920
    7        0.448   0.285   9.187   9.920
    8        0.448   0.285   9.187   9.920
    9        0.448   0.284   9.188   9.920
   10        0.442   0.370   9.180   9.992
   11        0.440   0.366   9.182   9.987
   12        0.442   0.370   9.180   9.992
   13        0.440   0.366   9.182   9.987
   14        0.440   0.366   9.182   9.987
   15        0.440   0.373   9.178   9.991
   16        0.442   0.370   9.180   9.992
   17        0.440   0.373   9.178   9.991
   18        0.440   0.373   9.178   9.991
   19        0.446   0.370   9.183   9.999
   20        0.450   0.373   9.174   9.997
   21        0.450   0.373   9.174   9.997
   22        0.436   0.375   9.178   9.989
   23        0.450   0.373   9.174   9.997
   24        0.436   0.375   9.178   9.989
   25        0.446   0.370   9.183   9.999
   26        0.446   0.370   9.183   9.999
   27        0.436   0.375   9.178   9.989
   28        0.447   0.297   9.180   9.924
   29        0.485   0.306   9.178   9.969
   30        0.485   0.306   9.178   9.969
   31        0.485   0.306   9.178   9.969
   32        0.485   0.306   9.178   9.969
   33        0.485   0.306   9.178   9.969
   34        0.485   0.306   9.178   9.969
   35        0.449   0.300   9.180   9.929
   36        2.242   6.005   1.913  10.160
   37        1.605   3.332   0.000   4.937
tot         19.648  21.009 323.249 363.906

  FORCE on cell =-STRESS in cart. coord.  units (eV):
  Direction    XX          YY          ZZ          XY          YZ          ZX
  Alpha Z   908.18944   908.18944   908.18944
  Ewald  173177.16176173177.16131************     0.00040     0.00014     0.00022
  Hartree186371.84977186371.84974************     0.00004     0.00008     0.00007
  E(xc)   -2328.52991 -2328.52947 -2332.31555    -0.00038    -0.00004    -0.00007
  Local  ************************372778.45739     0.01848    -0.00061    -0.00099
  n-local  -791.80622  -780.23439  -809.34681     7.01708    -0.20907     0.30741
  augment  3313.30587  3313.32552  3337.87282    -0.01702     0.00022     0.00042
  Kinetic  3492.10075  3490.89311  3528.03648     1.13849     2.06843    -1.42628
  Fock        0.00000     0.00000     0.00000     0.00000     0.00000     0.00000
  Total       1.58772     1.58772     1.92869    -0.00000    -0.00000    -0.00000
  in kB       2.32955     2.32955     2.82984    -0.00000    -0.00000    -0.00000

 VOLUME and BASIS-vectors are now :
  energy-cutoff  :      500.00
  volume of cell :     1091.97
      direct lattice vectors                 reciprocal lattice vectors
     7.696786404  0.000000000  0.000000000     0.129924354 -0.075011849  0.000000000
     3.848392758  6.665612809  0.000000000     0.000000000  0.150023716  0.000000000
     0.000000000  0.000000000 21.284399033     0.000000000  0.000000000  0.046982769

  length of vectors
     7.696786404  7.696786404 21.284399033     0.150023716  0.150023716  0.046982769

 FORCES acting on ions
    electron-ion (+dipol)            ewald-force                    non-local-force                 convergence-correction
   -.410E-04 0.466E-06 0.351E+04   0.579E-04 -.430E-05 -.351E+04   0.747E-17 -.721E-18 -.207E+01   -.335E-03 -.160E-03 -.324E+00
   -.908E+00 -.963E+00 0.351E+04   0.866E+00 0.907E+00 -.351E+04   0.226E-01 0.617E-01 -.199E+01   0.173E-01 -.823E-02 -.367E+00
   0.908E+00 -.963E+00 0.351E+04   -.867E+00 0.907E+00 -.351E+04   -.226E-01 0.617E-01 -.199E+01   -.165E-01 -.561E-02 -.366E+00
   -.129E+01 -.305E+00 0.351E+04   0.122E+01 0.297E+00 -.351E+04   0.648E-01 -.113E-01 -.199E+01   0.160E-02 0.191E-01 -.367E+00
   -.638E-04 -.458E-05 0.351E+04   0.116E-03 -.101E-04 -.350E+04   0.532E-17 0.126E-17 -.215E+01   0.122E-01 0.748E-02 -.332E+00
   0.129E+01 -.305E+00 0.351E+04   -.122E+01 0.297E+00 -.351E+04   -.648E-01 -.113E-01 -.199E+01   -.329E-02 0.203E-01 -.366E+00
   -.380E+00 0.127E+01 0.351E+04   0.352E+00 -.120E+01 -.351E+04   0.422E-01 -.504E-01 -.199E+01   -.131E-01 -.115E-01 -.366E+00
   0.380E+00 0.127E+01 0.351E+04   -.352E+00 -.120E+01 -.351E+04   -.422E-01 -.504E-01 -.199E+01   0.166E-01 -.130E-01 -.366E+00
   -.143E-03 -.326E-04 0.351E+04   0.263E-03 0.205E-04 -.351E+04   -.954E-17 0.202E-19 -.213E+01   -.133E-01 -.685E-02 -.394E+00
   -.103E+02 -.595E+01 0.122E+04   0.104E+02 0.601E+01 -.122E+04   -.707E-01 -.408E-01 -.689E+00   -.103E-01 -.594E-02 0.668E-01
   -.904E-04 -.820E+01 0.121E+04   0.189E-03 0.793E+01 -.121E+04   -.156E-07 0.234E+00 -.602E+00   0.118E-01 0.362E-01 0.179E-01
   0.103E+02 -.595E+01 0.122E+04   -.104E+02 0.601E+01 -.122E+04   0.707E-01 -.408E-01 -.689E+00   0.828E-02 -.390E-02 0.675E-01
   -.710E+01 0.410E+01 0.121E+04   0.687E+01 -.397E+01 -.121E+04   0.203E+00 -.117E+00 -.602E+00   0.377E-01 -.705E-02 0.179E-01
   0.710E+01 0.410E+01 0.121E+04   -.687E+01 -.397E+01 -.121E+04   -.203E+00 -.117E+00 -.602E+00   -.133E-01 -.803E-02 0.180E-01
   -.140E-03 -.201E+01 0.122E+04   0.296E-03 0.199E+01 -.122E+04   -.270E-08 0.406E-01 -.845E+00   -.405E-02 -.501E-02 0.233E-01
   -.918E-04 0.119E+02 0.122E+04   0.186E-03 -.120E+02 -.122E+04   -.543E-08 0.816E-01 -.689E+00   -.169E-03 0.791E-02 0.675E-01
   -.174E+01 0.101E+01 0.122E+04   0.172E+01 -.993E+00 -.122E+04   0.351E-01 -.203E-01 -.845E+00   -.568E-02 -.101E-02 0.231E-01
   0.174E+01 0.101E+01 0.122E+04   -.172E+01 -.993E+00 -.122E+04   -.351E-01 -.203E-01 -.845E+00   0.644E-02 0.203E-02 0.237E-01
   -.675E-04 -.459E+01 -.106E+04   0.667E-04 0.456E+01 0.106E+04   -.102E-08 0.153E-01 0.123E+01   -.249E-02 0.214E-02 0.270E+00
   -.244E+02 -.141E+02 -.113E+04   0.248E+02 0.143E+02 0.113E+04   -.565E+00 -.326E+00 0.541E+00   -.446E-01 -.259E-01 0.275E+00
   0.244E+02 -.141E+02 -.113E+04   -.248E+02 0.143E+02 0.113E+04   0.565E+00 -.326E+00 0.541E+00   0.686E-01 -.244E-01 0.275E+00
   -.950E+01 0.549E+01 -.108E+04   0.938E+01 -.542E+01 0.108E+04   0.153E+00 -.884E-01 0.874E+00   0.144E-02 -.187E-02 0.323E+00
   -.458E-04 0.282E+02 -.113E+04   0.149E-03 -.287E+02 0.113E+04   -.435E-07 0.653E+00 0.541E+00   0.120E-01 0.704E-01 0.275E+00
   0.950E+01 0.549E+01 -.108E+04   -.938E+01 -.542E+01 0.108E+04   -.153E+00 -.884E-01 0.874E+00   -.407E-02 -.323E-02 0.323E+00
   0.398E+01 0.230E+01 -.106E+04   -.395E+01 -.228E+01 0.106E+04   -.132E-01 -.763E-02 0.123E+01   -.359E-03 -.191E-03 0.270E+00
   -.398E+01 0.230E+01 -.106E+04   0.395E+01 -.228E+01 0.106E+04   0.132E-01 -.763E-02 0.123E+01   0.958E-03 -.302E-02 0.271E+00
   -.147E-03 -.110E+02 -.108E+04   0.243E-03 0.108E+02 0.108E+04   -.118E-07 0.177E+00 0.874E+00   -.949E-03 0.212E-02 0.323E+00
   -.147E-04 0.314E-04 -.339E+04   0.376E-04 -.334E-04 0.339E+04   -.305E-18 0.544E-18 0.182E+01   -.349E-03 -.150E-03 0.292E+00
   0.837E+01 0.701E+00 -.335E+04   -.849E+01 -.113E+01 0.334E+04   -.855E-01 0.110E+00 0.197E+01   0.202E-01 0.180E-01 0.306E+00
   -.837E+01 0.702E+00 -.335E+04   0.849E+01 -.113E+01 0.334E+04   0.855E-01 0.110E+00 0.197E+01   -.191E-01 0.207E-01 0.305E+00
   0.479E+01 0.690E+01 -.335E+04   -.522E+01 -.679E+01 0.334E+04   0.521E-01 -.129E+00 0.197E+01   0.258E-01 0.840E-02 0.305E+00
   -.479E+01 0.690E+01 -.335E+04   0.522E+01 -.679E+01 0.334E+04   -.521E-01 -.129E+00 0.197E+01   -.277E-01 0.936E-02 0.305E+00
   -.358E+01 -.760E+01 -.335E+04   0.327E+01 0.791E+01 0.334E+04   0.138E+00 0.193E-01 0.197E+01   0.839E-02 -.269E-01 0.305E+00
   0.358E+01 -.760E+01 -.335E+04   -.327E+01 0.791E+01 0.334E+04   -.138E+00 0.193E-01 0.197E+01   -.499E-02 -.286E-01 0.305E+00
   -.132E-03 -.762E-05 -.341E+04   0.260E-03 -.280E-07 0.341E+04   0.651E-17 -.325E-17 0.192E+01   -.133E-01 -.688E-02 0.357E+00
   0.173E-03 -.158E-03 -.362E+04   0.122E-03 0.327E-04 0.362E+04   -.850E-18 0.789E-18 -.361E+01   0.554E-02 0.334E-02 0.302E+00
   0.184E-03 -.931E-04 -.221E+04   0.960E-05 0.531E-05 0.223E+04   -.383E-18 -.373E-18 -.244E+02   0.333E-02 0.203E-02 0.344E-02
   0.154E-03 -.194E-03 0.267E+02   0.138E-12 0.104E-12 0.136E-11   -.502E-16 -.128E-15 -.292E+02   0.605E-01 0.320E-01 0.247E+01

 POSITION                                       TOTAL-FORCE (eV/Angst)
      0.00000      0.00000      5.37156        -0.000000      0.000000      0.039609
      2.56560      0.00000      5.37156        -0.001546     -0.001442      0.063933
      5.13119      0.00000      5.37156         0.001546     -0.001442      0.063933
      1.28280      2.22187      5.37156        -0.002022     -0.000618      0.063933
      3.84839      2.22187      5.37156        -0.000000      0.000000      0.059946
      6.41399      2.22187      5.37156         0.002022     -0.000618      0.063933
      2.56560      4.44374      5.37156        -0.000476      0.002060      0.063933
      5.13119      4.44374      5.37156         0.000476      0.002060      0.063933
      7.69679      4.44374      5.37156        -0.000000      0.000000      0.039667
      1.28280      0.74062      7.46636         0.031135      0.017976     -0.095483
      3.84839      0.74062      7.46636        -0.000000      0.002747      0.000013
      6.41399      0.74062      7.46636        -0.031135      0.017976     -0.095483
      2.56560      2.96249      7.46636         0.002379     -0.001373      0.000013
      5.13119      2.96249      7.46636        -0.002379     -0.001373      0.000013
      7.69679      2.96249      7.46636        -0.000000      0.009605     -0.034303
      3.84839      5.18437      7.46636         0.000000     -0.035951     -0.095483
      6.41399      5.18437      7.46636         0.008318     -0.004803     -0.034303
      8.97958      5.18437      7.46636        -0.008318     -0.004803     -0.034303
      7.69679      1.47435      9.52922         0.000000     -0.010377      0.035306
      2.57570      1.48708      9.58099        -0.200628     -0.115832     -0.250193
      5.12109      1.48708      9.58099         0.200628     -0.115832     -0.250193
      8.97941      3.70322      9.55185         0.032300     -0.018648      0.043583
      3.84839      3.69145      9.58099        -0.000000      0.231665     -0.250193
      6.41416      3.70322      9.55185        -0.032300     -0.018648      0.043583
     10.26835      5.92844      9.52922         0.008987      0.005188      0.035306
      5.12522      5.92844      9.52922        -0.008987      0.005188      0.035306
      7.69679      5.92479      9.55185        -0.000000      0.037297      0.043583
      0.00000      0.00000     11.63765        -0.000000     -0.000000     -0.070088
      6.39598      6.62341     11.64088        -0.182644     -0.297330     -0.152015
      8.99759      6.62341     11.64088         0.182644     -0.297330     -0.152015
      8.93403      2.22738     11.64088        -0.348817     -0.009509     -0.152015
      6.45955      2.22738     11.64088         0.348817     -0.009509     -0.152015
     10.23483      4.48044     11.64088        -0.166173      0.306839     -0.152015
      5.15874      4.48044     11.64088         0.166173      0.306839     -0.152015
      7.69679      4.44374     11.66679        -0.000000     -0.000000     -0.093318
      3.84839      2.22187     12.03290        -0.000000      0.000000      1.481195
      3.84839      2.22187     13.81569        -0.000000      0.000000     -0.025288
    total drift:                                0.060604      0.031824      0.003347

  FREE ENERGIE OF THE ION-ELECTRON SYSTEM (eV)
  free  energy   TOTEN  =      -138.37825435 eV

  energy  without entropy=     -138.37825435  energy(sigma->0) =     -138.37825435

 stress matrix after NEB project (eV)
      1.58772     -0.00000     -0.00000
     -0.00000      1.58772      0.00000
     -0.00000     -0.00000      1.92869
  FORCES: max atom, RMS     0.025288    0.004157
  FORCE total and by dimension    0.025288    0.025288
  Stress total and by dimension    2.959987    1.928689
|           W    W    AA    RRRRR   N    N  II  N    N   GGGG   !!!           |
|           W    W   A  A   R    R  NN   N  II  NN   N  G    G  !!!           |
|           W    W  A    A  R    R  N N  N  II  N N  N  G       !!!           |
|           W WW W  AAAAAA  RRRRR   N  N N  II  N  N N  G  GGG   !            |
|           WW  WW  A    A  R   R   N   NN  II  N   NN  G    G                |
|           W    W  A    A  R    R  N    N  II  N    N   GGGG   !!!           |
|     Tetrahedron method does not include variations of the Fermi             |
|     occupations, so forces and stress will be inaccurate. We suggest        |
|     using a different smearing scheme ISMEAR = 1 or 2 for metals in         |
|     relaxations.                                                            |

 total charge

# of ion       s       p       d       tot
    1        0.448   0.284   9.187   9.920
    2        0.448   0.285   9.187   9.920
    3        0.448   0.285   9.187   9.920
    4        0.448   0.285   9.187   9.920
    5        0.449   0.284   9.187   9.919
    6        0.448   0.285   9.187   9.920
    7        0.448   0.285   9.187   9.920
    8        0.448   0.285   9.187   9.920
    9        0.448   0.284   9.188   9.920
   10        0.442   0.370   9.180   9.992
   11        0.440   0.366   9.182   9.987
   12        0.442   0.370   9.180   9.992
   13        0.440   0.366   9.182   9.987
   14        0.440   0.366   9.182   9.987
   15        0.440   0.373   9.178   9.991
   16        0.442   0.370   9.180   9.992
   17        0.440   0.373   9.178   9.991
   18        0.440   0.373   9.178   9.991
   19        0.446   0.370   9.183   9.999
   20        0.450   0.373   9.174   9.997
   21        0.450   0.373   9.174   9.997
   22        0.436   0.375   9.178   9.989
   23        0.450   0.373   9.174   9.997
   24        0.436   0.375   9.178   9.989
   25        0.446   0.370   9.183   9.999
   26        0.446   0.370   9.183   9.999
   27        0.436   0.375   9.178   9.989
   28        0.447   0.297   9.180   9.924
   29        0.485   0.306   9.178   9.969
   30        0.485   0.306   9.178   9.969
   31        0.485   0.306   9.178   9.969
   32        0.485   0.306   9.178   9.969
   33        0.485   0.306   9.178   9.969
   34        0.485   0.306   9.178   9.969
   35        0.449   0.300   9.180   9.929
   36        2.242   6.005   1.913  10.160
   37        1.605   3.332   0.000   4.937
tot         19.648  21.009 323.249 363.906

 BZINTS: Fermi energy:   -0.052733;  403.000000 electrons
         Band energy:-0.143859E+04;  BLOECHL correction:   -0.073059