 vasp.6.2.0 18Jan21 (build Jun 12 2021 23:27:24) complex

 executed on             LinuxIFC date 2022.05.26  20:12:55

 INCAR:
   ISMEAR = -5
   SIGMA = 0.1
   ISPIN = 1
   EDIFF = 1.d-5
   EDIFFG = -0.01
   NSW = 0
   NELM = 150
   ENCUT = 500
   ISIF = 2
   IBRION = 2
   LREAL = Auto
   ALGO = Fast
   ICHARG = 11
   LORBIT = 10
   LCHARG = .F.
   LWAVE = .F.

 POTCAR:    PAW_PBE Au 04Oct2007
 POTCAR:    PAW_PBE Ni 02Aug2007
|           W    W    AA    RRRRR   N    N  II  N    N   GGGG   !!!           |
|           W    W   A  A   R    R  NN   N  II  NN   N  G    G  !!!           |
|           W    W  A    A  R    R  N N  N  II  N N  N  G       !!!           |
|           W WW W  AAAAAA  RRRRR   N  N N  II  N  N N  G  GGG   !            |
|           WW  WW  A    A  R   R   N   NN  II  N   NN  G    G                |
|           W    W  A    A  R    R  N    N  II  N    N   GGGG   !!!           |
|     For optimal performance we recommend to set                             |
|       NCORE = 2 up to number-of-cores-per-socket                            |
|     This setting can greatly improve the performance of VASP for DFT.       |
|     The default, NCORE=1 might be grossly inefficient on modern             |
|     multi-core architectures or massively parallel machines. Do your        |
|     Unfortunately you need to use the default for GW and RPA                |
|     calculations (for HF NCORE is supported but not extensively tested      |
|     yet).                                                                   |

 POTCAR:    PAW_PBE Au 04Oct2007
   VRHFIN =Au: s1d10

   TITEL  = PAW_PBE Au 04Oct2007
   POMASS =  196.966; ZVAL   =   11.000    mass and valenz
   ENMAX  =  229.943; ENMIN  =  172.457 eV

 POTCAR:    PAW_PBE Ni 02Aug2007
   VRHFIN =Ni:

   TITEL  = PAW_PBE Ni 02Aug2007
   POMASS =   58.690; ZVAL   =   10.000    mass and valenz
   ENMAX  =  269.532; ENMIN  =  202.149 eV

 Optimization of the real space projectors (new method)

 maximal supplied QI-value         = 15.12
 optimisation between [QCUT,QGAM] = [ 11.34, 22.83] = [ 36.00,145.93] Ry
 Optimized for a Real-space Cutoff    1.39 Angstroem

   l    n(q)    QCUT    max X(q) W(low)/X(q) W(high)/X(q)  e(spline)
   2      9    11.338    60.898    0.39E-03    0.42E-03    0.21E-06
   2      9    11.338    58.894    0.40E-03    0.42E-03    0.22E-06
   0      9    11.338   109.617    0.13E-03    0.20E-04    0.13E-06
   0      9    11.338    75.026    0.13E-03    0.20E-04    0.13E-06
   1      9    11.338    16.344    0.33E-04    0.24E-03    0.18E-06
   1      9    11.338    10.160    0.26E-04    0.19E-03    0.15E-06
 Optimization of the real space projectors (new method)

 maximal supplied QI-value         = 16.25
 optimisation between [QCUT,QGAM] = [ 11.38, 22.75] = [ 36.24,144.96] Ry
 Optimized for a Real-space Cutoff    1.39 Angstroem

   l    n(q)    QCUT    max X(q) W(low)/X(q) W(high)/X(q)  e(spline)
   2      8    11.376    60.317    0.19E-03    0.33E-04    0.13E-06
   2      8    11.376    55.921    0.20E-03    0.34E-04    0.14E-06
   0      9    11.376    51.690    0.82E-04    0.12E-03    0.20E-06
   0      9    11.376    30.015    0.74E-04    0.11E-03    0.18E-06
   1      9    11.376    18.849    0.39E-03    0.12E-03    0.13E-06
   1      9    11.376    14.624    0.33E-03    0.10E-03    0.11E-06
  PAW_PBE Au 04Oct2007                  :
  PAW_PBE Ni 02Aug2007                  :

 POSCAR: Au-Ni
  positions in direct lattice
  velocities in cartesian coordinates
 exchange correlation table for  LEXCH =        8
   RHO(1)=    0.500       N(1)  =     2000
   RHO(2)=  100.500       N(2)  =     4000

 VTST: version 3.2, (02/03/18)

 CHAIN: initializing optimizer

 OPT: Using VASP Conjugate-Gradient optimizer
 CHAIN: Read ICHAIN            0

 POSCAR: Au-Ni
  positions in direct lattice
  velocities in cartesian coordinates

 ion  position               nearest neighbor table
   1  0.000  0.000  0.238-  16 2.94  12 2.94   6 2.94   8 2.94   7 2.94   3 2.94  10 2.94   4 2.94
                             2 2.94
   2  0.333  0.000  0.238-   9 2.94  11 2.94  17 2.94  10 2.94   8 2.94   4 2.94   5 2.94   1 2.94
                             3 2.94
   3  0.667  0.000  0.238-   7 2.94  18 2.94  12 2.94   1 2.94  11 2.94   5 2.94   6 2.94   9 2.94
                             2 2.94
   4  0.000  0.333  0.238-  10 2.94   6 2.94   5 2.94  13 2.94   2 2.94  15 2.94   9 2.94   1 2.94
                             7 2.94
   5  0.333  0.333  0.238-  13 2.94   7 2.94  11 2.94   4 2.94   2 2.94  14 2.94   3 2.94   8 2.94
                             6 2.94
   6  0.667  0.333  0.238-  15 2.94  14 2.94   1 2.94  12 2.94   4 2.94   9 2.94   8 2.94   3 2.94
                             5 2.94
   7  0.000  0.667  0.238-  18 2.94   3 2.94  16 2.94   5 2.94   1 2.94  13 2.94   8 2.94   4 2.94
                             9 2.94
   8  0.333  0.667  0.238-   9 2.94  17 2.94   1 2.94   2 2.94  14 2.94  16 2.94   6 2.94   7 2.94
                             5 2.94
   9  0.667  0.667  0.238-   2 2.94   8 2.94  17 2.94   6 2.94  15 2.94   4 2.94   3 2.94  18 2.94
                             7 2.94
  10  0.111  0.111  0.346-  20 2.93  26 2.93  19 2.93  11 2.94  17 2.94   2 2.94   4 2.94   1 2.94
                            12 2.94  16 2.94  13 2.94  15 2.94
  11  0.444  0.111  0.346-  20 2.92  21 2.92  27 2.93  13 2.94   2 2.94  10 2.94  17 2.94   5 2.94
                             3 2.94  18 2.94  14 2.94  12 2.94
  12  0.778  0.111  0.346-  21 2.93  25 2.93  19 2.93  16 2.94  18 2.94   1 2.94  14 2.94  15 2.94
                             3 2.94   6 2.94  10 2.94  11 2.94
  13  0.111  0.444  0.346-  23 2.92  20 2.92  22 2.93   5 2.94  18 2.94  11 2.94   7 2.94   4 2.94
                            16 2.94  10 2.94  14 2.94  15 2.94
  14  0.444  0.444  0.346-  21 2.92  23 2.92  24 2.93  15 2.94   6 2.94  12 2.94   8 2.94  17 2.94
                             5 2.94  16 2.94  13 2.94  11 2.94
  15  0.778  0.444  0.346-  24 2.92  22 2.92  19 2.93  14 2.94   6 2.94  17 2.94  12 2.94   9 2.94
                             4 2.94  10 2.94  13 2.94  18 2.94
  16  0.111  0.778  0.346-  23 2.93  25 2.93  26 2.93  18 2.94  12 2.94   7 2.94   1 2.94   8 2.94
                            13 2.94  10 2.94  14 2.94  17 2.94
  17  0.444  0.778  0.346-  27 2.92  24 2.92  26 2.93   9 2.94  15 2.94   2 2.94  10 2.94  11 2.94
                             8 2.94  14 2.94  16 2.94  18 2.94
  18  0.778  0.778  0.346-  22 2.92  27 2.92  25 2.93  16 2.94   7 2.94  13 2.94  12 2.94   3 2.94
                            11 2.94   9 2.94  15 2.94  17 2.94
  19  0.889  0.222  0.454-  10 2.93  12 2.93  15 2.93  26 2.93  25 2.93  24 2.94  22 2.94  21 2.95
                            20 2.95  28 2.95  32 2.96  31 2.96
  20  0.223  0.223  0.453-  36 2.70  29 2.91  31 2.91  11 2.92  13 2.92  23 2.92  21 2.92  10 2.93
                            27 2.95  22 2.95  26 2.95  19 2.95
  21  0.554  0.223  0.453-  36 2.70  30 2.91  32 2.91  14 2.92  11 2.92  20 2.92  23 2.92  12 2.93
                            27 2.95  24 2.95  25 2.95  19 2.95
  22  0.888  0.556  0.453-  18 2.92  15 2.92  24 2.92  27 2.92  13 2.93  25 2.94  19 2.94  33 2.94
                            31 2.94  23 2.95  20 2.95  35 2.96
  23  0.223  0.554  0.453-  36 2.70  33 2.91  34 2.91  13 2.92  14 2.92  20 2.92  21 2.92  16 2.93
                            22 2.95  24 2.95  25 2.95  26 2.95
  24  0.556  0.556  0.453-  15 2.92  17 2.92  27 2.92  22 2.92  14 2.93  26 2.94  19 2.94  32 2.94
                            34 2.94  21 2.95  23 2.95  35 2.96
  25  0.889  0.889  0.454-  16 2.93  12 2.93  18 2.93  19 2.93  26 2.93  22 2.94  27 2.94  23 2.95
                            21 2.95  28 2.95  33 2.96  30 2.96
  26  0.222  0.889  0.454-  10 2.93  16 2.93  17 2.93  19 2.93  25 2.93  27 2.94  24 2.94  20 2.95
                            23 2.95  28 2.95  29 2.96  34 2.96
  27  0.556  0.888  0.453-  17 2.92  18 2.92  24 2.92  22 2.92  11 2.93  26 2.94  25 2.94  29 2.94
                            30 2.94  20 2.95  21 2.95  35 2.96
  28  0.000  0.000  0.563-  25 2.95  19 2.95  26 2.95  34 2.97  32 2.97  33 2.97  30 2.97  31 2.97
                            29 2.97
  29  0.334  0.007  0.561-  30 2.87  31 2.88  36 2.89  20 2.91  27 2.94  26 2.96  35 2.97  28 2.97
                            34 3.06
  30  0.660  0.007  0.561-  29 2.87  32 2.88  36 2.89  21 2.91  27 2.94  25 2.96  35 2.97  28 2.97
                            33 3.06
  31  0.007  0.334  0.561-  33 2.87  29 2.88  36 2.89  20 2.91  22 2.94  19 2.96  35 2.97  28 2.97
                            32 3.06
  32  0.660  0.334  0.561-  34 2.87  30 2.88  36 2.89  21 2.91  24 2.94  19 2.96  35 2.97  28 2.97
                            31 3.06
  33  0.007  0.660  0.561-  31 2.87  34 2.88  36 2.89  23 2.91  22 2.94  25 2.96  35 2.97  28 2.97
                            30 3.06
  34  0.334  0.660  0.561-  32 2.87  33 2.88  36 2.89  23 2.91  24 2.94  26 2.96  35 2.97  28 2.97
                            29 3.06
  35  0.667  0.667  0.563-  24 2.96  27 2.96  22 2.96  29 2.97  34 2.97  32 2.97  31 2.97  30 2.97
                            33 2.97
  36  0.333  0.333  0.548-  20 2.70  23 2.70  21 2.70  33 2.89  31 2.89  29 2.89  30 2.89  34 2.89
                            32 2.89

  LATTYP: Found a hexagonal cell.
 ALAT       =     8.8135128021
 C/A-ratio  =     2.5184286595

  Lattice vectors:

 A1 = (  -4.4067569092,  -7.6327256898,   0.0000000000)
 A2 = (   8.8135128021,   0.0000000000,   0.0000000000)
 A3 = (   0.0000000000,   0.0000000000,  22.1962032318)

Analysis of symmetry for initial positions (statically):
 Subroutine PRICEL returns:
 Original cell was already a primitive cell.

 Routine SETGRP: Setting up the symmetry group for a
 hexagonal supercell.

 Subroutine GETGRP returns: Found  6 space group operations
 (whereof  6 operations were pure point group operations)
 out of a pool of 24 trial point group operations.

The static configuration has the point symmetry C_3v.

Analysis of symmetry for dynamics (positions and initial velocities):
 Subroutine PRICEL returns:
 Original cell was already a primitive cell.

[...]

The dynamic configuration has the point symmetry C_3v.

Analysis of constrained symmetry for selective dynamics:
 Subroutine PRICEL returns:
 Original cell was already a primitive cell.

 Routine SETGRP: Setting up the symmetry group for a
 hexagonal supercell.

 Subroutine GETGRP returns: Found  6 space group operations
 (whereof  6 operations were pure point group operations)
 out of a pool of 24 trial point group operations.

The constrained configuration has the point symmetry C_3v.

 Subroutine INISYM returns: Found  6 space group operations
 (whereof  6 operations are pure point group operations),
 and found     1 'primitive' translations

                                     Primitive cell

  volume of cell :    1493.1636

  direct lattice vectors                    reciprocal lattice vectors
     8.813512802  0.000000000  0.000000000     0.113462137 -0.065507406  0.000000000
     4.406756909  7.632725690  0.000000000     0.000000000  0.131014796  0.000000000
[...]
     15      -5.2601      2.00000
     16      -5.2552      2.00000
     17      -5.2477      2.00000
     18      -5.2435      2.00000
     19      -5.1753      2.00000
     20      -5.1719      2.00000
     21      -5.1257      2.00000
     22      -5.0996      2.00000
     23      -5.0719      2.00000
     24      -5.0646      2.00000
     25      -5.0484      2.00000
     26      -5.0145      2.00000
     27      -4.9307      2.00000
     28      -4.8673      2.00000
     29      -4.7772      2.00000
     30      -4.7736      2.00000
     31      -4.7637      2.00000
     32      -4.7571      2.00000
     33      -4.7430      2.00000
     34      -4.6703      2.00000
     35      -4.5763      2.00000
     36      -4.5605      2.00000
     37      -4.5544      2.00000
     38      -4.5449      2.00000
     39      -4.4991      2.00000
     40      -4.4105      2.00000
     41      -4.3738      2.00000
     42      -4.3167      2.00000
     43      -4.2973      2.00000
     44      -4.2937      2.00000
     45      -4.2866      2.00000
     46      -4.1837      2.00000
     47      -4.1697      2.00000
     48      -4.1354      2.00000
     49      -4.1236      2.00000
     50      -4.1139      2.00000
     51      -4.1045      2.00000
     52      -4.0827      2.00000
     53      -4.0526      2.00000
     54      -4.0134      2.00000
     55      -4.0073      2.00000
     56      -3.9665      2.00000
     57      -3.9536      2.00000
     58      -3.9459      2.00000
     59      -3.9317      2.00000
     60      -3.9179      2.00000
[...]
    238       6.7259      0.00000
    239       6.7695      0.00000
    240       6.7985      0.00000
    241       6.8190      0.00000
    242       6.8938      0.00000
    243       7.1099      0.00000
    244       7.1492      0.00000
    245       7.2681      0.00000
    246       7.5754      0.00000
    247       7.6077      0.00000
    248       7.7128      0.00000
    249       7.7290      0.00000
    250       7.8868      0.00000
    251       7.9940      0.00000
    252       8.0241      0.00000

 soft charge-density along one line, spin component           1
         0         1         2         3         4         5         6         7         8         9
 total charge-density along one line

------------------------ aborting loop because EDIFF is reached ----------------------------------------

 total charge

# of ion       s       p       d       tot
    1        0.544   0.240   8.767   9.551
    2        0.545   0.240   8.766   9.550
    3        0.545   0.240   8.766   9.550
    4        0.545   0.240   8.766   9.550
    5        0.541   0.241   8.764   9.546
    6        0.545   0.240   8.766   9.550
    7        0.545   0.240   8.766   9.550
    8        0.545   0.240   8.766   9.550
    9        0.545   0.239   8.767   9.551
   10        0.520   0.308   8.770   9.598
   11        0.520   0.307   8.777   9.604
   12        0.520   0.308   8.770   9.598
   13        0.520   0.307   8.777   9.604
   14        0.520   0.307   8.777   9.604
   15        0.518   0.308   8.775   9.601
   16        0.520   0.308   8.770   9.598
   17        0.518   0.308   8.775   9.601
   18        0.518   0.308   8.775   9.601
   19        0.517   0.302   8.776   9.595
   20        0.534   0.322   8.760   9.617
   21        0.534   0.322   8.760   9.617
   22        0.513   0.309   8.773   9.595
   23        0.534   0.322   8.760   9.617
   24        0.513   0.309   8.773   9.595
   25        0.517   0.302   8.776   9.595
   26        0.517   0.302   8.776   9.595
   27        0.513   0.309   8.773   9.595
   28        0.539   0.225   8.767   9.531
   29        0.551   0.233   8.761   9.546
   30        0.551   0.233   8.761   9.546
   31        0.551   0.233   8.761   9.546
   32        0.551   0.233   8.761   9.546
   33        0.551   0.233   8.761   9.546
   34        0.551   0.233   8.761   9.546
   35        0.538   0.225   8.768   9.532
   36        0.335   0.229   8.373   8.937
tot         18.984   9.809 315.265 344.057

  FORCE on cell =-STRESS in cart. coord.  units (eV):
  Direction    XX          YY          ZZ          XY          YZ          ZX
  Alpha Z   993.91764   993.91764   993.91764
  Ewald  120672.42805120672.42847************    -0.00033    -0.00009    -0.00016
  Hartree129429.94383129429.94384************     0.00000    -0.00002    -0.00004
  E(xc)   -1782.59471 -1782.59469 -1789.61139    -0.00002    -0.00000    -0.00000
  Local  ************************262646.70044     0.00195     0.00004     0.00008
  n-local   -96.88593   -43.43156   -46.95523    23.61105    -1.37670     1.76458
  augment  2543.86886  2543.87059  2558.78855    -0.00150     0.00002     0.00003
  Kinetic  5417.33526  5431.02270  5474.65572     5.57948    -0.18750     0.73388
  Fock        0.00000     0.00000     0.00000     0.00000     0.00000     0.00000
  Total     -22.00197   -22.00197     1.96327    -0.00000     0.00000    -0.00000
  in kB     -23.60830   -23.60830     2.10660    -0.00000     0.00000    -0.00000

 VOLUME and BASIS-vectors are now :
  energy-cutoff  :      500.00
  volume of cell :     1493.16
      direct lattice vectors                 reciprocal lattice vectors
     8.813512802  0.000000000  0.000000000     0.113462137 -0.065507406  0.000000000
     4.406756909  7.632725690  0.000000000     0.000000000  0.131014796  0.000000000
     0.000000000  0.000000000 22.196203232     0.000000000  0.000000000  0.045052750

  length of vectors
     8.813512802  8.813512802 22.196203232     0.131014796  0.131014796  0.045052750

 FORCES acting on ions
    electron-ion (+dipol)            ewald-force                    non-local-force                 convergence-correction
   -.198E-04 -.163E-04 0.249E+04   0.519E-04 0.434E-04 -.248E+04   0.419E-17 -.403E-17 -.629E+00   -.260E-03 -.164E-03 -.328E+00
   0.422E+00 0.430E+00 0.249E+04   -.480E+00 -.394E+00 -.249E+04   0.148E-01 -.968E-02 -.346E+00   0.394E-01 -.269E-01 -.341E+00
   -.423E+00 0.430E+00 0.249E+04   0.480E+00 -.394E+00 -.249E+04   -.148E-01 -.968E-02 -.346E+00   -.391E-01 -.249E-01 -.341E+00
   0.584E+00 0.151E+00 0.249E+04   -.581E+00 -.219E+00 -.249E+04   -.969E-03 0.177E-01 -.346E+00   -.349E-02 0.475E-01 -.341E+00
   0.752E-05 -.238E-04 0.249E+04   0.951E-04 0.172E-05 -.249E+04   0.190E-17 -.162E-17 -.357E+00   0.434E-02 0.264E-02 -.379E+00
   -.584E+00 0.151E+00 0.249E+04   0.581E+00 -.219E+00 -.249E+04   0.969E-03 0.177E-01 -.346E+00   0.189E-02 0.484E-01 -.340E+00
   0.162E+00 -.581E+00 0.249E+04   -.101E+00 0.613E+00 -.249E+04   -.158E-01 -.800E-02 -.346E+00   -.410E-01 -.214E-01 -.341E+00
   -.162E+00 -.581E+00 0.249E+04   0.101E+00 0.613E+00 -.249E+04   0.158E-01 -.800E-02 -.346E+00   0.429E-01 -.226E-01 -.340E+00
   0.198E-04 -.416E-04 0.249E+04   0.166E-03 -.201E-04 -.249E+04   0.384E-17 -.470E-17 -.403E+00   -.462E-02 -.239E-02 -.323E+00
   0.372E+01 0.215E+01 0.828E+03   -.352E+01 -.203E+01 -.827E+03   -.129E+00 -.746E-01 -.539E+00   -.421E-01 -.244E-01 0.324E-01
   0.149E-04 0.504E+01 0.835E+03   0.147E-03 -.502E+01 -.835E+03   0.248E-09 0.373E-02 -.387E+00   0.416E-02 -.388E-01 0.603E-01
   -.372E+01 0.215E+01 0.828E+03   0.352E+01 -.203E+01 -.827E+03   0.129E+00 -.746E-01 -.539E+00   0.405E-01 -.229E-01 0.329E-01
   0.436E+01 -.252E+01 0.835E+03   -.435E+01 0.251E+01 -.835E+03   0.323E-02 -.186E-02 -.387E+00   -.312E-01 0.233E-01 0.603E-01
   -.436E+01 -.252E+01 0.835E+03   0.434E+01 0.251E+01 -.835E+03   -.323E-02 -.186E-02 -.387E+00   0.392E-01 0.225E-01 0.605E-01
   0.312E-04 0.193E+01 0.829E+03   0.236E-03 -.202E+01 -.828E+03   0.173E-08 0.260E-01 -.429E+00   -.261E-02 0.360E-01 0.595E-01
   -.216E-04 -.429E+01 0.828E+03   0.163E-03 0.406E+01 -.827E+03   0.993E-08 0.149E+00 -.539E+00   0.188E-03 0.465E-01 0.329E-01
   0.167E+01 -.967E+00 0.829E+03   -.175E+01 0.101E+01 -.828E+03   0.225E-01 -.130E-01 -.429E+00   0.301E-01 -.198E-01 0.595E-01
   -.168E+01 -.967E+00 0.829E+03   0.175E+01 0.101E+01 -.828E+03   -.225E-01 -.130E-01 -.429E+00   -.299E-01 -.175E-01 0.599E-01
   -.388E-04 0.161E+01 -.862E+03   0.536E-04 -.176E+01 0.862E+03   0.397E-08 0.596E-01 0.518E+00   -.457E-02 0.968E-01 0.276E+00
   0.320E+02 0.185E+02 -.821E+03   -.315E+02 -.182E+02 0.821E+03   -.571E+00 -.330E+00 -.483E+00   0.994E-01 0.573E-01 0.468E+00
   -.320E+02 0.185E+02 -.821E+03   0.315E+02 -.182E+02 0.821E+03   0.571E+00 -.330E+00 -.483E+00   -.970E-01 0.585E-01 0.468E+00
   0.859E+01 -.496E+01 -.851E+03   -.891E+01 0.514E+01 0.850E+03   0.240E+00 -.138E+00 0.511E+00   0.699E-01 -.432E-01 0.300E+00
   -.138E-04 -.369E+02 -.821E+03   0.144E-03 0.364E+02 0.821E+03   0.439E-07 0.659E+00 -.483E+00   0.190E-02 -.113E+00 0.468E+00
   -.859E+01 -.496E+01 -.851E+03   0.891E+01 0.514E+01 0.850E+03   -.240E+00 -.138E+00 0.511E+00   -.767E-01 -.442E-01 0.300E+00
   -.139E+01 -.803E+00 -.862E+03   0.153E+01 0.882E+00 0.862E+03   -.517E-01 -.298E-01 0.518E+00   -.867E-01 -.501E-01 0.275E+00
   0.139E+01 -.803E+00 -.862E+03   -.153E+01 0.881E+00 0.862E+03   0.517E-01 -.298E-01 0.518E+00   0.819E-01 -.523E-01 0.276E+00
   0.905E-05 0.992E+01 -.851E+03   0.198E-03 -.103E+02 0.850E+03   0.184E-07 0.277E+00 0.511E+00   -.298E-02 0.821E-01 0.300E+00
   -.905E-05 -.123E-04 -.251E+04   0.278E-04 0.323E-04 0.251E+04   0.199E-17 -.166E-18 0.628E+00   -.162E-03 -.110E-03 0.474E+00
   0.144E+02 0.222E+02 -.251E+04   -.140E+02 -.215E+02 0.251E+04   -.494E+00 -.769E+00 0.402E+00   0.954E-01 0.886E-01 0.355E+00
   -.144E+02 0.222E+02 -.251E+04   0.140E+02 -.215E+02 0.251E+04   0.494E+00 -.769E+00 0.402E+00   -.948E-01 0.905E-01 0.354E+00
   0.264E+02 0.138E+01 -.251E+04   -.256E+02 -.137E+01 0.251E+04   -.913E+00 -.434E-01 0.402E+00   0.125E+00 0.382E-01 0.355E+00
   -.264E+02 0.138E+01 -.251E+04   0.256E+02 -.137E+01 0.251E+04   0.913E+00 -.434E-01 0.402E+00   -.126E+00 0.390E-01 0.353E+00
   0.120E+02 -.235E+02 -.251E+04   -.116E+02 0.229E+02 0.251E+04   -.419E+00 0.813E+00 0.402E+00   0.310E-01 -.127E+00 0.354E+00
   -.120E+02 -.235E+02 -.251E+04   0.116E+02 0.229E+02 0.251E+04   0.419E+00 0.813E+00 0.402E+00   -.291E-01 -.128E+00 0.353E+00
   0.333E-04 -.310E-04 -.251E+04   0.145E-03 -.476E-04 0.251E+04   -.497E-18 0.172E-17 0.567E+00   -.457E-02 -.234E-02 0.376E+00
   -.409E-04 0.243E-05 -.219E+04   0.105E-03 0.985E-05 0.219E+04   0.302E-17 0.124E-17 0.209E+01   0.990E-02 0.605E-02 0.499E+00
   -.780E-03 -.767E-03 -.323E+01   0.114E-12 -.100E-12 0.227E-11   -.530E-16 0.297E-17 -.194E+00   -.273E-03 0.693E-03 0.399E+01

 POSITION                                       TOTAL-FORCE (eV/Angst)
      0.00000      0.00000      5.28038         0.000000      0.000000     -0.067373
      2.93784      0.00000      5.28038        -0.003186      0.001397     -0.063299
      5.87568      0.00000      5.28038         0.003186      0.001397     -0.063299
      1.46892      2.54424      5.28038        -0.000383     -0.003458     -0.063299
      4.40676      2.54424      5.28038         0.000000      0.000000     -0.082490
      7.34459      2.54424      5.28038         0.000383     -0.003458     -0.063299
      2.93784      5.08848      5.28038         0.002803      0.002061     -0.063299
      5.87568      5.08848      5.28038        -0.002803      0.002061     -0.063299
      8.81351      5.08848      5.28038        -0.000000      0.000000     -0.070970
      1.46892      0.84808      7.67911         0.029513      0.017039      0.098509
      4.40676      0.84808      7.67911        -0.000000     -0.014485      0.047197
      7.34459      0.84808      7.67911        -0.029513      0.017039      0.098509
      2.93784      3.39232      7.67911        -0.012544      0.007242      0.047197
      5.87568      3.39232      7.67911         0.012544      0.007242      0.047197
      8.81351      3.39232      7.67911        -0.000000     -0.023899      0.085668
      4.40676      5.93656      7.67911        -0.000000     -0.034078      0.098509
      7.34459      5.93656      7.67911        -0.020697      0.011950      0.085668
     10.28243      5.93656      7.67911         0.020697      0.011950      0.085668
      8.81351      1.69394     10.07055         0.000000      0.001505      0.010378
      2.94670      1.70128     10.05847         0.003645      0.002105      0.004313
      5.86681      1.70128     10.05847        -0.003645      0.002105      0.004313
     10.27376      4.24541     10.05945        -0.004827      0.002787     -0.000134
      4.40676      4.23017     10.05847        -0.000000     -0.004209      0.004313
      7.35327      4.24541     10.05945         0.004827      0.002787     -0.000134
     11.75328      6.78576     10.07055        -0.001304     -0.000753      0.010378
      5.87375      6.78576     10.07055         0.001304     -0.000753      0.010378
      8.81351      6.77463     10.05945        -0.000000     -0.005574     -0.000134
      0.00000      0.00000     12.48855         0.000000      0.000000     -0.022375
      2.97006      0.05170     12.45862         0.001372     -0.001949     -0.011062
      5.84345      0.05170     12.45862        -0.001372     -0.001949     -0.011062
      1.52981      2.54630     12.45862        -0.001002      0.002162     -0.011062
      7.28371      2.54630     12.45862         0.001002      0.002162     -0.011062
      2.96650      5.03473     12.45862        -0.002374     -0.000213     -0.011062
      5.84701      5.03473     12.45862         0.002374     -0.000213     -0.011062
      8.81351      5.08848     12.49203         0.000000      0.000000     -0.025123
      4.40676      2.54424     12.16149         0.000000      0.000000     -0.023299
    total drift:                               -0.001052     -0.000074      0.571071

  FREE ENERGIE OF THE ION-ELECTRON SYSTEM (eV)
  free  energy   TOTEN  =      -111.43807289 eV

  energy  without entropy=     -111.43807289  energy(sigma->0) =     -111.43807289

 stress matrix after NEB project (eV)
    -22.00197     -0.00000     -0.00000
     -0.00000    -22.00197     -0.00000
     -0.00000      0.00000      1.96327
  FORCES: max atom, RMS     0.025123    0.009091
  FORCE total and by dimension    0.054544    0.025123
  Stress total and by dimension   31.177355   22.001967
|           W    W    AA    RRRRR   N    N  II  N    N   GGGG   !!!           |
|           W    W   A  A   R    R  NN   N  II  NN   N  G    G  !!!           |
|           W    W  A    A  R    R  N N  N  II  N N  N  G       !!!           |
|           W WW W  AAAAAA  RRRRR   N  N N  II  N  N N  G  GGG   !            |
|           WW  WW  A    A  R   R   N   NN  II  N   NN  G    G                |
|           W    W  A    A  R    R  N    N  II  N    N   GGGG   !!!           |
|     Tetrahedron method does not include variations of the Fermi             |
|     occupations, so forces and stress will be inaccurate. We suggest        |
|     using a different smearing scheme ISMEAR = 1 or 2 for metals in         |
|     relaxations.                                                            |

 total charge

# of ion       s       p       d       tot
    1        0.544   0.240   8.767   9.551
    2        0.545   0.240   8.766   9.550
    3        0.545   0.240   8.766   9.550
    4        0.545   0.240   8.766   9.550
    5        0.541   0.241   8.764   9.546
    6        0.545   0.240   8.766   9.550
    7        0.545   0.240   8.766   9.550
    8        0.545   0.240   8.766   9.550
    9        0.545   0.239   8.767   9.551
   10        0.520   0.308   8.770   9.598
   11        0.520   0.307   8.777   9.604
   12        0.520   0.308   8.770   9.598
   13        0.520   0.307   8.777   9.604
   14        0.520   0.307   8.777   9.604
   15        0.518   0.308   8.775   9.601
   16        0.520   0.308   8.770   9.598
   17        0.518   0.308   8.775   9.601
   18        0.518   0.308   8.775   9.601
   19        0.517   0.302   8.776   9.595
   20        0.534   0.322   8.760   9.617
   21        0.534   0.322   8.760   9.617
   22        0.513   0.309   8.773   9.595
   23        0.534   0.322   8.760   9.617
   24        0.513   0.309   8.773   9.595
   25        0.517   0.302   8.776   9.595
   26        0.517   0.302   8.776   9.595
   27        0.513   0.309   8.773   9.595
   28        0.539   0.225   8.767   9.531
   29        0.551   0.233   8.761   9.546
   30        0.551   0.233   8.761   9.546
   31        0.551   0.233   8.761   9.546
   32        0.551   0.233   8.761   9.546
   33        0.551   0.233   8.761   9.546
   34        0.551   0.233   8.761   9.546
   35        0.538   0.225   8.768   9.532
   36        0.335   0.229   8.373   8.937
tot         18.984   9.809 315.265 344.057

 BZINTS: Fermi energy:    0.638766;  395.000000 electrons
         Band energy:-0.117671E+04;  BLOECHL correction:   -0.102351