 vasp.6.2.0 18Jan21 (build Jun 12 2021 23:27:24) complex

 executed on             LinuxIFC date 2022.05.27  06:14:36

 INCAR:
   ISMEAR = -5
   SIGMA = 0.1
   ISPIN = 1
   EDIFF = 1.d-5
   EDIFFG = -0.01
   NSW = 0
   NELM = 150
   ENCUT = 500
   ISIF = 2
   IBRION = 2
   LREAL = Auto
   ALGO = Fast
   ICHARG = 11
   LORBIT = 10
   LCHARG = .F.
   LWAVE = .F.

 POTCAR:    PAW_PBE Cu 22Jun2005
 POTCAR:    PAW_PBE Hf 20Jan2003
 POTCAR:    PAW_PBE O 08Apr2002
 POTCAR:    PAW_PBE H 15Jun2001
|           W    W    AA    RRRRR   N    N  II  N    N   GGGG   !!!           |
|           W    W   A  A   R    R  NN   N  II  NN   N  G    G  !!!           |
|           W    W  A    A  R    R  N N  N  II  N N  N  G       !!!           |
|           W WW W  AAAAAA  RRRRR   N  N N  II  N  N N  G  GGG   !            |
|           WW  WW  A    A  R   R   N   NN  II  N   NN  G    G                |
|           W    W  A    A  R    R  N    N  II  N    N   GGGG   !!!           |
|     For optimal performance we recommend to set                             |
|       NCORE = 2 up to number-of-cores-per-socket                            |
|     This setting can greatly improve the performance of VASP for DFT.       |
|     The default, NCORE=1 might be grossly inefficient on modern             |
|     multi-core architectures or massively parallel machines. Do your        |
|     Unfortunately you need to use the default for GW and RPA                |
|     calculations (for HF NCORE is supported but not extensively tested      |
|     yet).                                                                   |

 POTCAR:    PAW_PBE Cu 22Jun2005
   VRHFIN =Cu: d10 p1

   TITEL  = PAW_PBE Cu 22Jun2005
   POMASS =   63.546; ZVAL   =   11.000    mass and valenz
   ENMAX  =  295.446; ENMIN  =  221.585 eV

 POTCAR:    PAW_PBE Hf 20Jan2003
   VRHFIN =Hf: 6s5d

   TITEL  = PAW_PBE Hf 20Jan2003
   POMASS =  178.490; ZVAL   =    4.000    mass and valenz
   ENMAX  =  220.334; ENMIN  =  165.250 eV

 POTCAR:    PAW_PBE O 08Apr2002
   VRHFIN =O: s2p4

   TITEL  = PAW_PBE O 08Apr2002
   POMASS =   16.000; ZVAL   =    6.000    mass and valenz
   ENMAX  =  400.000; ENMIN  =  300.000 eV

 POTCAR:    PAW_PBE H 15Jun2001
   VRHFIN =H: ultrasoft test

   TITEL  = PAW_PBE H 15Jun2001
   POMASS =    1.000; ZVAL   =    1.000    mass and valenz
   ENMAX  =  250.000; ENMIN  =  200.000 eV

 Optimization of the real space projectors (new method)

 maximal supplied QI-value         = 16.25
 optimisation between [QCUT,QGAM] = [ 11.38, 22.75] = [ 36.24,144.96] Ry
 Optimized for a Real-space Cutoff    1.52 Angstroem

   l    n(q)    QCUT    max X(q) W(low)/X(q) W(high)/X(q)  e(spline)
   2      9    11.376     4.610    0.21E-03    0.10E-03    0.26E-06
   2      9    11.376     8.522    0.33E-03    0.16E-03    0.37E-06
   0     10    11.376    51.609    0.62E-04    0.20E-04    0.13E-06
   0     10    11.376    27.747    0.54E-04    0.20E-04    0.13E-06
   1     10    11.376    20.408    0.13E-04    0.99E-04    0.19E-06
   1     10    11.376    13.425    0.12E-04    0.87E-04    0.17E-06
 Optimization of the real space projectors (new method)

[...]

   l    n(q)    QCUT    max X(q) W(low)/X(q) W(high)/X(q)  e(spline)
   0      7    11.387    20.381    0.39E-03    0.13E-02    0.15E-06
   0      7    11.387    15.268    0.42E-03    0.14E-02    0.17E-06
   1      6    11.387     5.964    0.41E-03    0.11E-02    0.17E-06
   1      6    11.387     5.382    0.39E-03    0.87E-03    0.15E-06
 Optimization of the real space projectors (new method)

 maximal supplied QI-value         = 34.20
 optimisation between [QCUT,QGAM] = [ 11.29, 22.57] = [ 35.68,142.71] Ry
 Optimized for a Real-space Cutoff    1.16 Angstroem

   l    n(q)    QCUT    max X(q) W(low)/X(q) W(high)/X(q)  e(spline)
   0      8    11.287    19.460    0.40E-03    0.73E-03    0.16E-06
   0      8    11.287    12.209    0.38E-03    0.70E-03    0.15E-06
   1      7    11.287     4.655    0.22E-03    0.25E-04    0.22E-06
  PAW_PBE Cu 22Jun2005                  :
  PAW_PBE Hf 20Jan2003                  :
  PAW_PBE O 08Apr2002                   :
  PAW_PBE H 15Jun2001                   :

 POSCAR: Cu-Hf-OH
  positions in direct lattice
  velocities in cartesian coordinates
 exchange correlation table for  LEXCH =        8
   RHO(1)=    0.500       N(1)  =     2000
   RHO(2)=  100.500       N(2)  =     4000

 VTST: version 3.2, (02/03/18)

 CHAIN: initializing optimizer

 OPT: Using VASP Conjugate-Gradient optimizer
 CHAIN: Read ICHAIN            0

 POSCAR: Cu-Hf-OH
  positions in direct lattice
  velocities in cartesian coordinates

 ion  position               nearest neighbor table
   1  0.000  0.000  0.252-   7 2.57   3 2.57   4 2.57   2 2.57   6 2.57   8 2.57  12 2.57  10 2.57
                            16 2.57
   2  0.333  0.000  0.252-   8 2.57   9 2.57   5 2.57   1 2.57   3 2.57  11 2.57   4 2.57  10 2.57
                            17 2.57
   3  0.667  0.000  0.252-   1 2.57   7 2.57   6 2.57   9 2.57   2 2.57  12 2.57   5 2.57  18 2.57
                            11 2.57
   4  0.000  0.333  0.252-   5 2.57   6 2.57   1 2.57   7 2.57   2 2.57  13 2.57   9 2.57  10 2.57
                            15 2.57
   5  0.333  0.333  0.252-   4 2.57   2 2.57   7 2.57  13 2.57   8 2.57   6 2.57   3 2.57  11 2.57
                            14 2.57
   6  0.667  0.333  0.252-   4 2.57   9 2.57  15 2.57   3 2.57   1 2.57   8 2.57  14 2.57   5 2.57
                            12 2.57
   7  0.000  0.667  0.252-   1 2.57   3 2.57  16 2.57  18 2.57   4 2.57   5 2.57   8 2.57   9 2.57
                            13 2.57
   8  0.333  0.667  0.252-   9 2.57   2 2.57  17 2.57   6 2.57   1 2.57   7 2.57   5 2.57  14 2.57
                            16 2.57
   9  0.667  0.667  0.252-   8 2.57   6 2.57   2 2.57  17 2.57   3 2.57   7 2.57   4 2.57  15 2.57
                            18 2.57
  10  0.111  0.111  0.351-  26 2.54  19 2.54  11 2.57  12 2.57  13 2.57   1 2.57   2 2.57   4 2.57
                            15 2.57  16 2.57  17 2.57  20 2.58
  11  0.444  0.111  0.351-  27 2.56  10 2.57  13 2.57   2 2.57  17 2.57  14 2.57  12 2.57   5 2.57
                             3 2.57  18 2.57  20 2.57  21 2.57
  12  0.778  0.111  0.351-  19 2.54  25 2.54  15 2.57  10 2.57  14 2.57  18 2.57   3 2.57   1 2.57
                            16 2.57  11 2.57   6 2.57  21 2.58
  13  0.111  0.444  0.351-  22 2.56  16 2.57  18 2.57  10 2.57  11 2.57  14 2.57   5 2.57   4 2.57
                             7 2.57  15 2.57  23 2.57  20 2.57
  14  0.444  0.444  0.351-  24 2.56  15 2.57  17 2.57  12 2.57  16 2.57  13 2.57  11 2.57   6 2.57
                             8 2.57   5 2.57  21 2.57  23 2.57
  15  0.778  0.444  0.351-  19 2.55  24 2.56  22 2.56  14 2.57  17 2.57  12 2.57   6 2.57  18 2.57
                            10 2.57   9 2.57  13 2.57   4 2.57
  16  0.111  0.778  0.351-  25 2.54  26 2.54  18 2.57  13 2.57   7 2.57  14 2.57  17 2.57  12 2.57
                            10 2.57   8 2.57   1 2.57  23 2.58
  17  0.444  0.778  0.351-  26 2.55  27 2.56  24 2.56  14 2.57  15 2.57   8 2.57   9 2.57  11 2.57
                            16 2.57  18 2.57  10 2.57   2 2.57
  18  0.778  0.778  0.351-  25 2.55  22 2.56  27 2.56  16 2.57  13 2.57   7 2.57  15 2.57  12 2.57
                            17 2.57   9 2.57   3 2.57  11 2.57
  19  0.889  0.221  0.448-  12 2.54  10 2.54  15 2.55  25 2.56  26 2.56  32 2.57  31 2.57  22 2.57
                            24 2.57  21 2.57  20 2.57  28 2.57
  20  0.223  0.223  0.450-  23 2.55  21 2.55  27 2.57  22 2.57  26 2.57  19 2.57  11 2.57  13 2.57
                            10 2.58  29 2.58  31 2.58  36 2.77
  21  0.555  0.223  0.450-  20 2.55  23 2.55  24 2.57  27 2.57  19 2.57  25 2.57  14 2.57  11 2.57
                            12 2.58  32 2.58  30 2.58  36 2.77
  22  0.889  0.556  0.449-  18 2.56  15 2.56  13 2.56  24 2.56  27 2.56  23 2.57  20 2.57  31 2.57
                            33 2.57  19 2.57  25 2.57  35 2.58
  23  0.223  0.555  0.450-  20 2.55  21 2.55  22 2.57  24 2.57  25 2.57  26 2.57  13 2.57  14 2.57
                            16 2.58  33 2.58  34 2.58  36 2.77
  24  0.556  0.556  0.449-  15 2.56  17 2.56  14 2.56  22 2.56  27 2.56  21 2.57  23 2.57  32 2.57
                            34 2.57  19 2.57  26 2.57  35 2.58
  25  0.889  0.889  0.448-  12 2.54  16 2.54  18 2.55  19 2.56  26 2.56  33 2.57  30 2.57  22 2.57
                            27 2.57  21 2.57  23 2.57  28 2.57
  26  0.221  0.889  0.448-  10 2.54  16 2.54  17 2.55  25 2.56  19 2.56  29 2.57  34 2.57  27 2.57
                            24 2.57  20 2.57  23 2.57  28 2.57
  27  0.556  0.889  0.449-  17 2.56  18 2.56  11 2.56  24 2.56  22 2.56  20 2.57  21 2.57  29 2.57
                            30 2.57  26 2.57  25 2.57  35 2.58
  28  0.000  0.000  0.547-  33 2.55  30 2.55  31 2.55  29 2.55  32 2.55  34 2.55  25 2.57  19 2.57
                            26 2.57
  29  0.334  0.994  0.548-  34 2.48  35 2.54  28 2.55  26 2.57  27 2.57  20 2.58  30 2.60  31 2.61
                            36 2.62
  30  0.672  0.994  0.548-  33 2.48  35 2.54  28 2.55  25 2.57  27 2.57  21 2.58  29 2.60  32 2.61
                            36 2.62
  31  0.994  0.334  0.548-  32 2.48  35 2.54  28 2.55  19 2.57  22 2.57  20 2.58  33 2.60  29 2.61
                            36 2.62
  32  0.672  0.334  0.548-  31 2.48  35 2.54  28 2.55  19 2.57  24 2.57  21 2.58  34 2.60  30 2.61
                            36 2.62
  33  0.994  0.672  0.548-  30 2.48  35 2.54  28 2.55  25 2.57  22 2.57  23 2.58  31 2.60  34 2.61
                            36 2.62
  34  0.334  0.672  0.548-  29 2.48  35 2.54  28 2.55  26 2.57  24 2.57  23 2.58  32 2.60  33 2.61
                            36 2.62
  35  0.667  0.667  0.548-  34 2.54  32 2.54  29 2.54  30 2.54  33 2.54  31 2.54  24 2.58  27 2.58
                            22 2.58
  36  0.333  0.333  0.560-  37 1.91  31 2.62  29 2.62  33 2.62  32 2.62  34 2.62  30 2.62  23 2.77
                            20 2.77  21 2.77
  37  0.333  0.333  0.649-  38 0.96  36 1.91
  38  0.333  0.333  0.695-  37 0.96

  LATTYP: Found a hexagonal cell.
 ALAT       =     7.6967864036
 C/A-ratio  =     2.7653617908

  Lattice vectors:

 A1 = (  -3.8483927580,  -6.6656128093,   0.0000000000)
 A2 = (   7.6967864037,   0.0000000000,   0.0000000000)
 A3 = (   0.0000000000,   0.0000000000,  21.2843990326)

Analysis of symmetry for initial positions (statically):
 Subroutine PRICEL returns:
 Original cell was already a primitive cell.

 Routine SETGRP: Setting up the symmetry group for a
 hexagonal supercell.

 Subroutine GETGRP returns: Found  6 space group operations
 (whereof  6 operations were pure point group operations)
 out of a pool of 24 trial point group operations.

The static configuration has the point symmetry C_3v.

Analysis of symmetry for dynamics (positions and initial velocities):
 Subroutine PRICEL returns:
 Original cell was already a primitive cell.

[...]

The dynamic configuration has the point symmetry C_3v.

Analysis of constrained symmetry for selective dynamics:
 Subroutine PRICEL returns:
 Original cell was already a primitive cell.

[...]
     33      -3.7719      2.00000
     34      -3.7637      2.00000
     35      -3.7490      2.00000
     36      -3.7352      2.00000
     37      -3.7077      2.00000
     38      -3.6380      2.00000
     39      -3.5657      2.00000
     40      -3.5423      2.00000
     41      -3.4663      2.00000
     42      -3.4548      2.00000
     43      -3.3994      2.00000
     44      -3.3676      2.00000
     45      -3.3618      2.00000
     46      -3.3564      2.00000
     47      -3.3471      2.00000
     48      -3.3196      2.00000
     49      -3.2982      2.00000
     50      -3.1998      2.00000
     51      -3.1719      2.00000
     52      -3.1474      2.00000
     53      -3.1275      2.00000
     54      -3.0818      2.00000
     55      -3.0640      2.00000
     56      -3.0610      2.00000
     57      -3.0466      2.00000
     58      -3.0302      2.00000
     59      -3.0269      2.00000
     60      -3.0018      2.00000
[...]
    238       6.5214      0.00000
    239       6.6900      0.00000
    240       6.9069      0.00000
    241       7.0391      0.00000
    242       7.0573      0.00000
    243       7.0741      0.00000
    244       7.1071      0.00000
    245       7.3051      0.00000
    246       7.4176      0.00000
    247       7.6355      0.00000
    248       7.6767      0.00000
    249       7.7651      0.00000
    250       7.8758      0.00000
    251       8.0522      0.00000
    252       8.1516      0.00000

 soft charge-density along one line, spin component           1
         0         1         2         3         4         5         6         7         8         9
 total charge-density along one line

------------------------ aborting loop because EDIFF is reached ----------------------------------------

 total charge

# of ion       s       p       d       tot
    1        0.449   0.284   9.187   9.920
    2        0.448   0.286   9.186   9.919
    3        0.448   0.286   9.186   9.919
    4        0.448   0.286   9.186   9.919
    5        0.448   0.286   9.184   9.918
    6        0.448   0.286   9.186   9.919
    7        0.448   0.286   9.186   9.919
    8        0.448   0.286   9.186   9.919
    9        0.448   0.284   9.188   9.921
   10        0.443   0.371   9.178   9.992
   11        0.441   0.365   9.182   9.988
   12        0.443   0.371   9.178   9.992
   13        0.441   0.365   9.182   9.988
   14        0.441   0.365   9.182   9.988
   15        0.439   0.372   9.177   9.989
   16        0.443   0.371   9.178   9.992
   17        0.439   0.372   9.177   9.989
   18        0.439   0.372   9.177   9.989
   19        0.445   0.371   9.181   9.996
   20        0.457   0.384   9.166  10.007
   21        0.457   0.384   9.166  10.007
   22        0.435   0.374   9.178   9.987
   23        0.457   0.384   9.166  10.007
   24        0.435   0.374   9.178   9.987
   25        0.445   0.371   9.181   9.996
   26        0.445   0.371   9.181   9.996
   27        0.435   0.374   9.178   9.987
   28        0.448   0.300   9.177   9.925
   29        0.485   0.318   9.169   9.971
   30        0.485   0.318   9.169   9.971
   31        0.485   0.318   9.169   9.971
   32        0.485   0.318   9.169   9.971
   33        0.485   0.318   9.169   9.971
   34        0.485   0.318   9.169   9.971
   35        0.448   0.304   9.176   9.928
   36        0.642   0.660   2.190   3.493
   37        1.558   3.564   0.000   5.122
   38        0.612   0.126   0.000   0.738
tot         18.632  16.136 323.417 358.185

  FORCE on cell =-STRESS in cart. coord.  units (eV):
  Direction    XX          YY          ZZ          XY          YZ          ZX
  Alpha Z   883.07612   883.07612   883.07612
  Ewald  168319.17446168319.17415************     0.00035     0.00014     0.00017
  Hartree181413.96533181413.96537************     0.00001     0.00007     0.00006
  E(xc)   -2296.66345 -2296.66305 -2301.31706    -0.00034    -0.00004    -0.00007
  Local  ************************362409.39974     0.01862    -0.00062    -0.00094
  n-local  -778.27670  -766.13954  -781.28441     6.54350    -0.14875     0.25170
  augment  3315.44071  3315.46052  3336.99188    -0.01716     0.00018     0.00034
  Kinetic  3315.10008  3314.76200  3310.11799     1.05063     2.01921    -1.39355
  Fock        0.00000     0.00000     0.00000     0.00000     0.00000     0.00000
  Total      -2.31149    -2.31149     1.52129     0.00000     0.00000    -0.00000
  in kB      -3.39150    -3.39150     2.23209     0.00000     0.00000    -0.00000

 VOLUME and BASIS-vectors are now :
  energy-cutoff  :      500.00
  volume of cell :     1091.97
      direct lattice vectors                 reciprocal lattice vectors
     7.696786404  0.000000000  0.000000000     0.129924354 -0.075011849  0.000000000
     3.848392758  6.665612809  0.000000000     0.000000000  0.150023716  0.000000000
     0.000000000  0.000000000 21.284399033     0.000000000  0.000000000  0.046982769

  length of vectors
     7.696786404  7.696786404 21.284399033     0.150023716  0.150023716  0.046982769

 FORCES acting on ions
    electron-ion (+dipol)            ewald-force                    non-local-force                 convergence-correction
   -.413E-04 0.281E-06 0.345E+04   0.581E-04 -.424E-05 -.345E+04   -.251E-17 -.225E-18 -.208E+01   -.222E-03 -.147E-03 -.406E+00
   -.120E+01 -.151E+01 0.345E+04   0.114E+01 0.144E+01 -.345E+04   0.375E-01 0.734E-01 -.190E+01   0.204E-01 0.920E-02 -.338E+00
   0.120E+01 -.151E+01 0.345E+04   -.114E+01 0.144E+01 -.345E+04   -.375E-01 0.734E-01 -.190E+01   -.196E-01 0.118E-01 -.337E+00
   -.191E+01 -.284E+00 0.345E+04   0.182E+01 0.273E+00 -.345E+04   0.823E-01 -.418E-02 -.190E+01   0.182E-01 0.130E-01 -.338E+00
   -.645E-04 -.488E-05 0.345E+04   0.116E-03 -.101E-04 -.344E+04   0.614E-17 0.124E-17 -.186E+01   0.122E-01 0.744E-02 -.327E+00
   0.191E+01 -.284E+00 0.345E+04   -.182E+01 0.273E+00 -.345E+04   -.823E-01 -.418E-02 -.190E+01   -.198E-01 0.143E-01 -.337E+00
   -.711E+00 0.180E+01 0.345E+04   0.672E+00 -.171E+01 -.345E+04   0.448E-01 -.692E-01 -.190E+01   0.454E-03 -.229E-01 -.337E+00
   0.711E+00 0.180E+01 0.345E+04   -.672E+00 -.171E+01 -.345E+04   -.448E-01 -.692E-01 -.190E+01   0.310E-02 -.243E-01 -.337E+00
   -.143E-03 -.326E-04 0.345E+04   0.263E-03 0.204E-04 -.345E+04   0.126E-17 0.619E-18 -.202E+01   -.133E-01 -.683E-02 -.342E+00
   -.124E+02 -.713E+01 0.114E+04   0.125E+02 0.723E+01 -.114E+04   -.205E+00 -.118E+00 -.795E+00   0.585E-01 0.335E-01 -.208E+00
   -.907E-04 -.135E+02 0.112E+04   0.189E-03 0.132E+02 -.112E+04   -.180E-07 0.270E+00 -.451E+00   0.113E-01 0.433E-01 -.195E+00
   0.124E+02 -.713E+01 0.114E+04   -.125E+02 0.723E+01 -.114E+04   0.205E+00 -.118E+00 -.795E+00   -.596E-01 0.351E-01 -.209E+00
   -.117E+02 0.676E+01 0.112E+04   0.114E+02 -.660E+01 -.112E+04   0.234E+00 -.135E+00 -.451E+00   0.437E-01 -.111E-01 -.195E+00
   0.117E+02 0.676E+01 0.112E+04   -.114E+02 -.660E+01 -.112E+04   -.234E+00 -.135E+00 -.451E+00   -.197E-01 -.114E-01 -.196E+00
   -.139E-03 -.748E+00 0.114E+04   0.295E-03 0.701E+00 -.114E+04   -.295E-08 0.443E-01 -.859E+00   -.345E-02 0.110E-01 -.195E+00
   -.930E-04 0.143E+02 0.114E+04   0.187E-03 -.145E+02 -.114E+04   -.157E-07 0.236E+00 -.795E+00   0.849E-04 -.706E-01 -.208E+00
   -.648E+00 0.374E+00 0.114E+04   0.607E+00 -.350E+00 -.114E+04   0.384E-01 -.222E-01 -.859E+00   0.822E-02 -.841E-02 -.195E+00
   0.648E+00 0.374E+00 0.114E+04   -.608E+00 -.350E+00 -.114E+04   -.384E-01 -.222E-01 -.859E+00   -.775E-02 -.611E-02 -.196E+00
   -.711E-04 -.966E+01 -.115E+04   0.736E-04 0.959E+01 0.114E+04   0.105E-09 -.157E-02 0.107E+01   0.104E-02 0.434E-01 -.221E-02
   -.755E+02 -.436E+02 -.128E+04   0.762E+02 0.440E+02 0.128E+04   -.871E+00 -.503E+00 -.445E-02   0.263E-01 0.141E-01 -.874E-01
   0.755E+02 -.436E+02 -.128E+04   -.762E+02 0.440E+02 0.128E+04   0.871E+00 -.503E+00 -.445E-02   -.467E-01 0.160E-01 -.889E-01
   -.363E+02 0.210E+02 -.117E+04   0.361E+02 -.209E+02 0.117E+04   0.223E+00 -.129E+00 0.820E+00   -.267E-01 0.436E-03 -.843E-01
   -.697E-04 0.872E+02 -.128E+04   0.157E-03 -.880E+02 0.128E+04   -.670E-07 0.101E+01 -.445E-02   0.132E-02 -.299E-01 -.890E-01
   0.363E+02 0.210E+02 -.117E+04   -.361E+02 -.209E+02 0.117E+04   -.223E+00 -.129E+00 0.820E+00   0.417E-02 0.255E-02 -.840E-01
   0.836E+01 0.483E+01 -.115E+04   -.831E+01 -.480E+01 0.114E+04   0.136E-02 0.786E-03 0.107E+01   -.348E-01 -.210E-01 -.206E-02
   -.836E+01 0.483E+01 -.115E+04   0.831E+01 -.480E+01 0.114E+04   -.136E-02 0.786E-03 0.107E+01   0.380E-01 -.221E-01 -.211E-02
   -.138E-03 -.419E+02 -.117E+04   0.239E-03 0.417E+02 0.117E+04   -.172E-07 0.258E+00 0.820E+00   -.132E-01 -.227E-01 -.842E-01
   -.284E-04 0.232E-04 -.339E+04   0.483E-04 -.309E-04 0.339E+04   0.505E-18 -.532E-18 0.145E+01   -.107E-02 -.939E-03 0.341E+00
   -.575E+02 -.109E+03 -.337E+04   0.576E+02 0.109E+03 0.337E+04   -.165E+00 -.161E-01 0.135E+01   -.676E-01 -.405E-01 0.239E+00
   0.575E+02 -.109E+03 -.337E+04   -.576E+02 0.109E+03 0.337E+04   0.165E+00 -.161E-01 0.135E+01   0.896E-01 -.385E-01 0.240E+00
   -.123E+03 0.470E+01 -.337E+04   0.123E+03 -.451E+01 0.337E+04   -.962E-01 -.134E+00 0.135E+01   -.687E-01 -.385E-01 0.239E+00
   0.123E+03 0.470E+01 -.337E+04   -.123E+03 -.451E+01 0.337E+04   0.962E-01 -.134E+00 0.135E+01   0.903E-01 -.367E-01 0.240E+00
   -.656E+02 0.104E+03 -.337E+04   0.655E+02 -.104E+03 0.337E+04   0.683E-01 0.150E+00 0.135E+01   0.118E-01 0.972E-01 0.240E+00
   0.656E+02 0.104E+03 -.337E+04   -.655E+02 -.104E+03 0.337E+04   -.683E-01 0.150E+00 0.135E+01   0.138E-01 0.967E-01 0.239E+00
   -.125E-03 -.123E-04 -.341E+04   0.249E-03 -.190E-05 0.340E+04   0.459E-17 0.642E-17 0.157E+01   -.149E-01 -.760E-02 0.249E+00
   -.203E-04 -.379E-05 -.119E+04   0.434E-04 0.109E-04 0.119E+04   -.863E-20 0.290E-18 -.798E+00   -.611E-04 -.706E-04 0.608E-01
   0.188E-03 -.799E-04 -.191E+04   0.968E-05 0.536E-05 0.189E+04   -.248E-18 0.471E-18 0.210E+02   0.287E-02 0.175E-02 0.945E-01
   0.562E-05 -.129E-04 -.359E+03   0.372E-06 0.358E-06 0.368E+03   0.804E-20 0.404E-20 -.854E+01   0.159E-03 0.973E-04 0.120E-01
   -.891E-04 -.983E-04 -.162E+01   0.864E-13 0.317E-12 0.341E-11   -.928E-16 -.483E-16 0.480E+01   0.382E-01 0.308E-01 -.323E+01

 POSITION                                       TOTAL-FORCE (eV/Angst)
      0.00000      0.00000      5.37156         0.000000     -0.000000      0.006102
      2.56560      0.00000      5.37156         0.000261      0.005235      0.055162
      5.13119      0.00000      5.37156        -0.000261      0.005235      0.055162
      1.28280      2.22187      5.37156         0.004664     -0.002391      0.055162
      3.84839      2.22187      5.37156         0.000000     -0.000000      0.058650
      6.41399      2.22187      5.37156        -0.004664     -0.002391      0.055162
      2.56560      4.44374      5.37156         0.004403     -0.002844      0.055162
      5.13119      4.44374      5.37156        -0.004403     -0.002844      0.055162
      7.69679      4.44374      5.37156         0.000000     -0.000000      0.027171
      1.28280      0.74062      7.46636         0.016325      0.009425     -0.099267
      3.84839      0.74062      7.46636         0.000000     -0.017820     -0.026950
      6.41399      0.74062      7.46636        -0.016325      0.009425     -0.099267
      2.56560      2.96249      7.46636        -0.015433      0.008910     -0.026950
      5.13119      2.96249      7.46636         0.015433      0.008910     -0.026950
      7.69679      2.96249      7.46636        -0.000000      0.007993     -0.023070
      3.84839      5.18437      7.46636         0.000000     -0.018850     -0.099267
      6.41399      5.18437      7.46636         0.006922     -0.003996     -0.023070
      8.97958      5.18437      7.46636        -0.006922     -0.003996     -0.023070
      7.69679      1.47625      9.53578         0.000000     -0.023009      0.022661
      2.57143      1.48462      9.57247        -0.143311     -0.082741     -0.218241
      5.12535      1.48462      9.57247         0.143311     -0.082741     -0.218241
      8.97869      3.70363      9.55450         0.032087     -0.018525      0.038091
      3.84839      3.69638      9.57247        -0.000000      0.165481     -0.218241
      6.41488      3.70363      9.55450        -0.032087     -0.018525      0.038091
     10.26671      5.92749      9.53578         0.019927      0.011505      0.022661
      5.12686      5.92749      9.53578        -0.019927      0.011505      0.022661
      7.69679      5.92396      9.55450        -0.000000      0.037051      0.038091
      0.00000      0.00000     11.64309         0.000000     -0.000000     -0.048061
      6.39641      6.62889     11.65568        -0.105005     -0.190446     -0.182536
      8.99717      6.62889     11.65568         0.105005     -0.190446     -0.182536
      8.93899      2.22500     11.65568        -0.217434      0.004287     -0.182536
      6.45458      2.22500     11.65568         0.217434      0.004287     -0.182536
     10.23937      4.47733     11.65568        -0.112429      0.186160     -0.182536
      5.15420      4.47733     11.65568         0.112429      0.186160     -0.182536
      7.69679      4.44374     11.66757         0.000000      0.000000     -0.047149
      3.84839      2.22187     11.91603         0.000000     -0.000000      1.700303
      3.84839      2.22187     13.82286         0.000000     -0.000000     -0.015061
      3.84839      2.22187     14.78750         0.000000     -0.000000      0.002616
    total drift:                                0.038133      0.030672     -0.041409

  FREE ENERGIE OF THE ION-ELECTRON SYSTEM (eV)
  free  energy   TOTEN  =      -144.39014638 eV

  energy  without entropy=     -144.39014638  energy(sigma->0) =     -144.39014638

 stress matrix after NEB project (eV)
     -2.31149      0.00000     -0.00000
      0.00000     -2.31149     -0.00000
     -0.00000      0.00000      1.52129
  FORCES: max atom, RMS     0.015061    0.002480
  FORCE total and by dimension    0.015287    0.015061
  Stress total and by dimension    3.605597    2.311492
|           W    W    AA    RRRRR   N    N  II  N    N   GGGG   !!!           |
|           W    W   A  A   R    R  NN   N  II  NN   N  G    G  !!!           |
|           W    W  A    A  R    R  N N  N  II  N N  N  G       !!!           |
|           W WW W  AAAAAA  RRRRR   N  N N  II  N  N N  G  GGG   !            |
|           WW  WW  A    A  R   R   N   NN  II  N   NN  G    G                |
|           W    W  A    A  R    R  N    N  II  N    N   GGGG   !!!           |
|     Tetrahedron method does not include variations of the Fermi             |
|     occupations, so forces and stress will be inaccurate. We suggest        |
|     using a different smearing scheme ISMEAR = 1 or 2 for metals in         |
|     relaxations.                                                            |

 total charge

# of ion       s       p       d       tot
    1        0.449   0.284   9.187   9.920
    2        0.448   0.286   9.186   9.919
    3        0.448   0.286   9.186   9.919
    4        0.448   0.286   9.186   9.919
    5        0.448   0.286   9.184   9.918
    6        0.448   0.286   9.186   9.919
    7        0.448   0.286   9.186   9.919
    8        0.448   0.286   9.186   9.919
    9        0.448   0.284   9.188   9.921
   10        0.443   0.371   9.178   9.992
   11        0.441   0.365   9.182   9.988
   12        0.443   0.371   9.178   9.992
   13        0.441   0.365   9.182   9.988
   14        0.441   0.365   9.182   9.988
   15        0.439   0.372   9.177   9.989
   16        0.443   0.371   9.178   9.992
   17        0.439   0.372   9.177   9.989
   18        0.439   0.372   9.177   9.989
   19        0.445   0.371   9.181   9.996
   20        0.457   0.384   9.166  10.007
   21        0.457   0.384   9.166  10.007
   22        0.435   0.374   9.178   9.987
   23        0.457   0.384   9.166  10.007
   24        0.435   0.374   9.178   9.987
   25        0.445   0.371   9.181   9.996
   26        0.445   0.371   9.181   9.996
   27        0.435   0.374   9.178   9.987
   28        0.448   0.300   9.177   9.925
   29        0.485   0.318   9.169   9.971
   30        0.485   0.318   9.169   9.971
   31        0.485   0.318   9.169   9.971
   32        0.485   0.318   9.169   9.971
   33        0.485   0.318   9.169   9.971
   34        0.485   0.318   9.169   9.971
   35        0.448   0.304   9.176   9.928
   36        0.642   0.660   2.190   3.493
   37        1.558   3.564   0.000   5.122
   38        0.612   0.126   0.000   0.738
tot         18.632  16.136 323.417 358.185

 BZINTS: Fermi energy:    0.391441;  396.000000 electrons
         Band energy:-0.104584E+04;  BLOECHL correction:   -0.071829