 vasp.6.2.0 18Jan21 (build Jun 12 2021 23:27:24) complex

 executed on             LinuxIFC date 2022.05.27  06:11:51

 INCAR:
   ISMEAR = -5
   SIGMA = 0.1
   ISPIN = 1
   EDIFF = 1.d-5
   EDIFFG = -0.01
   NSW = 0
   NELM = 150
   ENCUT = 500
   ISIF = 2
   IBRION = 2
   LREAL = Auto
   ALGO = Fast
   ICHARG = 11
   LORBIT = 10
   LCHARG = .F.
   LWAVE = .F.

 POTCAR:    PAW_PBE Cu 22Jun2005
 POTCAR:    PAW_PBE Rh 04Feb2005
 POTCAR:    PAW_PBE O 08Apr2002
 POTCAR:    PAW_PBE H 15Jun2001
|           W    W    AA    RRRRR   N    N  II  N    N   GGGG   !!!           |
|           W    W   A  A   R    R  NN   N  II  NN   N  G    G  !!!           |
|           W    W  A    A  R    R  N N  N  II  N N  N  G       !!!           |
|           W WW W  AAAAAA  RRRRR   N  N N  II  N  N N  G  GGG   !            |
|           WW  WW  A    A  R   R   N   NN  II  N   NN  G    G                |
|           W    W  A    A  R    R  N    N  II  N    N   GGGG   !!!           |
|     For optimal performance we recommend to set                             |
|       NCORE = 2 up to number-of-cores-per-socket                            |
|     This setting can greatly improve the performance of VASP for DFT.       |
|     The default, NCORE=1 might be grossly inefficient on modern             |
|     multi-core architectures or massively parallel machines. Do your        |
|     Unfortunately you need to use the default for GW and RPA                |
|     calculations (for HF NCORE is supported but not extensively tested      |
|     yet).                                                                   |

 POTCAR:    PAW_PBE Cu 22Jun2005
   VRHFIN =Cu: d10 p1

   TITEL  = PAW_PBE Cu 22Jun2005
   POMASS =   63.546; ZVAL   =   11.000    mass and valenz
   ENMAX  =  295.446; ENMIN  =  221.585 eV

 POTCAR:    PAW_PBE Rh 04Feb2005
   VRHFIN =Rh: s1 d8

   TITEL  = PAW_PBE Rh 04Feb2005
   POMASS =  102.906; ZVAL   =    9.000    mass and valenz
   ENMAX  =  228.996; ENMIN  =  171.747 eV

 POTCAR:    PAW_PBE O 08Apr2002
   VRHFIN =O: s2p4

   TITEL  = PAW_PBE O 08Apr2002
   POMASS =   16.000; ZVAL   =    6.000    mass and valenz
   ENMAX  =  400.000; ENMIN  =  300.000 eV

 POTCAR:    PAW_PBE H 15Jun2001
   VRHFIN =H: ultrasoft test

   TITEL  = PAW_PBE H 15Jun2001
   POMASS =    1.000; ZVAL   =    1.000    mass and valenz
   ENMAX  =  250.000; ENMIN  =  200.000 eV

 Optimization of the real space projectors (new method)

 maximal supplied QI-value         = 16.25
 optimisation between [QCUT,QGAM] = [ 11.38, 22.75] = [ 36.24,144.96] Ry
 Optimized for a Real-space Cutoff    1.52 Angstroem

   l    n(q)    QCUT    max X(q) W(low)/X(q) W(high)/X(q)  e(spline)
   2      9    11.376     4.610    0.21E-03    0.10E-03    0.26E-06
   2      9    11.376     8.522    0.33E-03    0.16E-03    0.37E-06
   0     10    11.376    51.609    0.62E-04    0.20E-04    0.13E-06
   0     10    11.376    27.747    0.54E-04    0.20E-04    0.13E-06
   1     10    11.376    20.408    0.13E-04    0.99E-04    0.19E-06
   1     10    11.376    13.425    0.12E-04    0.87E-04    0.17E-06
 Optimization of the real space projectors (new method)

[...]

   l    n(q)    QCUT    max X(q) W(low)/X(q) W(high)/X(q)  e(spline)
   0      7    11.387    20.381    0.39E-03    0.13E-02    0.15E-06
   0      7    11.387    15.268    0.42E-03    0.14E-02    0.17E-06
   1      6    11.387     5.964    0.41E-03    0.11E-02    0.17E-06
   1      6    11.387     5.382    0.39E-03    0.87E-03    0.15E-06
 Optimization of the real space projectors (new method)

 maximal supplied QI-value         = 34.20
 optimisation between [QCUT,QGAM] = [ 11.29, 22.57] = [ 35.68,142.71] Ry
 Optimized for a Real-space Cutoff    1.16 Angstroem

   l    n(q)    QCUT    max X(q) W(low)/X(q) W(high)/X(q)  e(spline)
   0      8    11.287    19.460    0.40E-03    0.73E-03    0.16E-06
   0      8    11.287    12.209    0.38E-03    0.70E-03    0.15E-06
   1      7    11.287     4.655    0.22E-03    0.25E-04    0.22E-06
  PAW_PBE Cu 22Jun2005                  :
  PAW_PBE Rh 04Feb2005                  :
  PAW_PBE O 08Apr2002                   :
  PAW_PBE H 15Jun2001                   :

 POSCAR: Cu-Rh-OH
  positions in direct lattice
  velocities in cartesian coordinates
 exchange correlation table for  LEXCH =        8
   RHO(1)=    0.500       N(1)  =     2000
   RHO(2)=  100.500       N(2)  =     4000

 VTST: version 3.2, (02/03/18)

 CHAIN: initializing optimizer

 OPT: Using VASP Conjugate-Gradient optimizer
 CHAIN: Read ICHAIN            0

 POSCAR: Cu-Rh-OH
  positions in direct lattice
  velocities in cartesian coordinates

 ion  position               nearest neighbor table
   1  0.000  0.000  0.252-   7 2.57   3 2.57   4 2.57   2 2.57   6 2.57   8 2.57  12 2.57  10 2.57
                            16 2.57
   2  0.333  0.000  0.252-   8 2.57   9 2.57   5 2.57   1 2.57   3 2.57  11 2.57   4 2.57  10 2.57
                            17 2.57
   3  0.667  0.000  0.252-   1 2.57   7 2.57   6 2.57   9 2.57   2 2.57  12 2.57   5 2.57  18 2.57
                            11 2.57
   4  0.000  0.333  0.252-   5 2.57   6 2.57   1 2.57   7 2.57   2 2.57  13 2.57   9 2.57  10 2.57
                            15 2.57
   5  0.333  0.333  0.252-   4 2.57   2 2.57   7 2.57  13 2.57   8 2.57   6 2.57   3 2.57  11 2.57
                            14 2.57
   6  0.667  0.333  0.252-   4 2.57   9 2.57  15 2.57   3 2.57   1 2.57   8 2.57  14 2.57   5 2.57
                            12 2.57
   7  0.000  0.667  0.252-   1 2.57   3 2.57  16 2.57  18 2.57   4 2.57   5 2.57   8 2.57   9 2.57
                            13 2.57
   8  0.333  0.667  0.252-   9 2.57   2 2.57  17 2.57   6 2.57   1 2.57   7 2.57   5 2.57  14 2.57
                            16 2.57
   9  0.667  0.667  0.252-   8 2.57   6 2.57   2 2.57  17 2.57   3 2.57   7 2.57   4 2.57  15 2.57
                            18 2.57
  10  0.111  0.111  0.351-  20 2.55  26 2.56  19 2.56  11 2.57  12 2.57  13 2.57   1 2.57   2 2.57
                             4 2.57  15 2.57  16 2.57  17 2.57
  11  0.444  0.111  0.351-  20 2.55  21 2.55  27 2.56  10 2.57  13 2.57   2 2.57  17 2.57  14 2.57
                            12 2.57   5 2.57   3 2.57  18 2.57
  12  0.778  0.111  0.351-  21 2.55  19 2.56  25 2.56  15 2.57  10 2.57  14 2.57  18 2.57   3 2.57
                             1 2.57  16 2.57  11 2.57   6 2.57
  13  0.111  0.444  0.351-  23 2.55  20 2.55  22 2.56  16 2.57  18 2.57  10 2.57  11 2.57  14 2.57
                             5 2.57   4 2.57   7 2.57  15 2.57
  14  0.444  0.444  0.351-  21 2.55  23 2.55  24 2.56  15 2.57  17 2.57  12 2.57  16 2.57  13 2.57
                            11 2.57   6 2.57   8 2.57   5 2.57
  15  0.778  0.444  0.351-  19 2.56  24 2.56  22 2.56  14 2.57  17 2.57  12 2.57   6 2.57  18 2.57
                            10 2.57   9 2.57  13 2.57   4 2.57
  16  0.111  0.778  0.351-  23 2.55  25 2.56  26 2.56  18 2.57  13 2.57   7 2.57  14 2.57  17 2.57
                            12 2.57  10 2.57   8 2.57   1 2.57
  17  0.444  0.778  0.351-  26 2.56  27 2.56  24 2.56  14 2.57  15 2.57   8 2.57   9 2.57  11 2.57
                            16 2.57  18 2.57  10 2.57   2 2.57
  18  0.778  0.778  0.351-  25 2.56  22 2.56  27 2.56  16 2.57  13 2.57   7 2.57  15 2.57  12 2.57
                            17 2.57   9 2.57   3 2.57  11 2.57
  19  0.889  0.223  0.449-  28 2.55  32 2.55  31 2.55  15 2.56  12 2.56  10 2.56  21 2.56  20 2.56
                            22 2.56  24 2.56  25 2.57  26 2.57
  20  0.222  0.222  0.448-  10 2.55  11 2.55  13 2.55  26 2.56  19 2.56  27 2.57  22 2.57  36 2.57
                            29 2.58  31 2.58  23 2.58  21 2.58
  21  0.557  0.222  0.448-  12 2.55  14 2.55  11 2.55  19 2.56  25 2.56  24 2.57  27 2.57  36 2.57
                            32 2.58  30 2.58  20 2.58  23 2.58
  22  0.889  0.556  0.449-  35 2.54  31 2.56  33 2.56  18 2.56  15 2.56  19 2.56  25 2.56  13 2.56
                            24 2.56  27 2.56  23 2.57  20 2.57
  23  0.222  0.557  0.448-  16 2.55  13 2.55  14 2.55  25 2.56  26 2.56  22 2.57  24 2.57  36 2.57
                            33 2.58  34 2.58  20 2.58  21 2.58
  24  0.556  0.556  0.449-  35 2.54  32 2.56  34 2.56  15 2.56  17 2.56  19 2.56  26 2.56  14 2.56
                            22 2.56  27 2.56  21 2.57  23 2.57
  25  0.889  0.889  0.449-  28 2.55  33 2.55  30 2.55  18 2.56  16 2.56  12 2.56  21 2.56  23 2.56
                            22 2.56  27 2.56  19 2.57  26 2.57
  26  0.223  0.889  0.449-  28 2.55  29 2.55  34 2.55  17 2.56  10 2.56  16 2.56  20 2.56  23 2.56
                            27 2.56  24 2.56  25 2.57  19 2.57
  27  0.556  0.889  0.449-  35 2.54  29 2.56  30 2.56  17 2.56  18 2.56  26 2.56  25 2.56  11 2.56
                            24 2.56  22 2.56  20 2.57  21 2.57
  28  0.000  0.000  0.546-  25 2.55  19 2.55  26 2.55  33 2.56  30 2.56  31 2.56  29 2.56  32 2.56
                            34 2.56
  29  0.333  0.998  0.547-  34 2.54  26 2.55  28 2.56  27 2.56  35 2.56  31 2.58  20 2.58  36 2.58
                            30 2.59
  30  0.669  0.998  0.547-  33 2.54  25 2.55  28 2.56  27 2.56  35 2.56  32 2.58  21 2.58  36 2.58
                            29 2.59
  31  0.998  0.333  0.547-  32 2.54  19 2.55  28 2.56  22 2.56  35 2.56  29 2.58  20 2.58  36 2.58
                            33 2.59
  32  0.669  0.333  0.547-  31 2.54  19 2.55  28 2.56  24 2.56  35 2.56  30 2.58  21 2.58  36 2.58
                            34 2.59
  33  0.998  0.669  0.547-  30 2.54  25 2.55  28 2.56  22 2.56  35 2.56  34 2.58  23 2.58  36 2.58
                            31 2.59
  34  0.333  0.669  0.547-  29 2.54  26 2.55  28 2.56  24 2.56  35 2.56  33 2.58  23 2.58  36 2.58
                            32 2.59
  35  0.667  0.667  0.546-  24 2.54  27 2.54  22 2.54  34 2.56  32 2.56  29 2.56  30 2.56  33 2.56
                            31 2.56
  36  0.333  0.333  0.547-  37 1.97  23 2.57  20 2.57  21 2.57  31 2.58  29 2.58  33 2.58  34 2.58
                            32 2.58  30 2.58
  37  0.333  0.333  0.639-  38 0.97  36 1.97
  38  0.333  0.333  0.684-  37 0.97

  LATTYP: Found a hexagonal cell.
 ALAT       =     7.6967864036
 C/A-ratio  =     2.7653617908

  Lattice vectors:

 A1 = (  -3.8483927580,  -6.6656128093,   0.0000000000)
 A2 = (   7.6967864037,   0.0000000000,   0.0000000000)
 A3 = (   0.0000000000,   0.0000000000,  21.2843990326)

Analysis of symmetry for initial positions (statically):
 Subroutine PRICEL returns:
 Original cell was already a primitive cell.

 Routine SETGRP: Setting up the symmetry group for a
 hexagonal supercell.

 Subroutine GETGRP returns: Found  6 space group operations
 (whereof  6 operations were pure point group operations)
 out of a pool of 24 trial point group operations.

The static configuration has the point symmetry C_3v.

Analysis of symmetry for dynamics (positions and initial velocities):
 Subroutine PRICEL returns:
 Original cell was already a primitive cell.

[...]

The dynamic configuration has the point symmetry C_3v.

Analysis of constrained symmetry for selective dynamics:
 Subroutine PRICEL returns:
 Original cell was already a primitive cell.

[...]
     33      -3.8169      2.00000
     34      -3.8089      2.00000
     35      -3.8011      2.00000
     36      -3.7427      2.00000
     37      -3.7091      2.00000
     38      -3.6263      2.00000
     39      -3.5289      2.00000
     40      -3.5118      2.00000
     41      -3.5048      2.00000
     42      -3.4782      2.00000
     43      -3.4382      2.00000
     44      -3.4241      2.00000
     45      -3.4037      2.00000
     46      -3.3961      2.00000
     47      -3.3888      2.00000
     48      -3.2191      2.00000
     49      -3.2113      2.00000
     50      -3.1850      2.00000
     51      -3.1698      2.00000
     52      -3.1482      2.00000
     53      -3.1419      2.00000
     54      -3.1087      2.00000
     55      -3.0999      2.00000
     56      -3.0881      2.00000
     57      -3.0769      2.00000
     58      -3.0653      2.00000
     59      -3.0561      2.00000
     60      -3.0284      2.00000
[...]
    238       6.3617      0.00000
    239       6.6062      0.00000
    240       6.6857      0.00000
    241       6.7557      0.00000
    242       6.9218      0.00000
    243       7.0905      0.00000
    244       7.0923      0.00000
    245       7.2851      0.00000
    246       7.4224      0.00000
    247       7.4719      0.00000
    248       7.5263      0.00000
    249       7.6304      0.00000
    250       7.8471      0.00000
    251       7.9662      0.00000
    252       8.1341      0.00000

 soft charge-density along one line, spin component           1
         0         1         2         3         4         5         6         7         8         9
 total charge-density along one line

------------------------ aborting loop because EDIFF is reached ----------------------------------------

 total charge

# of ion       s       p       d       tot
    1        0.447   0.285   9.189   9.921
    2        0.450   0.285   9.186   9.921
    3        0.450   0.285   9.186   9.921
    4        0.450   0.285   9.186   9.921
    5        0.447   0.288   9.183   9.918
    6        0.450   0.285   9.186   9.921
    7        0.450   0.285   9.186   9.921
    8        0.450   0.285   9.186   9.921
    9        0.446   0.285   9.186   9.917
   10        0.442   0.373   9.176   9.991
   11        0.443   0.367   9.182   9.991
   12        0.442   0.373   9.176   9.991
   13        0.443   0.367   9.182   9.991
   14        0.443   0.367   9.182   9.991
   15        0.438   0.369   9.181   9.987
   16        0.442   0.373   9.176   9.991
   17        0.438   0.369   9.181   9.987
   18        0.438   0.369   9.181   9.987
   19        0.442   0.373   9.180   9.994
   20        0.450   0.385   9.170  10.006
   21        0.450   0.385   9.170  10.006
   22        0.436   0.370   9.183   9.989
   23        0.450   0.385   9.170  10.006
   24        0.436   0.370   9.183   9.989
   25        0.442   0.373   9.180   9.994
   26        0.442   0.373   9.180   9.994
   27        0.436   0.370   9.183   9.989
   28        0.455   0.289   9.194   9.939
   29        0.445   0.293   9.193   9.930
   30        0.445   0.293   9.193   9.930
   31        0.445   0.293   9.193   9.930
   32        0.445   0.293   9.193   9.930
   33        0.445   0.293   9.193   9.930
   34        0.445   0.293   9.193   9.930
   35        0.447   0.294   9.191   9.931
   36        0.465   0.509   7.441   8.414
   37        1.542   3.510   0.000   5.052
   38        0.609   0.127   0.000   0.736
tot         18.172  15.764 328.878 362.814

  FORCE on cell =-STRESS in cart. coord.  units (eV):
  Direction    XX          YY          ZZ          XY          YZ          ZX
  Alpha Z   886.54760   886.54760   886.54760
  Ewald  173051.78459173051.78415************     0.00040     0.00012     0.00019
  Hartree186269.15827186269.15824************     0.00004     0.00006     0.00007
  E(xc)   -2323.32726 -2323.32685 -2326.66126    -0.00035    -0.00004    -0.00007
  Local  ************************372502.07941     0.01884    -0.00060    -0.00099
  n-local  -789.47564  -774.50854  -795.34627     8.06155     0.00215     0.19739
  augment  3374.12255  3374.14284  3387.87472    -0.01758     0.00024     0.00040
  Kinetic  3389.67732  3396.61540  3384.42466     4.81102     1.63149    -1.06848
  Fock        0.00000     0.00000     0.00000     0.00000     0.00000     0.00000
  Total      -5.00284    -5.00284     0.49791     0.00000    -0.00000    -0.00000
  in kB      -7.34035    -7.34035     0.73055     0.00000    -0.00000    -0.00000

 VOLUME and BASIS-vectors are now :
  energy-cutoff  :      500.00
  volume of cell :     1091.97
      direct lattice vectors                 reciprocal lattice vectors
     7.696786404  0.000000000  0.000000000     0.129924354 -0.075011849  0.000000000
     3.848392758  6.665612809  0.000000000     0.000000000  0.150023716  0.000000000
     0.000000000  0.000000000 21.284399033     0.000000000  0.000000000  0.046982769

  length of vectors
     7.696786404  7.696786404 21.284399033     0.150023716  0.150023716  0.046982769

 FORCES acting on ions
    electron-ion (+dipol)            ewald-force                    non-local-force                 convergence-correction
   -.415E-04 0.184E-06 0.350E+04   0.579E-04 -.438E-05 -.350E+04   -.502E-17 -.405E-17 -.305E+01   -.410E-03 -.204E-03 -.316E+00
   -.268E+00 0.380E-01 0.350E+04   0.201E+00 0.455E-01 -.350E+04   0.494E-02 0.132E-01 -.185E+01   0.658E-01 -.785E-01 -.154E+00
   0.268E+00 0.380E-01 0.350E+04   -.202E+00 0.455E-01 -.350E+04   -.494E-02 0.132E-01 -.185E+01   -.649E-01 -.758E-01 -.153E+00
   -.101E+00 -.251E+00 0.350E+04   0.140E+00 0.152E+00 -.350E+04   0.139E-01 -.234E-02 -.185E+01   -.350E-01 0.962E-01 -.154E+00
   -.654E-04 -.550E-05 0.350E+04   0.116E-03 -.101E-04 -.350E+04   0.292E-17 0.103E-17 -.180E+01   0.123E-01 0.751E-02 -.137E+00
   0.101E+00 -.251E+00 0.350E+04   -.140E+00 0.152E+00 -.350E+04   -.139E-01 -.234E-02 -.185E+01   0.332E-01 0.974E-01 -.152E+00
   0.167E+00 0.213E+00 0.350E+04   -.614E-01 -.197E+00 -.350E+04   0.899E-02 -.109E-01 -.185E+01   -.981E-01 -.183E-01 -.153E+00
   -.167E+00 0.213E+00 0.350E+04   0.611E-01 -.197E+00 -.350E+04   -.899E-02 -.109E-01 -.185E+01   0.102E+00 -.199E-01 -.152E+00
   -.144E-03 -.329E-04 0.350E+04   0.263E-03 0.205E-04 -.350E+04   -.341E-17 -.256E-18 -.249E+01   -.132E-01 -.684E-02 -.970E-01
   0.208E+00 0.120E+00 0.120E+04   0.196E+00 0.113E+00 -.120E+04   -.475E+00 -.274E+00 -.113E+01   0.986E-01 0.569E-01 0.770E-01
   -.909E-04 -.686E+00 0.120E+04   0.190E-03 0.736E+00 -.120E+04   -.589E-08 0.884E-01 -.493E+00   0.123E-01 -.164E+00 0.139E+00
   -.208E+00 0.120E+00 0.120E+04   -.196E+00 0.113E+00 -.120E+04   0.475E+00 -.274E+00 -.113E+01   -.101E+00 0.591E-01 0.789E-01
   -.594E+00 0.343E+00 0.120E+04   0.638E+00 -.368E+00 -.120E+04   0.766E-01 -.442E-01 -.493E+00   -.135E+00 0.934E-01 0.139E+00
   0.594E+00 0.343E+00 0.120E+04   -.638E+00 -.368E+00 -.120E+04   -.766E-01 -.442E-01 -.493E+00   0.160E+00 0.920E-01 0.139E+00
   -.142E-03 -.145E+01 0.120E+04   0.298E-03 0.111E+01 -.120E+04   -.103E-07 0.155E+00 -.833E+00   -.434E-02 0.172E+00 -.149E-01
   -.918E-04 -.240E+00 0.120E+04   0.186E-03 -.226E+00 -.120E+04   -.365E-07 0.548E+00 -.113E+01   -.286E-03 -.118E+00 0.788E-01
   -.126E+01 0.726E+00 0.120E+04   0.963E+00 -.556E+00 -.120E+04   0.134E+00 -.774E-01 -.833E+00   0.147E+00 -.898E-01 -.150E-01
   0.126E+01 0.726E+00 0.120E+04   -.963E+00 -.556E+00 -.120E+04   -.134E+00 -.774E-01 -.833E+00   -.146E+00 -.862E-01 -.135E-01
   -.587E-04 -.657E+00 -.111E+04   0.679E-04 0.486E+00 0.111E+04   -.728E-08 0.109E+00 0.843E+00   -.146E-01 0.507E-01 -.131E-01
   -.190E+02 -.110E+02 -.112E+04   0.202E+02 0.116E+02 0.112E+04   -.116E+01 -.670E+00 -.102E+01   0.907E-01 0.522E-01 0.791E-01
   0.190E+02 -.110E+02 -.112E+04   -.202E+02 0.116E+02 0.112E+04   0.116E+01 -.670E+00 -.102E+01   -.647E-01 0.527E-01 0.787E-01
   -.108E+02 0.623E+01 -.112E+04   0.102E+02 -.592E+01 0.112E+04   0.491E+00 -.283E+00 0.938E+00   0.799E-01 -.451E-01 -.934E-01
   -.782E-04 0.220E+02 -.112E+04   0.146E-03 -.233E+02 0.112E+04   -.892E-07 0.134E+01 -.102E+01   0.121E-01 -.836E-01 0.786E-01
   0.108E+02 0.623E+01 -.112E+04   -.102E+02 -.592E+01 0.112E+04   -.491E+00 -.283E+00 0.938E+00   -.823E-01 -.484E-01 -.933E-01
   0.569E+00 0.329E+00 -.111E+04   -.421E+00 -.243E+00 0.111E+04   -.947E-01 -.547E-01 0.843E+00   -.588E-01 -.339E-01 -.135E-01
   -.569E+00 0.329E+00 -.111E+04   0.421E+00 -.243E+00 0.111E+04   0.947E-01 -.547E-01 0.843E+00   0.370E-01 -.378E-01 -.130E-01
   -.127E-03 -.125E+02 -.112E+04   0.244E-03 0.118E+02 0.112E+04   -.377E-07 0.566E+00 0.938E+00   0.859E-03 0.917E-01 -.932E-01
   -.324E-04 0.189E-04 -.341E+04   0.374E-04 -.340E-04 0.341E+04   0.761E-17 0.115E-16 0.191E+01   -.716E-03 -.362E-03 0.239E+00
   -.520E+01 -.624E+01 -.340E+04   0.473E+01 0.486E+01 0.339E+04   0.327E+00 0.106E+01 0.267E+01   0.591E-01 0.144E+00 0.114E+00
   0.520E+01 -.624E+01 -.340E+04   -.473E+01 0.486E+01 0.339E+04   -.327E+00 0.106E+01 0.267E+01   -.575E-01 0.146E+00 0.113E+00
   -.800E+01 -.139E+01 -.340E+04   0.658E+01 0.166E+01 0.339E+04   0.108E+01 -.246E+00 0.267E+01   0.154E+00 -.208E-01 0.114E+00
   0.800E+01 -.139E+01 -.340E+04   -.658E+01 0.166E+01 0.339E+04   -.108E+01 -.246E+00 0.267E+01   -.156E+00 -.203E-01 0.112E+00
   -.280E+01 0.763E+01 -.340E+04   0.185E+01 -.653E+01 0.339E+04   0.753E+00 -.812E+00 0.267E+01   0.979E-01 -.123E+00 0.113E+00
   0.280E+01 0.763E+01 -.340E+04   -.185E+01 -.653E+01 0.339E+04   -.753E+00 -.812E+00 0.267E+01   -.948E-01 -.125E+00 0.112E+00
   -.155E-03 -.282E-04 -.341E+04   0.257E-03 0.381E-05 0.341E+04   -.912E-18 0.451E-18 0.223E+01   -.131E-01 -.674E-02 0.192E+00
   -.201E-04 -.143E-04 -.261E+04   0.111E-03 0.224E-04 0.261E+04   0.421E-17 -.246E-17 0.151E+01   0.337E-02 0.202E-02 0.397E-01
   0.187E-03 -.806E-04 -.208E+04   0.128E-04 0.653E-05 0.206E+04   -.909E-18 -.130E-17 0.221E+02   0.331E-02 0.201E-02 -.390E-01
   0.490E-05 -.133E-04 -.382E+03   0.489E-06 0.439E-06 0.390E+03   0.190E-18 0.958E-19 -.832E+01   0.182E-03 0.111E-03 -.240E-02
   -.676E-04 -.110E-03 -.121E+02   0.114E-12 0.350E-14 -.239E-11   0.336E-15 0.330E-15 0.120E+02   0.285E-01 0.135E-01 0.163E+00

 POSITION                                       TOTAL-FORCE (eV/Angst)
      0.00000      0.00000      5.37156        -0.000000      0.000000      0.047055
      2.56560      0.00000      5.37156         0.005035      0.019458      0.070317
      5.13119      0.00000      5.37156        -0.005035      0.019458      0.070317
      1.28280      2.22187      5.37156         0.019368     -0.005368      0.070317
      3.84839      2.22187      5.37156        -0.000000      0.000000      0.051056
      6.41399      2.22187      5.37156        -0.019368     -0.005368      0.070317
      2.56560      4.44374      5.37156         0.014333     -0.014089      0.070317
      5.13119      4.44374      5.37156        -0.014333     -0.014089      0.070317
      7.69679      4.44374      5.37156        -0.000000      0.000000      0.023035
      1.28280      0.74062      7.46636         0.029694      0.017144     -0.059232
      3.84839      0.74062      7.46636         0.000000     -0.031597     -0.094474
      6.41399      0.74062      7.46636        -0.029694      0.017144     -0.059232
      2.56560      2.96249      7.46636        -0.027364      0.015799     -0.094474
      5.13119      2.96249      7.46636         0.027364      0.015799     -0.094474
      7.69679      2.96249      7.46636         0.000000     -0.013980     -0.024665
      3.84839      5.18437      7.46636         0.000000     -0.034288     -0.059232
      6.41399      5.18437      7.46636        -0.012107      0.006990     -0.024665
      8.97958      5.18437      7.46636         0.012107      0.006990     -0.024665
      7.69679      1.48472      9.55134         0.000000     -0.005639     -0.003931
      2.55991      1.47796      9.54139         0.069630      0.040201     -0.087687
      5.13688      1.47796      9.54139        -0.069630      0.040201     -0.087687
      8.97851      3.70374      9.55759         0.028542     -0.016478     -0.016569
      3.84839      3.70969      9.54139         0.000000     -0.080402     -0.087687
      6.41506      3.70374      9.55759        -0.028542     -0.016478     -0.016569
     10.25938      5.92325      9.55134         0.004884      0.002820     -0.003931
      5.13420      5.92325      9.55134        -0.004884      0.002820     -0.003931
      7.69679      5.92375      9.55759        -0.000000      0.032957     -0.016569
      0.00000      0.00000     11.61948        -0.000000      0.000000      0.008035
      6.40389      6.65412     11.64269        -0.086494     -0.172808     -0.074406
      8.98968      6.65412     11.64269         0.086494     -0.172808     -0.074406
      8.96459      2.21887     11.64269        -0.192903      0.011498     -0.074406
      6.42899      2.21887     11.64269         0.192903      0.011498     -0.074406
     10.25748      4.45823     11.64269        -0.106409      0.161310     -0.074406
      5.13610      4.45823     11.64269         0.106409      0.161310     -0.074406
      7.69679      4.44374     11.62337        -0.000000      0.000000      0.028812
      3.84839      2.22187     11.63466        -0.000000      0.000000      0.768069
      3.84839      2.22187     13.60243        -0.000000      0.000000     -0.029037
      3.84839      2.22187     14.56814        -0.000000      0.000000     -0.012821
    total drift:                                0.028449      0.013411      0.027139

  FREE ENERGIE OF THE ION-ELECTRON SYSTEM (eV)
  free  energy   TOTEN  =      -138.98148268 eV

  energy  without entropy=     -138.98148268  energy(sigma->0) =     -138.98148268

 stress matrix after NEB project (eV)
     -5.00284      0.00000     -0.00000
      0.00000     -5.00284     -0.00000
      0.00000     -0.00000      0.49791
  FORCES: max atom, RMS     0.029037    0.005149
  FORCE total and by dimension    0.031742    0.029037
  Stress total and by dimension    7.092587    5.002843
|           W    W    AA    RRRRR   N    N  II  N    N   GGGG   !!!           |
|           W    W   A  A   R    R  NN   N  II  NN   N  G    G  !!!           |
|           W    W  A    A  R    R  N N  N  II  N N  N  G       !!!           |
|           W WW W  AAAAAA  RRRRR   N  N N  II  N  N N  G  GGG   !            |
|           WW  WW  A    A  R   R   N   NN  II  N   NN  G    G                |
|           W    W  A    A  R    R  N    N  II  N    N   GGGG   !!!           |
|     Tetrahedron method does not include variations of the Fermi             |
|     occupations, so forces and stress will be inaccurate. We suggest        |
|     using a different smearing scheme ISMEAR = 1 or 2 for metals in         |
|     relaxations.                                                            |

 total charge

# of ion       s       p       d       tot
    1        0.447   0.285   9.189   9.921
    2        0.450   0.285   9.186   9.921
    3        0.450   0.285   9.186   9.921
    4        0.450   0.285   9.186   9.921
    5        0.447   0.288   9.183   9.918
    6        0.450   0.285   9.186   9.921
    7        0.450   0.285   9.186   9.921
    8        0.450   0.285   9.186   9.921
    9        0.446   0.285   9.186   9.917
   10        0.442   0.373   9.176   9.991
   11        0.443   0.367   9.182   9.991
   12        0.442   0.373   9.176   9.991
   13        0.443   0.367   9.182   9.991
   14        0.443   0.367   9.182   9.991
   15        0.438   0.369   9.181   9.987
   16        0.442   0.373   9.176   9.991
   17        0.438   0.369   9.181   9.987
   18        0.438   0.369   9.181   9.987
   19        0.442   0.373   9.180   9.994
   20        0.450   0.385   9.170  10.006
   21        0.450   0.385   9.170  10.006
   22        0.436   0.370   9.183   9.989
   23        0.450   0.385   9.170  10.006
   24        0.436   0.370   9.183   9.989
   25        0.442   0.373   9.180   9.994
   26        0.442   0.373   9.180   9.994
   27        0.436   0.370   9.183   9.989
   28        0.455   0.289   9.194   9.939
   29        0.445   0.293   9.193   9.930
   30        0.445   0.293   9.193   9.930
   31        0.445   0.293   9.193   9.930
   32        0.445   0.293   9.193   9.930
   33        0.445   0.293   9.193   9.930
   34        0.445   0.293   9.193   9.930
   35        0.447   0.294   9.191   9.931
   36        0.465   0.509   7.441   8.414
   37        1.542   3.510   0.000   5.052
   38        0.609   0.127   0.000   0.736
tot         18.172  15.764 328.878 362.814

 BZINTS: Fermi energy:    0.261670;  401.000000 electrons
         Band energy:-0.105417E+04;  BLOECHL correction:   -0.050042