 vasp.6.2.0 18Jan21 (build Jun 12 2021 23:27:24) complex

 executed on             LinuxIFC date 2022.05.27  05:09:02

 INCAR:
   ISMEAR = -5
   SIGMA = 0.1
   ISPIN = 1
   EDIFF = 1.d-5
   EDIFFG = -0.01
   NSW = 0
   NELM = 150
   ENCUT = 500
   ISIF = 2
   IBRION = 2
   LREAL = Auto
   ALGO = Fast
   ICHARG = 11
   LORBIT = 10
   LCHARG = .F.
   LWAVE = .F.

 POTCAR:    PAW_PBE Au 04Oct2007
 POTCAR:    PAW_PBE Nb_sv 25May2007
 POTCAR:    PAW_PBE O 08Apr2002
 POTCAR:    PAW_PBE H 15Jun2001
|           W    W    AA    RRRRR   N    N  II  N    N   GGGG   !!!           |
|           W    W   A  A   R    R  NN   N  II  NN   N  G    G  !!!           |
|           W    W  A    A  R    R  N N  N  II  N N  N  G       !!!           |
|           W WW W  AAAAAA  RRRRR   N  N N  II  N  N N  G  GGG   !            |
|           WW  WW  A    A  R   R   N   NN  II  N   NN  G    G                |
|           W    W  A    A  R    R  N    N  II  N    N   GGGG   !!!           |
|     For optimal performance we recommend to set                             |
|       NCORE = 2 up to number-of-cores-per-socket                            |
|     This setting can greatly improve the performance of VASP for DFT.       |
|     The default, NCORE=1 might be grossly inefficient on modern             |
|     multi-core architectures or massively parallel machines. Do your        |
|     Unfortunately you need to use the default for GW and RPA                |
|     calculations (for HF NCORE is supported but not extensively tested      |
|     yet).                                                                   |

 POTCAR:    PAW_PBE Au 04Oct2007
   VRHFIN =Au: s1d10

   TITEL  = PAW_PBE Au 04Oct2007
   POMASS =  196.966; ZVAL   =   11.000    mass and valenz
   ENMAX  =  229.943; ENMIN  =  172.457 eV

 POTCAR:    PAW_PBE Nb_sv 25May2007
   VRHFIN =Nb: 4p5s4d

   TITEL  = PAW_PBE Nb_sv 25May2007
   POMASS =   92.910; ZVAL   =   13.000    mass and valenz
   ENMAX  =  293.235; ENMIN  =  219.927 eV

 POTCAR:    PAW_PBE O 08Apr2002
   VRHFIN =O: s2p4

   TITEL  = PAW_PBE O 08Apr2002
   POMASS =   16.000; ZVAL   =    6.000    mass and valenz
   ENMAX  =  400.000; ENMIN  =  300.000 eV

 POTCAR:    PAW_PBE H 15Jun2001
   VRHFIN =H: ultrasoft test

   TITEL  = PAW_PBE H 15Jun2001
   POMASS =    1.000; ZVAL   =    1.000    mass and valenz
   ENMAX  =  250.000; ENMIN  =  200.000 eV

 Optimization of the real space projectors (new method)

 maximal supplied QI-value         = 15.12
 optimisation between [QCUT,QGAM] = [ 11.34, 22.83] = [ 36.00,145.93] Ry
 Optimized for a Real-space Cutoff    1.39 Angstroem

   l    n(q)    QCUT    max X(q) W(low)/X(q) W(high)/X(q)  e(spline)
   2      9    11.338    60.898    0.39E-03    0.42E-03    0.21E-06
   2      9    11.338    58.894    0.40E-03    0.42E-03    0.22E-06
   0      9    11.338   109.617    0.13E-03    0.20E-04    0.13E-06
   0      9    11.338    75.026    0.13E-03    0.20E-04    0.13E-06
   1      9    11.338    16.344    0.33E-04    0.24E-03    0.18E-06
   1      9    11.338    10.160    0.26E-04    0.19E-03    0.15E-06
 Optimization of the real space projectors (new method)

[...]

   l    n(q)    QCUT    max X(q) W(low)/X(q) W(high)/X(q)  e(spline)
   0      7    11.387    20.381    0.39E-03    0.13E-02    0.15E-06
   0      7    11.387    15.268    0.42E-03    0.14E-02    0.17E-06
   1      6    11.387     5.964    0.41E-03    0.11E-02    0.17E-06
   1      6    11.387     5.382    0.39E-03    0.87E-03    0.15E-06
 Optimization of the real space projectors (new method)

 maximal supplied QI-value         = 34.20
 optimisation between [QCUT,QGAM] = [ 11.29, 22.57] = [ 35.68,142.71] Ry
 Optimized for a Real-space Cutoff    1.16 Angstroem

   l    n(q)    QCUT    max X(q) W(low)/X(q) W(high)/X(q)  e(spline)
   0      8    11.287    19.460    0.40E-03    0.73E-03    0.16E-06
   0      8    11.287    12.209    0.38E-03    0.70E-03    0.15E-06
   1      7    11.287     4.655    0.22E-03    0.25E-04    0.22E-06
  PAW_PBE Au 04Oct2007                  :
  PAW_PBE Nb_sv 25May2007               :
  PAW_PBE O 08Apr2002                   :
  PAW_PBE H 15Jun2001                   :

 POSCAR: Au-Nb-OH
  positions in direct lattice
  velocities in cartesian coordinates
 exchange correlation table for  LEXCH =        8
   RHO(1)=    0.500       N(1)  =     2000
   RHO(2)=  100.500       N(2)  =     4000

 VTST: version 3.2, (02/03/18)

 CHAIN: initializing optimizer

 OPT: Using VASP Conjugate-Gradient optimizer
 CHAIN: Read ICHAIN            0

 POSCAR: Au-Nb-OH
  positions in direct lattice
  velocities in cartesian coordinates

 ion  position               nearest neighbor table
   1  0.000  0.000  0.238-  16 2.94  12 2.94   6 2.94   8 2.94   7 2.94   3 2.94  10 2.94   4 2.94
                             2 2.94
   2  0.333  0.000  0.238-   9 2.94  11 2.94  17 2.94  10 2.94   8 2.94   4 2.94   5 2.94   1 2.94
                             3 2.94
   3  0.667  0.000  0.238-   7 2.94  18 2.94  12 2.94   1 2.94  11 2.94   5 2.94   6 2.94   9 2.94
                             2 2.94
   4  0.000  0.333  0.238-  10 2.94   6 2.94   5 2.94  13 2.94   2 2.94  15 2.94   9 2.94   1 2.94
                             7 2.94
   5  0.333  0.333  0.238-  13 2.94   7 2.94  11 2.94   4 2.94   2 2.94  14 2.94   3 2.94   8 2.94
                             6 2.94
   6  0.667  0.333  0.238-  15 2.94  14 2.94   1 2.94  12 2.94   4 2.94   9 2.94   8 2.94   3 2.94
                             5 2.94
   7  0.000  0.667  0.238-  18 2.94   3 2.94  16 2.94   5 2.94   1 2.94  13 2.94   8 2.94   4 2.94
                             9 2.94
   8  0.333  0.667  0.238-   9 2.94  17 2.94   1 2.94   2 2.94  14 2.94  16 2.94   6 2.94   7 2.94
                             5 2.94
   9  0.667  0.667  0.238-   2 2.94   8 2.94  17 2.94   6 2.94  15 2.94   4 2.94   3 2.94  18 2.94
                             7 2.94
  10  0.111  0.111  0.346-  20 2.91  11 2.94  17 2.94   2 2.94   4 2.94   1 2.94  12 2.94  16 2.94
                            13 2.94  15 2.94  26 2.95  19 2.95
  11  0.444  0.111  0.346-  20 2.91  21 2.91  13 2.94   2 2.94  10 2.94  17 2.94   5 2.94   3 2.94
                            18 2.94  14 2.94  12 2.94  27 2.94
  12  0.778  0.111  0.346-  21 2.91  16 2.94  18 2.94   1 2.94  14 2.94  15 2.94   3 2.94   6 2.94
                            10 2.94  11 2.94  25 2.95  19 2.95
  13  0.111  0.444  0.346-  23 2.91  20 2.91   5 2.94  18 2.94  11 2.94   7 2.94   4 2.94  16 2.94
                            10 2.94  14 2.94  15 2.94  22 2.94
  14  0.444  0.444  0.346-  21 2.91  23 2.91  15 2.94   6 2.94  12 2.94   8 2.94  17 2.94   5 2.94
                            16 2.94  13 2.94  11 2.94  24 2.94
  15  0.778  0.444  0.346-  24 2.93  22 2.93  14 2.94   6 2.94  17 2.94  12 2.94   9 2.94   4 2.94
                            10 2.94  13 2.94  18 2.94  19 2.94
  16  0.111  0.778  0.346-  23 2.91  18 2.94  12 2.94   7 2.94   1 2.94   8 2.94  13 2.94  10 2.94
                            14 2.94  17 2.94  25 2.95  26 2.95
  17  0.444  0.778  0.346-  27 2.93  24 2.93   9 2.94  15 2.94   2 2.94  10 2.94  11 2.94   8 2.94
                            14 2.94  16 2.94  18 2.94  26 2.94
  18  0.778  0.778  0.346-  22 2.93  27 2.93  16 2.94   7 2.94  13 2.94  12 2.94   3 2.94  11 2.94
                             9 2.94  15 2.94  17 2.94  25 2.94
  19  0.889  0.223  0.454-  24 2.93  22 2.93  21 2.94  20 2.94  15 2.94  26 2.94  25 2.94  10 2.95
                            12 2.95  28 2.95  32 3.04  31 3.04
  20  0.222  0.222  0.453-  36 2.78  10 2.91  11 2.91  13 2.91  26 2.94  19 2.94  23 2.94  21 2.94
                            27 2.95  22 2.95  29 2.99  31 2.99
  21  0.556  0.222  0.453-  36 2.78  12 2.91  14 2.91  11 2.91  25 2.94  19 2.94  20 2.94  23 2.94
                            27 2.95  24 2.95  30 2.99  32 2.99
  22  0.887  0.557  0.454-  24 2.91  27 2.91  18 2.93  15 2.93  25 2.93  19 2.93  13 2.94  23 2.95
                            20 2.95  35 2.96  33 3.02  31 3.02
  23  0.222  0.556  0.453-  36 2.78  16 2.91  13 2.91  14 2.91  25 2.94  26 2.94  20 2.94  21 2.94
                            22 2.95  24 2.95  33 2.99  34 2.99
  24  0.557  0.557  0.454-  27 2.91  22 2.91  15 2.93  17 2.93  26 2.93  19 2.93  14 2.94  21 2.95
                            23 2.95  35 2.96  32 3.02  34 3.02
  25  0.889  0.889  0.454-  22 2.93  27 2.93  23 2.94  21 2.94  18 2.94  19 2.94  26 2.94  16 2.95
                            12 2.95  28 2.95  33 3.04  30 3.04
  26  0.223  0.889  0.454-  27 2.93  24 2.93  20 2.94  23 2.94  17 2.94  19 2.94  25 2.94  10 2.95
                            16 2.95  28 2.95  29 3.04  34 3.04
  27  0.557  0.887  0.454-  24 2.91  22 2.91  17 2.93  18 2.93  26 2.93  25 2.93  11 2.94  20 2.95
                            21 2.95  35 2.96  29 3.02  30 3.02
  28  0.000  0.000  0.563-  25 2.95  19 2.95  26 2.95  34 2.98  32 2.98  33 2.98  30 2.98  31 2.98
                            29 2.98
  29  0.334  0.009  0.566-  30 2.85  31 2.86  36 2.87  35 2.98  28 2.98  20 2.99  27 3.02  26 3.04
                            34 3.10
  30  0.657  0.009  0.566-  29 2.85  32 2.86  36 2.87  35 2.98  28 2.98  21 2.99  27 3.02  25 3.04
                            33 3.10
  31  0.009  0.334  0.566-  33 2.85  29 2.86  36 2.87  35 2.98  28 2.98  20 2.99  22 3.02  19 3.04
                            32 3.10
  32  0.657  0.334  0.566-  34 2.85  30 2.86  36 2.87  35 2.98  28 2.98  21 2.99  24 3.02  19 3.04
                            31 3.10
  33  0.009  0.657  0.566-  31 2.85  34 2.86  36 2.87  35 2.98  28 2.98  23 2.99  22 3.02  25 3.04
                            30 3.10
  34  0.334  0.657  0.566-  32 2.85  33 2.86  36 2.87  35 2.98  28 2.98  23 2.99  24 3.02  26 3.04
                            29 3.10
  35  0.667  0.667  0.563-  24 2.96  27 2.96  22 2.96  29 2.98  34 2.98  32 2.98  31 2.98  30 2.98
                            33 2.98
  36  0.333  0.333  0.552-  37 1.87  20 2.78  23 2.78  21 2.78  33 2.87  31 2.87  29 2.87  30 2.87
                            34 2.87  32 2.87
  37  0.333  0.333  0.636-  38 0.97  36 1.87
  38  0.333  0.333  0.679-  37 0.97

  LATTYP: Found a hexagonal cell.
 ALAT       =     8.8135128021
 C/A-ratio  =     2.5184286595

  Lattice vectors:

 A1 = (  -4.4067569092,  -7.6327256898,   0.0000000000)
 A2 = (   8.8135128021,   0.0000000000,   0.0000000000)
 A3 = (   0.0000000000,   0.0000000000,  22.1962032318)

Analysis of symmetry for initial positions (statically):
 Subroutine PRICEL returns:
 Original cell was already a primitive cell.

 Routine SETGRP: Setting up the symmetry group for a
 hexagonal supercell.

 Subroutine GETGRP returns: Found  6 space group operations
 (whereof  6 operations were pure point group operations)
 out of a pool of 24 trial point group operations.

The static configuration has the point symmetry C_3v.

Analysis of symmetry for dynamics (positions and initial velocities):
 Subroutine PRICEL returns:
 Original cell was already a primitive cell.

[...]

The dynamic configuration has the point symmetry C_3v.

Analysis of constrained symmetry for selective dynamics:
 Subroutine PRICEL returns:
 Original cell was already a primitive cell.

[...]
     33      -4.6116      2.00000
     34      -4.5885      2.00000
     35      -4.5165      2.00000
     36      -4.4945      2.00000
     37      -4.4650      2.00000
     38      -4.4106      2.00000
     39      -4.3990      2.00000
     40      -4.3783      2.00000
     41      -4.3668      2.00000
     42      -4.3472      2.00000
     43      -4.2195      2.00000
     44      -4.1949      2.00000
     45      -4.1781      2.00000
     46      -4.1595      2.00000
     47      -4.1132      2.00000
     48      -4.0645      2.00000
     49      -4.0271      2.00000
     50      -3.9701      2.00000
     51      -3.9412      2.00000
     52      -3.8862      2.00000
     53      -3.8649      2.00000
     54      -3.8460      2.00000
     55      -3.8207      2.00000
     56      -3.8040      2.00000
     57      -3.7796      2.00000
     58      -3.7741      2.00000
     59      -3.7465      2.00000
     60      -3.7337      2.00000
[...]
    238       6.0629      0.00000
    239       6.2898      0.00000
    240       6.4018      0.00000
    241       6.4249      0.00000
    242       6.6467      0.00000
    243       6.7167      0.00000
    244       6.7560      0.00000
    245       6.8412      0.00000
    246       6.9371      0.00000
    247       7.0717      0.00000
    248       7.0925      0.00000
    249       7.1260      0.00000
    250       7.2261      0.00000
    251       7.5477      0.00000
    252       7.6322      0.00000

 soft charge-density along one line, spin component           1
         0         1         2         3         4         5         6         7         8         9
 total charge-density along one line

------------------------ aborting loop because EDIFF is reached ----------------------------------------

 total charge

# of ion       s       p       d       tot
    1        0.550   0.237   8.766   9.553
    2        0.543   0.242   8.765   9.550
    3        0.543   0.242   8.765   9.550
    4        0.543   0.242   8.765   9.550
    5        0.543   0.242   8.762   9.547
    6        0.543   0.242   8.765   9.550
    7        0.543   0.242   8.765   9.550
    8        0.543   0.242   8.765   9.550
    9        0.543   0.241   8.767   9.550
   10        0.524   0.306   8.770   9.600
   11        0.519   0.309   8.779   9.606
   12        0.524   0.306   8.770   9.600
   13        0.519   0.309   8.779   9.606
   14        0.519   0.309   8.779   9.606
   15        0.514   0.308   8.773   9.596
   16        0.524   0.306   8.770   9.600
   17        0.514   0.308   8.773   9.596
   18        0.514   0.308   8.773   9.596
   19        0.520   0.295   8.773   9.588
   20        0.574   0.340   8.727   9.642
   21        0.574   0.340   8.727   9.642
   22        0.509   0.307   8.773   9.589
   23        0.574   0.340   8.727   9.642
   24        0.509   0.307   8.773   9.589
   25        0.520   0.295   8.773   9.588
   26        0.520   0.295   8.773   9.588
   27        0.509   0.307   8.773   9.589
   28        0.547   0.231   8.750   9.529
   29        0.583   0.247   8.740   9.570
   30        0.583   0.247   8.740   9.570
   31        0.583   0.247   8.740   9.570
   32        0.583   0.247   8.740   9.570
   33        0.583   0.247   8.740   9.570
   34        0.583   0.247   8.740   9.570
   35        0.539   0.233   8.753   9.525
   36        2.191   6.039   2.204  10.434
   37        1.562   3.558   0.000   5.120
   38        0.601   0.125   0.000   0.726
tot         23.312  19.430 308.819 351.561

  FORCE on cell =-STRESS in cart. coord.  units (eV):
  Direction    XX          YY          ZZ          XY          YZ          ZX
  Alpha Z  1043.28893  1043.28893  1043.28893
  Ewald  120209.96395120209.96445************    -0.00031    -0.00008    -0.00011
  Hartree129342.98852129342.98854************     0.00001    -0.00002    -0.00003
  E(xc)   -1820.03490 -1820.03492 -1826.43200     0.00001     0.00000     0.00000
  Local  ************************261900.18488     0.00197     0.00000    -0.00002
  n-local  -100.93653   -56.53302   -48.00180    21.25596    -1.97512     1.32750
  augment  2389.29576  2389.29725  2405.79854    -0.00129     0.00000     0.00002
  Kinetic  5735.05750  5746.90257  5758.15275     6.36934     0.61248    -0.12568
  Fock        0.00000     0.00000     0.00000     0.00000     0.00000     0.00000
  Total     -19.67295   -19.67294     2.75267    -0.00000     0.00000     0.00000
  in kB     -21.10924   -21.10924     2.95364    -0.00000     0.00000     0.00000

 VOLUME and BASIS-vectors are now :
  energy-cutoff  :      500.00
  volume of cell :     1493.16
      direct lattice vectors                 reciprocal lattice vectors
     8.813512802  0.000000000  0.000000000     0.113462137 -0.065507406  0.000000000
     4.406756909  7.632725690  0.000000000     0.000000000  0.131014796  0.000000000
     0.000000000  0.000000000 22.196203232     0.000000000  0.000000000  0.045052750

  length of vectors
     8.813512802  8.813512802 22.196203232     0.131014796  0.131014796  0.045052750

 FORCES acting on ions
    electron-ion (+dipol)            ewald-force                    non-local-force                 convergence-correction
   -.196E-04 -.162E-04 0.251E+04   0.520E-04 0.435E-04 -.251E+04   -.374E-17 -.127E-17 -.660E+00   -.240E-03 -.152E-03 -.991E-01
   0.907E+00 0.858E+00 0.251E+04   -.911E+00 -.972E+00 -.251E+04   -.100E-01 0.891E-01 -.283E+00   0.118E-01 0.204E-01 -.807E-01
   -.907E+00 0.858E+00 0.251E+04   0.911E+00 -.972E+00 -.251E+04   0.100E-01 0.891E-01 -.283E+00   -.115E-01 0.223E-01 -.800E-01
   0.120E+01 0.356E+00 0.251E+04   -.130E+01 -.303E+00 -.251E+04   0.721E-01 -.532E-01 -.283E+00   0.236E-01 -.372E-04 -.807E-01
   0.956E-05 -.228E-04 0.251E+04   0.951E-04 0.173E-05 -.251E+04   -.867E-18 -.578E-18 -.166E+00   0.428E-02 0.261E-02 -.123E+00
   -.120E+01 0.356E+00 0.251E+04   0.130E+01 -.303E+00 -.251E+04   -.721E-01 -.532E-01 -.283E+00   -.252E-01 0.876E-03 -.798E-01
   0.290E+00 -.121E+01 0.251E+04   -.387E+00 0.128E+01 -.251E+04   0.821E-01 -.359E-01 -.283E+00   0.136E-01 -.211E-01 -.800E-01
   -.290E+00 -.121E+01 0.251E+04   0.387E+00 0.128E+01 -.251E+04   -.821E-01 -.359E-01 -.283E+00   -.118E-01 -.222E-01 -.798E-01
   0.195E-04 -.415E-04 0.251E+04   0.166E-03 -.202E-04 -.251E+04   -.178E-17 -.154E-17 -.439E+00   -.459E-02 -.237E-02 -.637E-01
   0.933E+01 0.539E+01 0.883E+03   -.902E+01 -.520E+01 -.883E+03   -.364E+00 -.210E+00 -.525E+00   0.148E-01 0.845E-02 0.242E-01
   0.159E-04 0.105E+02 0.897E+03   0.147E-03 -.105E+02 -.897E+03   0.114E-08 0.171E-01 -.211E+00   0.402E-02 -.802E-01 0.153E-01
   -.933E+01 0.539E+01 0.883E+03   0.901E+01 -.520E+01 -.883E+03   0.364E+00 -.210E+00 -.525E+00   -.163E-01 0.963E-02 0.241E-01
   0.910E+01 -.525E+01 0.897E+03   -.911E+01 0.526E+01 -.897E+03   0.148E-01 -.857E-02 -.211E+00   -.671E-01 0.438E-01 0.153E-01
   -.910E+01 -.525E+01 0.897E+03   0.911E+01 0.526E+01 -.897E+03   -.148E-01 -.857E-02 -.211E+00   0.747E-01 0.430E-01 0.145E-01
   0.298E-04 0.237E+01 0.884E+03   0.236E-03 -.244E+01 -.883E+03   0.714E-09 0.107E-01 -.428E+00   -.231E-02 0.171E-01 0.376E-01
   -.219E-04 -.108E+02 0.883E+03   0.163E-03 0.104E+02 -.883E+03   0.280E-07 0.420E+00 -.525E+00   -.664E-04 -.190E-01 0.241E-01
   0.205E+01 -.119E+01 0.884E+03   -.212E+01 0.122E+01 -.883E+03   0.929E-02 -.536E-02 -.428E+00   0.139E-01 -.101E-01 0.376E-01
   -.205E+01 -.119E+01 0.884E+03   0.212E+01 0.122E+01 -.883E+03   -.929E-02 -.536E-02 -.428E+00   -.136E-01 -.813E-02 0.382E-01
   -.425E-04 0.346E+01 -.794E+03   0.511E-04 -.361E+01 0.793E+03   0.388E-09 0.582E-02 0.648E+00   -.681E-03 0.828E-01 0.895E-01
   0.627E+02 0.362E+02 -.690E+03   -.615E+02 -.355E+02 0.691E+03   -.120E+01 -.694E+00 -.117E+01   -.513E-03 -.426E-03 0.134E+00
   -.627E+02 0.362E+02 -.690E+03   0.615E+02 -.355E+02 0.691E+03   0.120E+01 -.694E+00 -.117E+01   0.131E-02 0.100E-03 0.134E+00
   0.177E+02 -.102E+02 -.771E+03   -.180E+02 0.104E+02 0.771E+03   0.431E+00 -.249E+00 0.715E+00   -.346E-01 0.202E-01 0.801E-01
   -.981E-05 -.724E+02 -.690E+03   0.145E-03 0.710E+02 0.691E+03   0.925E-07 0.139E+01 -.117E+01   0.482E-03 0.109E-02 0.134E+00
   -.177E+02 -.102E+02 -.771E+03   0.180E+02 0.104E+02 0.771E+03   -.431E+00 -.249E+00 0.715E+00   0.343E-01 0.199E-01 0.803E-01
   -.300E+01 -.173E+01 -.794E+03   0.313E+01 0.181E+01 0.793E+03   -.504E-02 -.291E-02 0.648E+00   -.713E-01 -.412E-01 0.891E-01
   0.300E+01 -.173E+01 -.794E+03   -.313E+01 0.181E+01 0.793E+03   0.504E-02 -.291E-02 0.648E+00   0.717E-01 -.419E-01 0.895E-01
   0.159E-04 0.204E+02 -.771E+03   0.193E-03 -.208E+02 0.771E+03   0.331E-07 0.497E+00 0.715E+00   -.323E-03 -.401E-01 0.802E-01
   -.179E-04 -.155E-04 -.242E+04   0.319E-04 0.378E-04 0.242E+04   0.667E-17 0.283E-17 0.224E+00   -.134E-03 -.974E-04 0.892E-01
   0.751E+02 0.125E+03 -.243E+04   -.742E+02 -.124E+03 0.243E+04   -.114E+01 -.155E+01 -.686E-01   0.439E-01 0.327E-01 0.960E-01
   -.751E+02 0.125E+03 -.243E+04   0.742E+02 -.124E+03 0.243E+04   0.114E+01 -.155E+01 -.686E-01   -.436E-01 0.347E-01 0.961E-01
   0.146E+03 0.263E+01 -.243E+04   -.144E+03 -.242E+01 0.243E+04   -.191E+01 -.213E+00 -.686E-01   0.504E-01 0.216E-01 0.961E-01
   -.146E+03 0.263E+01 -.243E+04   0.144E+03 -.242E+01 0.243E+04   0.191E+01 -.213E+00 -.686E-01   -.521E-01 0.224E-01 0.960E-01
   0.706E+02 -.127E+03 -.243E+04   -.700E+02 0.126E+03 0.243E+04   -.771E+00 0.176E+01 -.686E-01   0.830E-02 -.552E-01 0.960E-01
   -.706E+02 -.127E+03 -.243E+04   0.700E+02 0.126E+03 0.243E+04   0.771E+00 0.176E+01 -.686E-01   -.664E-02 -.563E-01 0.960E-01
   0.331E-04 -.237E-04 -.242E+04   0.139E-03 -.534E-04 0.242E+04   0.615E-18 -.158E-17 0.491E+00   -.451E-02 -.231E-02 0.841E-01
   0.271E-03 -.148E-03 -.242E+04   0.135E-03 0.122E-04 0.243E+04   0.622E-19 0.638E-18 -.286E+01   0.757E-02 0.463E-02 0.186E+00
   0.215E-03 -.981E-04 -.168E+04   0.223E-04 0.144E-05 0.166E+04   0.571E-18 0.817E-18 0.185E+02   0.395E-02 0.242E-02 -.559E-01
   0.846E-05 -.134E-04 -.323E+03   0.120E-05 0.107E-06 0.331E+03   0.363E-19 -.467E-19 -.852E+01   0.213E-03 0.130E-03 -.111E-01
   -.237E-03 -.995E-03 -.260E+01   0.558E-13 0.569E-13 0.563E-11   -.110E-15 0.222E-15 0.159E+01   0.158E-01 0.100E-01 0.124E+01

 POSITION                                       TOTAL-FORCE (eV/Angst)
      0.00000      0.00000      5.28038         0.000000     -0.000000     -0.150746
      2.93784      0.00000      5.28038        -0.001895     -0.003869     -0.054123
      5.87568      0.00000      5.28038         0.001895     -0.003869     -0.054123
      1.46892      2.54424      5.28038        -0.004298      0.000293     -0.054123
      4.40676      2.54424      5.28038         0.000000     -0.000000     -0.045444
      7.34459      2.54424      5.28038         0.004298      0.000293     -0.054123
      2.93784      5.08848      5.28038        -0.002403      0.003576     -0.054123
      5.87568      5.08848      5.28038         0.002403      0.003576     -0.054123
      8.81351      5.08848      5.28038         0.000000     -0.000000     -0.084219
      1.46892      0.84808      7.67911        -0.029071     -0.016784      0.084175
      4.40676      0.84808      7.67911        -0.000000     -0.076753      0.010126
      7.34459      0.84808      7.67911         0.029071     -0.016784      0.084175
      2.93784      3.39232      7.67911        -0.066470      0.038377      0.010126
      5.87568      3.39232      7.67911         0.066470      0.038377      0.010126
      8.81351      3.39232      7.67911        -0.000000     -0.045704      0.138048
      4.40676      5.93656      7.67911         0.000000      0.033568      0.084175
      7.34459      5.93656      7.67911        -0.039581      0.022852      0.138048
     10.28243      5.93656      7.67911         0.039581      0.022852      0.138048
      8.81351      1.70030     10.08698        -0.000000     -0.061272     -0.063066
      2.93503      1.69454     10.04736        -0.066433     -0.038355     -0.124620
      5.87848      1.69454     10.04736         0.066433     -0.038355     -0.124620
     10.26776      4.24887     10.06889         0.064262     -0.037102      0.008879
      4.40676      4.24365     10.04736         0.000000      0.076710     -0.124620
      7.35926      4.24887     10.06889        -0.064262     -0.037102      0.008879
     11.74777      6.78258     10.08698         0.053063      0.030636     -0.063066
      5.87926      6.78258     10.08698        -0.053063      0.030636     -0.063066
      8.81351      6.76771     10.06889         0.000000      0.074204      0.008879
      0.00000      0.00000     12.49943         0.000000     -0.000000      0.007946
      2.98194      0.07009     12.55649        -0.166947     -0.319659     -0.267332
      5.83157      0.07009     12.55649         0.166947     -0.319659     -0.267332
      1.55167      2.54739     12.55649        -0.360307      0.015249     -0.267332
      7.26184      2.54739     12.55649         0.360307      0.015249     -0.267332
      2.97649      5.01524     12.55649        -0.193359      0.304410     -0.267332
      5.83702      5.01524     12.55649         0.193359      0.304410     -0.267332
      8.81351      5.08848     12.50498         0.000000     -0.000000      0.073467
      4.40676      2.54424     12.24418         0.000000      0.000000      1.983315
      4.40676      2.54424     14.11106         0.000000      0.000000     -0.028601
      4.40676      2.54424     15.07798         0.000000      0.000000      0.012389
    total drift:                                0.015529      0.009004      0.235229

  FREE ENERGIE OF THE ION-ELECTRON SYSTEM (eV)
  free  energy   TOTEN  =      -127.86130263 eV

  energy  without entropy=     -127.86130263  energy(sigma->0) =     -127.86130263

 stress matrix after NEB project (eV)
    -19.67295     -0.00000      0.00000
     -0.00000    -19.67294      0.00000
      0.00000      0.00000      2.75267
  FORCES: max atom, RMS     0.028601    0.005056
  FORCE total and by dimension    0.031168    0.028601
  Stress total and by dimension   27.957589   19.672946
|           W    W    AA    RRRRR   N    N  II  N    N   GGGG   !!!           |
|           W    W   A  A   R    R  NN   N  II  NN   N  G    G  !!!           |
|           W    W  A    A  R    R  N N  N  II  N N  N  G       !!!           |
|           W WW W  AAAAAA  RRRRR   N  N N  II  N  N N  G  GGG   !            |
|           WW  WW  A    A  R   R   N   NN  II  N   NN  G    G                |
|           W    W  A    A  R    R  N    N  II  N    N   GGGG   !!!           |
|     Tetrahedron method does not include variations of the Fermi             |
|     occupations, so forces and stress will be inaccurate. We suggest        |
|     using a different smearing scheme ISMEAR = 1 or 2 for metals in         |
|     relaxations.                                                            |

 total charge

# of ion       s       p       d       tot
    1        0.550   0.237   8.766   9.553
    2        0.543   0.242   8.765   9.550
    3        0.543   0.242   8.765   9.550
    4        0.543   0.242   8.765   9.550
    5        0.543   0.242   8.762   9.547
    6        0.543   0.242   8.765   9.550
    7        0.543   0.242   8.765   9.550
    8        0.543   0.242   8.765   9.550
    9        0.543   0.241   8.767   9.550
   10        0.524   0.306   8.770   9.600
   11        0.519   0.309   8.779   9.606
   12        0.524   0.306   8.770   9.600
   13        0.519   0.309   8.779   9.606
   14        0.519   0.309   8.779   9.606
   15        0.514   0.308   8.773   9.596
   16        0.524   0.306   8.770   9.600
   17        0.514   0.308   8.773   9.596
   18        0.514   0.308   8.773   9.596
   19        0.520   0.295   8.773   9.588
   20        0.574   0.340   8.727   9.642
   21        0.574   0.340   8.727   9.642
   22        0.509   0.307   8.773   9.589
   23        0.574   0.340   8.727   9.642
   24        0.509   0.307   8.773   9.589
   25        0.520   0.295   8.773   9.588
   26        0.520   0.295   8.773   9.588
   27        0.509   0.307   8.773   9.589
   28        0.547   0.231   8.750   9.529
   29        0.583   0.247   8.740   9.570
   30        0.583   0.247   8.740   9.570
   31        0.583   0.247   8.740   9.570
   32        0.583   0.247   8.740   9.570
   33        0.583   0.247   8.740   9.570
   34        0.583   0.247   8.740   9.570
   35        0.539   0.233   8.753   9.525
   36        2.191   6.039   2.204  10.434
   37        1.562   3.558   0.000   5.120
   38        0.601   0.125   0.000   0.726
tot         23.312  19.430 308.819 351.561

 BZINTS: Fermi energy:    1.054816;  405.000000 electrons
         Band energy:-0.142463E+04;  BLOECHL correction:   -0.030638