 vasp.6.2.0 18Jan21 (build Jun 12 2021 23:27:24) complex

 executed on             LinuxIFC date 2022.05.30  18:44:25

 INCAR:
   ISMEAR = -5
   SIGMA = 0.1
   ISPIN = 1
   EDIFF = 1.d-5
   EDIFFG = -0.01
   NSW = 0
   NELM = 150
   ENCUT = 500
   ISIF = 2
   IBRION = 2
   LREAL = Auto
   ALGO = Fast
   ICHARG = 11
   LORBIT = 10
   LCHARG = .F.
   LWAVE = .F.

 POTCAR:    PAW_PBE Cu 22Jun2005
 POTCAR:    PAW_PBE Ir 06Sep2000
 POTCAR:    PAW_PBE C 08Apr2002
 POTCAR:    PAW_PBE O 08Apr2002
 POTCAR:    PAW_PBE H 15Jun2001
|           W    W    AA    RRRRR   N    N  II  N    N   GGGG   !!!           |
|           W    W   A  A   R    R  NN   N  II  NN   N  G    G  !!!           |
|           W    W  A    A  R    R  N N  N  II  N N  N  G       !!!           |
|           W WW W  AAAAAA  RRRRR   N  N N  II  N  N N  G  GGG   !            |
|           WW  WW  A    A  R   R   N   NN  II  N   NN  G    G                |
|           W    W  A    A  R    R  N    N  II  N    N   GGGG   !!!           |
|     For optimal performance we recommend to set                             |
|       NCORE = 2 up to number-of-cores-per-socket                            |
|     This setting can greatly improve the performance of VASP for DFT.       |
|     The default, NCORE=1 might be grossly inefficient on modern             |
|     multi-core architectures or massively parallel machines. Do your        |
|     Unfortunately you need to use the default for GW and RPA                |
|     calculations (for HF NCORE is supported but not extensively tested      |
|     yet).                                                                   |

 POTCAR:    PAW_PBE Cu 22Jun2005
   VRHFIN =Cu: d10 p1

   TITEL  = PAW_PBE Cu 22Jun2005
   POMASS =   63.546; ZVAL   =   11.000    mass and valenz
   ENMAX  =  295.446; ENMIN  =  221.585 eV

 POTCAR:    PAW_PBE Ir 06Sep2000
   VRHFIN =Ir: s1d8

   TITEL  = PAW_PBE Ir 06Sep2000
   POMASS =  192.220; ZVAL   =    9.000    mass and valenz
   ENMAX  =  210.864; ENMIN  =  158.148 eV

 POTCAR:    PAW_PBE C 08Apr2002
   VRHFIN =C: s2p2

   TITEL  = PAW_PBE C 08Apr2002
   POMASS =   12.011; ZVAL   =    4.000    mass and valenz
   ENMAX  =  400.000; ENMIN  =  300.000 eV

 POTCAR:    PAW_PBE O 08Apr2002
   VRHFIN =O: s2p4

   TITEL  = PAW_PBE O 08Apr2002
   POMASS =   16.000; ZVAL   =    6.000    mass and valenz
   ENMAX  =  400.000; ENMIN  =  300.000 eV

 POTCAR:    PAW_PBE H 15Jun2001
   VRHFIN =H: ultrasoft test

   TITEL  = PAW_PBE H 15Jun2001
   POMASS =    1.000; ZVAL   =    1.000    mass and valenz
   ENMAX  =  250.000; ENMIN  =  200.000 eV

 Optimization of the real space projectors (new method)

 maximal supplied QI-value         = 16.25
 optimisation between [QCUT,QGAM] = [ 11.38, 22.75] = [ 36.24,144.96] Ry
 Optimized for a Real-space Cutoff    1.52 Angstroem

   l    n(q)    QCUT    max X(q) W(low)/X(q) W(high)/X(q)  e(spline)
   2      9    11.376     4.610    0.21E-03    0.10E-03    0.26E-06
   2      9    11.376     8.522    0.33E-03    0.16E-03    0.37E-06
   0     10    11.376    51.609    0.62E-04    0.20E-04    0.13E-06
   0     10    11.376    27.747    0.54E-04    0.20E-04    0.13E-06
   1     10    11.376    20.408    0.13E-04    0.99E-04    0.19E-06
   1     10    11.376    13.425    0.12E-04    0.87E-04    0.17E-06
 Optimization of the real space projectors (new method)

[...]

   l    n(q)    QCUT    max X(q) W(low)/X(q) W(high)/X(q)  e(spline)
   0      7    11.387    20.381    0.39E-03    0.13E-02    0.15E-06
   0      7    11.387    15.268    0.42E-03    0.14E-02    0.17E-06
   1      6    11.387     5.964    0.41E-03    0.11E-02    0.17E-06
   1      6    11.387     5.382    0.39E-03    0.87E-03    0.15E-06
 Optimization of the real space projectors (new method)

 maximal supplied QI-value         = 34.20
 optimisation between [QCUT,QGAM] = [ 11.29, 22.57] = [ 35.68,142.71] Ry
 Optimized for a Real-space Cutoff    1.16 Angstroem

   l    n(q)    QCUT    max X(q) W(low)/X(q) W(high)/X(q)  e(spline)
   0      8    11.287    19.460    0.40E-03    0.73E-03    0.16E-06
   0      8    11.287    12.209    0.38E-03    0.70E-03    0.15E-06
   1      7    11.287     4.655    0.22E-03    0.25E-04    0.22E-06
  PAW_PBE Cu 22Jun2005                  :
  PAW_PBE Ir 06Sep2000                  :
  PAW_PBE C 08Apr2002                   :
  PAW_PBE O 08Apr2002                   :
  PAW_PBE H 15Jun2001                   :

 POSCAR: Cu-Ir-COH
  positions in direct lattice
  velocities in cartesian coordinates
 exchange correlation table for  LEXCH =        8
   RHO(1)=    0.500       N(1)  =     2000
   RHO(2)=  100.500       N(2)  =     4000

 VTST: version 3.2, (02/03/18)

 CHAIN: initializing optimizer

 OPT: Using VASP Conjugate-Gradient optimizer
 CHAIN: Read ICHAIN            0

 POSCAR: Cu-Ir-COH
  positions in direct lattice
  velocities in cartesian coordinates

 ion  position               nearest neighbor table
   1  0.000  0.000  0.206-   7 2.57   3 2.57   4 2.57   2 2.57   6 2.57   8 2.57  12 2.57  10 2.57
                            16 2.57
   2  0.333  0.000  0.206-   8 2.57   9 2.57   5 2.57   1 2.57   3 2.57  11 2.57   4 2.57  10 2.57
                            17 2.57
   3  0.667  0.000  0.206-   1 2.57   7 2.57   6 2.57   9 2.57   2 2.57  12 2.57   5 2.57  18 2.57
                            11 2.57
   4  0.000  0.333  0.206-   5 2.57   6 2.57   1 2.57   7 2.57   2 2.57  13 2.57   9 2.57  10 2.57
                            15 2.57
   5  0.333  0.333  0.206-   4 2.57   2 2.57   7 2.57  13 2.57   8 2.57   6 2.57   3 2.57  11 2.57
                            14 2.57
   6  0.667  0.333  0.206-   4 2.57   9 2.57  15 2.57   3 2.57   1 2.57   8 2.57  14 2.57   5 2.57
                            12 2.57
   7  0.000  0.667  0.206-   1 2.57   3 2.57  16 2.57  18 2.57   4 2.57   5 2.57   8 2.57   9 2.57
                            13 2.57
   8  0.333  0.667  0.206-   9 2.57   2 2.57  17 2.57   6 2.57   1 2.57   7 2.57   5 2.57  14 2.57
                            16 2.57
   9  0.667  0.667  0.206-   8 2.57   6 2.57   2 2.57  17 2.57   3 2.57   7 2.57   4 2.57  15 2.57
                            18 2.57
  10  0.111  0.111  0.286-  20 2.53  11 2.57  12 2.57  13 2.57   1 2.57   2 2.57   4 2.57  15 2.57
                            16 2.57  17 2.57  26 2.57  19 2.57
  11  0.444  0.111  0.286-  20 2.55  21 2.55  10 2.57  13 2.57   2 2.57  17 2.57  14 2.57  12 2.57
                             5 2.57   3 2.57  18 2.57  27 2.57
  12  0.778  0.111  0.286-  21 2.53  15 2.57  10 2.57  14 2.57  18 2.57   3 2.57   1 2.57  16 2.57
                            11 2.57   6 2.57  19 2.57  25 2.57
  13  0.111  0.444  0.286-  23 2.55  20 2.55  16 2.57  18 2.57  10 2.57  11 2.57  14 2.57   5 2.57
                             4 2.57   7 2.57  15 2.57  22 2.57
  14  0.444  0.444  0.286-  21 2.55  23 2.55  15 2.57  17 2.57  12 2.57  16 2.57  13 2.57  11 2.57
                             6 2.57   8 2.57   5 2.57  24 2.57
  15  0.778  0.444  0.286-  19 2.56  24 2.56  22 2.56  14 2.57  17 2.57  12 2.57   6 2.57  18 2.57
                            10 2.57   9 2.57  13 2.57   4 2.57
  16  0.111  0.778  0.286-  23 2.53  18 2.57  13 2.57   7 2.57  14 2.57  17 2.57  12 2.57  10 2.57
                             8 2.57   1 2.57  25 2.57  26 2.57
  17  0.444  0.778  0.286-  26 2.56  27 2.56  24 2.56  14 2.57  15 2.57   8 2.57   9 2.57  11 2.57
                            16 2.57  18 2.57  10 2.57   2 2.57
  18  0.778  0.778  0.286-  25 2.56  22 2.56  27 2.56  16 2.57  13 2.57   7 2.57  15 2.57  12 2.57
                            17 2.57   9 2.57   3 2.57  11 2.57
  19  0.888  0.223  0.366-  28 2.55  21 2.55  20 2.55  22 2.56  24 2.56  15 2.56  32 2.56  31 2.56
                            12 2.57  10 2.57  25 2.58  26 2.58
  20  0.221  0.221  0.365-  10 2.53  11 2.55  13 2.55  26 2.55  19 2.55  36 2.55  27 2.57  22 2.57
                            29 2.59  31 2.59  23 2.59  21 2.59
  21  0.558  0.221  0.365-  12 2.53  14 2.55  11 2.55  19 2.55  25 2.55  36 2.55  24 2.57  27 2.57
                            32 2.59  30 2.59  20 2.59  23 2.59
  22  0.888  0.556  0.366-  35 2.54  24 2.56  27 2.56  19 2.56  25 2.56  18 2.56  15 2.56  13 2.57
                            23 2.57  20 2.57  31 2.57  33 2.57
  23  0.221  0.558  0.365-  16 2.53  13 2.55  14 2.55  25 2.55  26 2.55  36 2.55  22 2.57  24 2.57
                            33 2.59  34 2.59  20 2.59  21 2.59
  24  0.556  0.556  0.366-  35 2.54  22 2.56  27 2.56  19 2.56  26 2.56  15 2.56  17 2.56  14 2.57
                            21 2.57  23 2.57  32 2.57  34 2.57
  25  0.888  0.888  0.366-  28 2.55  21 2.55  23 2.55  22 2.56  27 2.56  18 2.56  33 2.56  30 2.56
                            16 2.57  12 2.57  19 2.58  26 2.58
  26  0.223  0.888  0.366-  28 2.55  20 2.55  23 2.55  27 2.56  24 2.56  17 2.56  29 2.56  34 2.56
                            10 2.57  16 2.57  25 2.58  19 2.58
  27  0.556  0.888  0.366-  35 2.54  24 2.56  22 2.56  26 2.56  25 2.56  17 2.56  18 2.56  11 2.57
                            20 2.57  21 2.57  29 2.57  30 2.57
  28  0.000  0.000  0.445-  25 2.55  19 2.55  26 2.55  33 2.56  30 2.56  31 2.56  29 2.56  32 2.56
                            34 2.56
  29  0.333  0.999  0.446-  34 2.55  28 2.56  26 2.56  35 2.57  31 2.57  27 2.57  36 2.57  30 2.58
                            20 2.59
  30  0.668  0.999  0.446-  33 2.55  28 2.56  25 2.56  35 2.57  32 2.57  27 2.57  36 2.57  29 2.58
                            21 2.59
  31  0.999  0.333  0.446-  32 2.55  28 2.56  19 2.56  35 2.57  29 2.57  22 2.57  36 2.57  33 2.58
                            20 2.59
  32  0.668  0.333  0.446-  31 2.55  28 2.56  19 2.56  35 2.57  30 2.57  24 2.57  36 2.57  34 2.58
                            21 2.59
  33  0.999  0.668  0.446-  30 2.55  28 2.56  25 2.56  35 2.57  34 2.57  22 2.57  36 2.57  31 2.58
                            23 2.59
  34  0.333  0.668  0.446-  29 2.55  28 2.56  26 2.56  35 2.57  33 2.57  24 2.57  36 2.57  32 2.58
                            23 2.59
  35  0.667  0.667  0.445-  24 2.54  27 2.54  22 2.54  34 2.57  32 2.57  29 2.57  30 2.57  33 2.57
                            31 2.57
  36  0.333  0.333  0.444-  37 1.78  23 2.55  20 2.55  21 2.55  31 2.57  29 2.57  33 2.57  34 2.57
                            32 2.57  30 2.57
  37  0.333  0.333  0.512-  38 1.26  36 1.78
  38  0.333  0.333  0.560-  39 0.96  37 1.26
  39  0.333  0.333  0.597-  38 0.96

  LATTYP: Found a hexagonal cell.
 ALAT       =     7.6967864036
 C/A-ratio  =     3.3950614187

  Lattice vectors:

 A1 = (  -3.8483927580,  -6.6656128093,   0.0000000000)
 A2 = (   7.6967864037,   0.0000000000,   0.0000000000)
 A3 = (   0.0000000000,   0.0000000000,  26.1310625667)

Analysis of symmetry for initial positions (statically):
 Subroutine PRICEL returns:
 Original cell was already a primitive cell.

 Routine SETGRP: Setting up the symmetry group for a
 hexagonal supercell.

 Subroutine GETGRP returns: Found  6 space group operations
 (whereof  6 operations were pure point group operations)
 out of a pool of 24 trial point group operations.

The static configuration has the point symmetry C_3v.

Analysis of symmetry for dynamics (positions and initial velocities):
[...]
     41      -3.8583      2.00000
     42      -3.7954      2.00000
     43      -3.7600      2.00000
     44      -3.6912      2.00000
     45      -3.6823      2.00000
     46      -3.6143      2.00000
     47      -3.6026      2.00000
     48      -3.5858      2.00000
     49      -3.5720      2.00000
     50      -3.5674      2.00000
     51      -3.4578      2.00000
     52      -3.4455      2.00000
     53      -3.3904      2.00000
     54      -3.3668      2.00000
     55      -3.3446      2.00000
     56      -3.3188      2.00000
     57      -3.2971      2.00000
     58      -3.2827      2.00000
     59      -3.2623      2.00000
     60      -3.2557      2.00000
[...]
    238       5.1977      0.00000
    239       5.3317      0.00000
    240       5.4735      0.00000
    241       5.4846      0.00000
    242       5.5575      0.00000
    243       5.6606      0.00000
    244       5.6840      0.00000
    245       5.8051      0.00000
    246       5.8452      0.00000
    247       5.9550      0.00000
    248       6.0850      0.00000
    249       6.2621      0.00000
    250       6.3791      0.00000
    251       6.5537      0.00000
    252       6.8320      0.00000

 soft charge-density along one line, spin component           1
         0         1         2         3         4         5         6         7         8         9
 total charge-density along one line

------------------------ aborting loop because EDIFF is reached ----------------------------------------

 total charge

# of ion       s       p       d       tot
    1        0.447   0.285   9.189   9.921
    2        0.450   0.285   9.187   9.922
    3        0.450   0.285   9.187   9.922
    4        0.450   0.285   9.187   9.922
    5        0.449   0.287   9.185   9.921
    6        0.450   0.285   9.187   9.922
    7        0.450   0.285   9.187   9.922
    8        0.450   0.285   9.187   9.922
    9        0.445   0.287   9.186   9.918
   10        0.442   0.372   9.178   9.992
   11        0.443   0.370   9.181   9.994
   12        0.442   0.372   9.178   9.992
   13        0.443   0.370   9.181   9.994
   14        0.443   0.370   9.181   9.994
   15        0.437   0.370   9.181   9.988
   16        0.442   0.372   9.178   9.992
   17        0.437   0.370   9.181   9.988
   18        0.437   0.370   9.181   9.988
   19        0.443   0.370   9.181   9.993
   20        0.453   0.398   9.169  10.020
   21        0.453   0.398   9.169  10.020
   22        0.433   0.374   9.180   9.987
   23        0.453   0.398   9.169  10.020
   24        0.433   0.374   9.180   9.987
   25        0.443   0.370   9.181   9.993
   26        0.443   0.370   9.181   9.993
   27        0.433   0.374   9.180   9.987
   28        0.455   0.291   9.192   9.938
   29        0.442   0.311   9.191   9.944
   30        0.442   0.311   9.191   9.944
   31        0.442   0.311   9.191   9.944
   32        0.442   0.311   9.191   9.944
   33        0.442   0.311   9.191   9.944
   34        0.442   0.311   9.191   9.944
   35        0.450   0.291   9.193   9.934
   36        0.740   0.818   7.150   8.708
   37        0.920   1.455   0.000   2.375
   38        1.528   3.757   0.000   5.285
   39        0.554   0.131   0.000   0.686
tot         19.285  17.946 328.573 365.804

  FORCE on cell =-STRESS in cart. coord.  units (eV):
  Direction    XX          YY          ZZ          XY          YZ          ZX
  Alpha Z   755.17863   755.17863   755.17863
  Ewald  271784.66170271784.66126************     0.00040     0.00012     0.00018
  Hartree284881.23367284881.23364************     0.00004     0.00006     0.00007
  E(xc)   -2336.70663 -2336.70625 -2339.28119    -0.00033    -0.00003    -0.00006
  Local  ************************569704.91544     0.01888    -0.00061    -0.00099
  n-local  -794.35396  -780.26481  -801.56582     7.54967    -0.00422     0.08453
  augment  3357.15146  3357.17180  3363.29911    -0.01762     0.00041     0.00074
  Kinetic  3469.87220  3472.18023  3415.02658     2.72469     1.98889    -1.50181
  Fock        0.00000     0.00000     0.00000     0.00000     0.00000     0.00000
  Total      -0.48747    -0.48747     3.14880     0.00000    -0.00000     0.00000
  in kB      -0.58257    -0.58257     3.76313     0.00000    -0.00000     0.00000

 VOLUME and BASIS-vectors are now :
  energy-cutoff  :      500.00
  volume of cell :     1340.62
      direct lattice vectors                 reciprocal lattice vectors
     7.696786404  0.000000000  0.000000000     0.129924354 -0.075011849  0.000000000
     3.848392758  6.665612809  0.000000000     0.000000000  0.150023716  0.000000000
     0.000000000  0.000000000 26.131062567     0.000000000  0.000000000  0.038268631

  length of vectors
     7.696786404  7.696786404 26.131062567     0.150023716  0.150023716  0.038268631

 FORCES acting on ions
    electron-ion (+dipol)            ewald-force                    non-local-force                 convergence-correction
   -.439E-04 -.113E-05 0.395E+04   0.580E-04 -.438E-05 -.395E+04   0.361E-17 -.328E-17 -.304E+01   -.335E-03 -.161E-03 -.673E+00
   0.270E-01 0.106E+00 0.395E+04   -.155E-01 -.119E+00 -.395E+04   -.729E-02 0.436E-01 -.197E+01   0.258E-02 -.121E-01 -.567E+00
   -.270E-01 0.106E+00 0.395E+04   0.154E-01 -.119E+00 -.395E+04   0.729E-02 0.436E-01 -.197E+01   -.174E-02 -.947E-02 -.566E+00
   0.105E+00 -.295E-01 0.395E+04   -.111E+00 0.461E-01 -.395E+04   0.341E-01 -.281E-01 -.197E+01   -.912E-02 0.823E-02 -.567E+00
   -.697E-04 -.802E-05 0.395E+04   0.116E-03 -.101E-04 -.395E+04   -.529E-17 -.182E-17 -.189E+01   0.122E-01 0.749E-02 -.472E+00
   -.105E+00 -.294E-01 0.395E+04   0.111E+00 0.460E-01 -.395E+04   -.341E-01 -.281E-01 -.197E+01   0.742E-02 0.947E-02 -.565E+00
   0.781E-01 -.763E-01 0.395E+04   -.954E-01 0.729E-01 -.395E+04   0.414E-01 -.155E-01 -.197E+01   -.905E-02 0.318E-02 -.566E+00
   -.780E-01 -.763E-01 0.395E+04   0.951E-01 0.729E-01 -.395E+04   -.414E-01 -.155E-01 -.197E+01   0.126E-01 0.169E-02 -.566E+00
   -.146E-03 -.338E-04 0.395E+04   0.263E-03 0.206E-04 -.395E+04   -.341E-17 -.223E-17 -.251E+01   -.133E-01 -.685E-02 -.526E+00
   0.358E+01 0.207E+01 0.138E+04   -.307E+01 -.177E+01 -.138E+04   -.531E+00 -.307E+00 -.108E+01   0.177E-01 0.102E-01 0.105E+00
   -.905E-04 0.633E+00 0.138E+04   0.191E-03 -.691E+00 -.138E+04   -.257E-08 0.386E-01 -.711E+00   0.118E-01 -.244E-01 0.144E+00
   -.358E+01 0.207E+01 0.138E+04   0.307E+01 -.177E+01 -.138E+04   0.531E+00 -.307E+00 -.108E+01   -.197E-01 0.123E-01 0.106E+00
   0.548E+00 -.317E+00 0.138E+04   -.598E+00 0.345E+00 -.138E+04   0.334E-01 -.193E-01 -.711E+00   -.148E-01 0.232E-01 0.144E+00
   -.548E+00 -.317E+00 0.138E+04   0.598E+00 0.345E+00 -.138E+04   -.334E-01 -.193E-01 -.711E+00   0.392E-01 0.223E-01 0.144E+00
   -.142E-03 0.296E-01 0.138E+04   0.299E-03 -.124E+00 -.138E+04   -.185E-08 0.278E-01 -.787E+00   -.407E-02 0.469E-01 0.554E-01
   -.920E-04 -.414E+01 0.138E+04   0.186E-03 0.354E+01 -.138E+04   -.409E-07 0.614E+00 -.108E+01   -.147E-03 -.244E-01 0.106E+00
   0.256E-01 -.149E-01 0.138E+04   -.107E+00 0.622E-01 -.138E+04   0.241E-01 -.139E-01 -.787E+00   0.393E-01 -.270E-01 0.553E-01
   -.255E-01 -.149E-01 0.138E+04   0.107E+00 0.622E-01 -.138E+04   -.241E-01 -.139E-01 -.787E+00   -.385E-01 -.239E-01 0.559E-01
   -.542E-04 0.126E+01 -.121E+04   0.679E-04 -.125E+01 0.121E+04   0.357E-08 -.536E-01 0.750E+00   -.253E-02 0.157E-01 0.566E+00
   -.195E+02 -.113E+02 -.120E+04   0.202E+02 0.116E+02 0.120E+04   -.778E+00 -.449E+00 -.742E+00   0.882E-01 0.508E-01 0.637E+00
   0.195E+02 -.113E+02 -.120E+04   -.202E+02 0.116E+02 0.120E+04   0.778E+00 -.449E+00 -.742E+00   -.642E-01 0.523E-01 0.636E+00
   -.133E+02 0.767E+01 -.121E+04   0.127E+02 -.735E+01 0.121E+04   0.606E+00 -.350E+00 0.108E+01   0.715E-02 -.522E-02 0.628E+00
   -.870E-04 0.225E+02 -.120E+04   0.145E-03 -.233E+02 0.120E+04   -.598E-07 0.898E+00 -.742E+00   0.120E-01 -.829E-01 0.636E+00
   0.133E+02 0.767E+01 -.121E+04   -.127E+02 -.735E+01 0.121E+04   -.606E+00 -.350E+00 0.108E+01   -.979E-02 -.653E-02 0.628E+00
   -.109E+01 -.631E+00 -.121E+04   0.108E+01 0.625E+00 0.121E+04   0.464E-01 0.268E-01 0.750E+00   -.121E-01 -.694E-02 0.566E+00
   0.109E+01 -.631E+00 -.121E+04   -.108E+01 0.625E+00 0.121E+04   -.464E-01 0.268E-01 0.750E+00   0.127E-01 -.984E-02 0.566E+00
   -.124E-03 -.153E+02 -.121E+04   0.244E-03 0.147E+02 0.121E+04   -.466E-07 0.700E+00 0.108E+01   -.991E-03 0.874E-02 0.628E+00
   -.414E-04 0.139E-04 -.377E+04   0.354E-04 -.341E-04 0.376E+04   -.730E-18 -.103E-17 0.181E+01   -.320E-03 -.134E-03 0.764E+00
   -.582E+00 0.416E+01 -.376E+04   0.761E-01 -.539E+01 0.376E+04   0.342E+00 0.901E+00 0.250E+01   -.673E-02 -.188E-01 0.691E+00
   0.583E+00 0.416E+01 -.376E+04   -.761E-01 -.539E+01 0.376E+04   -.342E+00 0.901E+00 0.250E+01   0.778E-02 -.162E-01 0.691E+00
   0.331E+01 -.258E+01 -.376E+04   -.463E+01 0.276E+01 0.376E+04   0.951E+00 -.154E+00 0.250E+01   -.196E-01 0.349E-02 0.691E+00
   -.331E+01 -.259E+01 -.376E+04   0.463E+01 0.276E+01 0.376E+04   -.951E+00 -.154E+00 0.250E+01   0.179E-01 0.447E-02 0.690E+00
   0.389E+01 -.158E+01 -.376E+04   -.471E+01 0.263E+01 0.376E+04   0.609E+00 -.747E+00 0.250E+01   -.102E-01 0.148E-01 0.691E+00
   -.389E+01 -.158E+01 -.376E+04   0.471E+01 0.263E+01 0.376E+04   -.609E+00 -.747E+00 0.250E+01   0.136E-01 0.133E-01 0.690E+00
   -.163E-03 -.323E-04 -.377E+04   0.258E-03 0.470E-05 0.377E+04   0.292E-17 -.104E-17 0.218E+01   -.133E-01 -.687E-02 0.705E+00
   -.511E-04 -.315E-04 -.285E+04   0.113E-03 0.218E-04 0.285E+04   0.387E-17 -.803E-17 0.263E+01   0.241E-02 0.144E-02 0.469E+00
   -.728E-05 -.757E-04 -.151E+04   0.117E-04 0.534E-05 0.149E+04   0.101E-17 -.825E-18 0.182E+02   0.110E-02 0.663E-03 0.757E-01
   0.230E-03 -.714E-04 -.232E+04   0.264E-05 0.249E-05 0.233E+04   0.190E-18 0.880E-19 -.646E+01   0.338E-02 0.207E-02 -.112E-01
   0.306E-05 -.141E-04 -.415E+03   0.793E-07 0.164E-06 0.424E+03   -.529E-20 -.394E-20 -.842E+01   0.175E-03 0.107E-03 -.100E-01
   -.863E-04 -.199E-03 -.863E+01   -.194E-12 0.124E-12 -.591E-11   0.452E-15 -.343E-15 0.124E+01   0.589E-01 0.311E-01 0.747E+01

 POSITION                                       TOTAL-FORCE (eV/Angst)
      0.00000      0.00000      5.37156        -0.000000     -0.000000      0.054099
      2.56560      0.00000      5.37156         0.007278      0.019415      0.089365
      5.13119      0.00000      5.37156        -0.007278      0.019415      0.089365
      1.28280      2.22187      5.37156         0.020453     -0.003404      0.089365
      3.84839      2.22187      5.37156        -0.000000     -0.000000      0.077106
      6.41399      2.22187      5.37156        -0.020453     -0.003404      0.089365
      2.56560      4.44374      5.37156         0.013175     -0.016011      0.089365
      5.13119      4.44374      5.37156        -0.013175     -0.016011      0.089365
      7.69679      4.44374      5.37156        -0.000000     -0.000000      0.070372
      1.28280      0.74062      7.46636         0.003301      0.001906     -0.061016
      3.84839      0.74062      7.46636         0.000000     -0.050410     -0.140497
      6.41399      0.74062      7.46636        -0.003301      0.001906     -0.061016
      2.56560      2.96249      7.46636        -0.043656      0.025205     -0.140497
      5.13119      2.96249      7.46636         0.043656      0.025205     -0.140497
      7.69679      2.96249      7.46636         0.000000     -0.019907     -0.018300
      3.84839      5.18437      7.46636         0.000000     -0.003811     -0.061016
      6.41399      5.18437      7.46636        -0.017240      0.009953     -0.018300
      8.97958      5.18437      7.46636         0.017240      0.009953     -0.018300
      7.69679      1.48769      9.56171         0.000000     -0.025998     -0.006783
      2.55203      1.47342      9.53141        -0.033495     -0.019338     -0.282177
      5.14476      1.47342      9.53141         0.033495     -0.019338     -0.282177
      8.97489      3.70583      9.56026         0.060154     -0.034730      0.001835
      3.84839      3.71878      9.53141        -0.000000      0.038676     -0.282177
      6.41868      3.70583      9.56026        -0.060154     -0.034730      0.001835
     10.25680      5.92177      9.56171         0.022515      0.012999     -0.006783
      5.13677      5.92177      9.56171        -0.022515      0.012999     -0.006783
      7.69679      5.91957      9.56026        -0.000000      0.069460      0.001835
      0.00000      0.00000     11.63002        -0.000000      0.000000     -0.028897
      6.40663      6.66047     11.66109        -0.170420     -0.349264     -0.149660
      8.98694      6.66047     11.66109         0.170420     -0.349264     -0.149660
      8.97145      2.21807     11.66109        -0.387682      0.027044     -0.149660
      6.42212      2.21807     11.66109         0.387682      0.027044     -0.149660
     10.26160      4.45269     11.66109        -0.217262      0.322220     -0.149660
      5.13197      4.45269     11.66109         0.217262      0.322220     -0.149660
      7.69679      4.44374     11.62915        -0.000000      0.000000      0.012429
      3.84839      2.22187     11.60012        -0.000000     -0.000000      1.705255
      3.84839      2.22187     13.38493        -0.000000     -0.000000      0.010322
      3.84839      2.22187     14.64030        -0.000000     -0.000000      0.002531
      3.84839      2.22187     15.60414        -0.000000     -0.000000     -0.020627
    total drift:                                0.058813      0.030877      0.076348

  FREE ENERGIE OF THE ION-ELECTRON SYSTEM (eV)
  free  energy   TOTEN  =      -148.52456982 eV

  energy  without entropy=     -148.52456982  energy(sigma->0) =     -148.52456982

 stress matrix after NEB project (eV)
     -0.48747      0.00000      0.00000
      0.00000     -0.48747     -0.00000
     -0.00000     -0.00000      3.14880
  FORCES: max atom, RMS     0.020627    0.003716
  FORCE total and by dimension    0.023204    0.020627
  Stress total and by dimension    3.223385    3.148804
|           W    W    AA    RRRRR   N    N  II  N    N   GGGG   !!!           |
|           W    W   A  A   R    R  NN   N  II  NN   N  G    G  !!!           |
|           W    W  A    A  R    R  N N  N  II  N N  N  G       !!!           |
|           W WW W  AAAAAA  RRRRR   N  N N  II  N  N N  G  GGG   !            |
|           WW  WW  A    A  R   R   N   NN  II  N   NN  G    G                |
|           W    W  A    A  R    R  N    N  II  N    N   GGGG   !!!           |
|     Tetrahedron method does not include variations of the Fermi             |
|     occupations, so forces and stress will be inaccurate. We suggest        |
|     using a different smearing scheme ISMEAR = 1 or 2 for metals in         |
|     relaxations.                                                            |

 total charge

# of ion       s       p       d       tot
    1        0.447   0.285   9.189   9.921
    2        0.450   0.285   9.187   9.922
    3        0.450   0.285   9.187   9.922
    4        0.450   0.285   9.187   9.922
    5        0.449   0.287   9.185   9.921
    6        0.450   0.285   9.187   9.922
    7        0.450   0.285   9.187   9.922
    8        0.450   0.285   9.187   9.922
    9        0.445   0.287   9.186   9.918
   10        0.442   0.372   9.178   9.992
   11        0.443   0.370   9.181   9.994
   12        0.442   0.372   9.178   9.992
   13        0.443   0.370   9.181   9.994
   14        0.443   0.370   9.181   9.994
   15        0.437   0.370   9.181   9.988
   16        0.442   0.372   9.178   9.992
   17        0.437   0.370   9.181   9.988
   18        0.437   0.370   9.181   9.988
   19        0.443   0.370   9.181   9.993
   20        0.453   0.398   9.169  10.020
   21        0.453   0.398   9.169  10.020
   22        0.433   0.374   9.180   9.987
   23        0.453   0.398   9.169  10.020
   24        0.433   0.374   9.180   9.987
   25        0.443   0.370   9.181   9.993
   26        0.443   0.370   9.181   9.993
   27        0.433   0.374   9.180   9.987
   28        0.455   0.291   9.192   9.938
   29        0.442   0.311   9.191   9.944
   30        0.442   0.311   9.191   9.944
   31        0.442   0.311   9.191   9.944
   32        0.442   0.311   9.191   9.944
   33        0.442   0.311   9.191   9.944
   34        0.442   0.311   9.191   9.944
   35        0.450   0.291   9.193   9.934
   36        0.740   0.818   7.150   8.708
   37        0.920   1.455   0.000   2.375
   38        1.528   3.757   0.000   5.285
   39        0.554   0.131   0.000   0.686
tot         19.285  17.946 328.573 365.804

 BZINTS: Fermi energy:    0.078909;  405.000000 electrons
         Band energy:-0.121056E+04;  BLOECHL correction:   -0.065694