 vasp.6.2.0 18Jan21 (build Jun 12 2021 23:27:24) complex

 executed on             LinuxIFC date 2022.05.28  01:46:40

 INCAR:
   ISMEAR = -5
   SIGMA = 0.1
   ISPIN = 1
   EDIFF = 1.d-5
   EDIFFG = -0.01
   NSW = 0
   NELM = 150
   ENCUT = 500
   ISIF = 2
   IBRION = 2
   LREAL = Auto
   ALGO = Fast
   ICHARG = 11
   LORBIT = 10
   LCHARG = .F.
   LWAVE = .F.

 POTCAR:    PAW_PBE Ag 02Apr2005
 POTCAR:    PAW_PBE Nb_sv 25May2007
 POTCAR:    PAW_PBE O 08Apr2002
 POTCAR:    PAW_PBE H 15Jun2001
|           W    W    AA    RRRRR   N    N  II  N    N   GGGG   !!!           |
|           W    W   A  A   R    R  NN   N  II  NN   N  G    G  !!!           |
|           W    W  A    A  R    R  N N  N  II  N N  N  G       !!!           |
|           W WW W  AAAAAA  RRRRR   N  N N  II  N  N N  G  GGG   !            |
|           WW  WW  A    A  R   R   N   NN  II  N   NN  G    G                |
|           W    W  A    A  R    R  N    N  II  N    N   GGGG   !!!           |
|     For optimal performance we recommend to set                             |
|       NCORE = 2 up to number-of-cores-per-socket                            |
|     This setting can greatly improve the performance of VASP for DFT.       |
|     The default, NCORE=1 might be grossly inefficient on modern             |
|     multi-core architectures or massively parallel machines. Do your        |
|     Unfortunately you need to use the default for GW and RPA                |
|     calculations (for HF NCORE is supported but not extensively tested      |
|     yet).                                                                   |

 POTCAR:    PAW_PBE Ag 02Apr2005
   VRHFIN =Ag : s1 d10

   TITEL  = PAW_PBE Ag 02Apr2005
   POMASS =  107.868; ZVAL   =   11.000    mass and valenz
   ENMAX  =  249.844; ENMIN  =  187.383 eV

 POTCAR:    PAW_PBE Nb_sv 25May2007
   VRHFIN =Nb: 4p5s4d

   TITEL  = PAW_PBE Nb_sv 25May2007
   POMASS =   92.910; ZVAL   =   13.000    mass and valenz
   ENMAX  =  293.235; ENMIN  =  219.927 eV

 POTCAR:    PAW_PBE O 08Apr2002
   VRHFIN =O: s2p4

   TITEL  = PAW_PBE O 08Apr2002
   POMASS =   16.000; ZVAL   =    6.000    mass and valenz
   ENMAX  =  400.000; ENMIN  =  300.000 eV

 POTCAR:    PAW_PBE H 15Jun2001
   VRHFIN =H: ultrasoft test

   TITEL  = PAW_PBE H 15Jun2001
   POMASS =    1.000; ZVAL   =    1.000    mass and valenz
   ENMAX  =  250.000; ENMIN  =  200.000 eV

 Optimization of the real space projectors (new method)

 maximal supplied QI-value         = 15.12
 optimisation between [QCUT,QGAM] = [ 11.34, 22.83] = [ 36.00,145.93] Ry
 Optimized for a Real-space Cutoff    1.43 Angstroem

   l    n(q)    QCUT    max X(q) W(low)/X(q) W(high)/X(q)  e(spline)
   2      9    11.338    53.897    0.16E-03    0.20E-03    0.28E-06
   2      9    11.338    52.416    0.16E-03    0.20E-03    0.29E-06
   0     10    11.338   122.045    0.31E-04    0.76E-04    0.15E-06
   0     10    11.338    73.629    0.30E-04    0.72E-04    0.15E-06
   1      9    11.338    15.255    0.20E-03    0.19E-04    0.17E-06
   1      9    11.338     9.562    0.16E-03    0.15E-04    0.14E-06
 Optimization of the real space projectors (new method)

[...]

   l    n(q)    QCUT    max X(q) W(low)/X(q) W(high)/X(q)  e(spline)
   0      7    11.387    20.381    0.39E-03    0.13E-02    0.15E-06
   0      7    11.387    15.268    0.42E-03    0.14E-02    0.17E-06
   1      6    11.387     5.964    0.41E-03    0.11E-02    0.17E-06
   1      6    11.387     5.382    0.39E-03    0.87E-03    0.15E-06
 Optimization of the real space projectors (new method)

 maximal supplied QI-value         = 34.20
 optimisation between [QCUT,QGAM] = [ 11.29, 22.57] = [ 35.68,142.71] Ry
 Optimized for a Real-space Cutoff    1.16 Angstroem

   l    n(q)    QCUT    max X(q) W(low)/X(q) W(high)/X(q)  e(spline)
   0      8    11.287    19.460    0.40E-03    0.73E-03    0.16E-06
   0      8    11.287    12.209    0.38E-03    0.70E-03    0.15E-06
   1      7    11.287     4.655    0.22E-03    0.25E-04    0.22E-06
  PAW_PBE Ag 02Apr2005                  :
  PAW_PBE Nb_sv 25May2007               :
  PAW_PBE O 08Apr2002                   :
  PAW_PBE H 15Jun2001                   :

 POSCAR: Ag-Nb-OOH
  positions in direct lattice
  velocities in cartesian coordinates
 exchange correlation table for  LEXCH =        8
   RHO(1)=    0.500       N(1)  =     2000
   RHO(2)=  100.500       N(2)  =     4000

 VTST: version 3.2, (02/03/18)

 CHAIN: initializing optimizer

 OPT: Using VASP Conjugate-Gradient optimizer
 CHAIN: Read ICHAIN            0

 POSCAR: Ag-Nb-OOH
  positions in direct lattice
  velocities in cartesian coordinates

 ion  position               nearest neighbor table
   1  0.000  0.000  0.200-   2 2.93   8 2.93   7 2.93   6 2.93   4 2.93  12 2.93  16 2.93  10 2.93
                             3 2.93
   2  0.333  0.000  0.200-   1 2.93   8 2.93   9 2.93   3 2.93   4 2.93   5 2.93  10 2.93  17 2.93
                            11 2.93
   3  0.667  0.000  0.200-   9 2.93   2 2.93   5 2.93  11 2.93   7 2.93  18 2.93   1 2.93   6 2.93
                            12 2.93
   4  0.000  0.333  0.200-   5 2.93   6 2.93   2 2.93   1 2.93   7 2.93  13 2.93  15 2.93   9 2.93
                            10 2.93
   5  0.333  0.333  0.200-   4 2.93   3 2.93   7 2.93   2 2.93   8 2.93  14 2.93  13 2.93  11 2.93
                             6 2.93
   6  0.667  0.333  0.200-   4 2.93   9 2.93   1 2.93  15 2.93   8 2.93  12 2.93   3 2.93   5 2.93
                            14 2.93
   7  0.000  0.667  0.200-   8 2.93   1 2.93   5 2.93   3 2.93   4 2.93  16 2.93  18 2.93  13 2.93
                             9 2.93
   8  0.333  0.667  0.200-   7 2.93   1 2.93   2 2.93   9 2.93   5 2.93  16 2.93   6 2.93  17 2.93
                            14 2.93
   9  0.667  0.667  0.200-   3 2.93   2 2.93   8 2.93   6 2.93  17 2.93   4 2.93  15 2.93   7 2.93
                            18 2.93
  10  0.111  0.111  0.290-  20 2.90  19 2.93  26 2.93  12 2.93  16 2.93  15 2.93  17 2.93  13 2.93
                            11 2.93   2 2.93   1 2.93   4 2.93
  11  0.444  0.111  0.290-  21 2.90  20 2.90  14 2.93  17 2.93  18 2.93   3 2.93  12 2.93  13 2.93
                            10 2.93   5 2.93   2 2.93  27 2.93
  12  0.778  0.111  0.290-  21 2.90  25 2.93  19 2.93  10 2.93  16 2.93  18 2.93  15 2.93  11 2.93
                             1 2.93  14 2.93   6 2.93   3 2.93
  13  0.111  0.444  0.290-  20 2.90  23 2.90  15 2.93  14 2.93  18 2.93  10 2.93  11 2.93  16 2.93
                             4 2.93   5 2.93   7 2.93  22 2.93
  14  0.444  0.444  0.290-  23 2.90  21 2.90  13 2.93  11 2.93  16 2.93   5 2.93  12 2.93  17 2.93
                             8 2.93  15 2.93   6 2.93  24 2.93
  15  0.778  0.444  0.290-  19 2.93  13 2.93  10 2.93  12 2.93  17 2.93  18 2.93   4 2.93   6 2.93
                             9 2.93  14 2.93  24 2.93  22 2.93
  16  0.111  0.778  0.290-  23 2.90  26 2.93  25 2.93  18 2.93  12 2.93  10 2.93  14 2.93  17 2.93
                            13 2.93   7 2.93   8 2.93   1 2.93
  17  0.444  0.778  0.290-  26 2.93  11 2.93  10 2.93   9 2.93  18 2.93  15 2.93  16 2.93   2 2.93
                            14 2.93   8 2.93  27 2.93  24 2.93
  18  0.778  0.778  0.290-  25 2.93  16 2.93  12 2.93  13 2.93  11 2.93  17 2.93  15 2.93   7 2.93
                             3 2.93   9 2.93  22 2.93  27 2.93
  19  0.889  0.222  0.380-  15 2.93  10 2.93  12 2.93  20 2.93  21 2.93  28 2.93  24 2.93  22 2.93
                            26 2.93  25 2.93  32 2.97  31 2.97
  20  0.222  0.222  0.379-  36 2.82  10 2.90  13 2.90  11 2.90  19 2.93  26 2.93  27 2.93  22 2.93
                            21 2.94  23 2.94  31 2.97  29 2.97
  21  0.556  0.222  0.379-  36 2.82  12 2.90  11 2.90  14 2.90  25 2.93  19 2.93  27 2.93  24 2.93
                            20 2.94  23 2.94  30 2.97  32 2.97
  22  0.889  0.556  0.380-  24 2.93  27 2.93  25 2.93  19 2.93  18 2.93  15 2.93  23 2.93  20 2.93
                            35 2.93  13 2.93  33 2.95  31 2.95
  23  0.222  0.556  0.379-  36 2.82  16 2.90  14 2.90  13 2.90  26 2.93  25 2.93  22 2.93  24 2.93
                            21 2.94  20 2.94  34 2.97  33 2.97
  24  0.556  0.556  0.380-  27 2.93  22 2.93  19 2.93  26 2.93  15 2.93  17 2.93  23 2.93  21 2.93
                            35 2.93  14 2.93  32 2.95  34 2.95
  25  0.889  0.889  0.380-  18 2.93  16 2.93  12 2.93  23 2.93  21 2.93  28 2.93  22 2.93  27 2.93
                            26 2.93  19 2.93  33 2.97  30 2.97
  26  0.222  0.889  0.380-  17 2.93  16 2.93  10 2.93  23 2.93  20 2.93  28 2.93  27 2.93  24 2.93
                            25 2.93  19 2.93  34 2.97  29 2.97
  27  0.556  0.889  0.380-  24 2.93  22 2.93  26 2.93  25 2.93  17 2.93  18 2.93  20 2.93  21 2.93
                            35 2.93  11 2.93  29 2.95  30 2.95
  28  0.000  0.000  0.470-  26 2.93  25 2.93  19 2.93  29 2.95  34 2.95  33 2.95  32 2.95  31 2.95
                            30 2.95
  29  0.333  0.004  0.472-  30 2.90  31 2.90  36 2.91  35 2.95  28 2.95  27 2.95  20 2.97  26 2.97
                            34 2.99
  30  0.663  0.004  0.472-  29 2.90  32 2.90  36 2.91  35 2.95  28 2.95  27 2.95  21 2.97  25 2.97
                            33 2.99
  31  0.004  0.333  0.472-  38 2.24  33 2.90  29 2.90  36 2.91  35 2.95  28 2.95  22 2.95  20 2.97
                            19 2.97  32 2.99
  32  0.663  0.333  0.472-  38 2.24  34 2.90  30 2.90  36 2.91  35 2.95  28 2.95  24 2.95  21 2.97
                            19 2.97  31 2.99
  33  0.004  0.663  0.472-  31 2.90  34 2.90  36 2.91  35 2.95  28 2.95  22 2.95  23 2.97  25 2.97
                            30 2.99
  34  0.333  0.663  0.472-  32 2.90  33 2.90  36 2.91  35 2.95  28 2.95  24 2.95  23 2.97  26 2.97
                            29 2.99
  35  0.667  0.667  0.471-  38 2.39  24 2.93  27 2.93  22 2.93  30 2.95  29 2.95  32 2.95  34 2.95
                            31 2.95  33 2.95
  36  0.333  0.333  0.464-  37 1.73  21 2.82  20 2.82  23 2.82  31 2.91  33 2.91  30 2.91  29 2.91
                            34 2.91  32 2.91
  37  0.323  0.354  0.529-  36 1.73
  38  0.787  0.426  0.529-  39 0.97  32 2.24  31 2.24  35 2.39
  39  0.807  0.385  0.564-  38 0.97

  LATTYP: Found a hexagonal cell.
 ALAT       =     8.7913665772
 C/A-ratio  =     3.0116939062

  Lattice vectors:

 A1 = (  -4.3956832886,  -7.6135467898,   0.0000000000)
 A2 = (   8.7913665771,   0.0000000000,   0.0000000000)
 A3 = (   0.0000000000,   0.0000000000,  26.4769051474)

Analysis of symmetry for initial positions (statically):
 Subroutine PRICEL returns:
 Original cell was already a primitive cell.

 Routine SETGRP: Setting up the symmetry group for a
 hexagonal supercell.

 Subroutine GETGRP returns: Found  1 space group operations
 (whereof  1 operations were pure point group operations)
 out of a pool of 24 trial point group operations.

The static configuration has the point symmetry C_1 .

Analysis of symmetry for dynamics (positions and initial velocities):
 Subroutine PRICEL returns:
 Original cell was already a primitive cell.

[...]

The dynamic configuration has the point symmetry C_1 .

Analysis of constrained symmetry for selective dynamics:
[...]
     41      -5.2357      2.00000
     42      -5.2165      2.00000
     43      -5.2002      2.00000
     44      -5.1781      2.00000
     45      -5.1686      2.00000
     46      -5.1349      2.00000
     47      -5.1114      2.00000
     48      -5.0882      2.00000
     49      -5.0789      2.00000
     50      -5.0270      2.00000
     51      -5.0152      2.00000
     52      -4.9801      2.00000
     53      -4.9662      2.00000
     54      -4.9572      2.00000
     55      -4.9484      2.00000
     56      -4.9432      2.00000
     57      -4.9374      2.00000
     58      -4.9349      2.00000
     59      -4.9140      2.00000
     60      -4.8799      2.00000
[...]
    238       4.9548      0.00000
    239       5.0401      0.00000
    240       5.1007      0.00000
    241       5.1793      0.00000
    242       5.2011      0.00000
    243       5.3015      0.00000
    244       5.4800      0.00000
    245       5.5820      0.00000
    246       5.6803      0.00000
    247       5.8355      0.00000
    248       5.8864      0.00000
    249       5.9485      0.00000
    250       6.0164      0.00000
    251       6.1207      0.00000
    252       6.1922      0.00000

 soft charge-density along one line, spin component           1
         0         1         2         3         4         5         6         7         8         9
 total charge-density along one line

------------------------ aborting loop because EDIFF is reached ----------------------------------------

 total charge

# of ion       s       p       d       tot
    1        0.419   0.202   9.177   9.798
    2        0.416   0.204   9.176   9.795
    3        0.416   0.204   9.176   9.795
    4        0.416   0.203   9.178   9.797
    5        0.418   0.201   9.177   9.797
    6        0.416   0.203   9.178   9.797
    7        0.416   0.204   9.177   9.797
    8        0.416   0.204   9.177   9.797
    9        0.414   0.203   9.177   9.794
   10        0.407   0.269   9.165   9.842
   11        0.398   0.274   9.165   9.837
   12        0.407   0.269   9.165   9.841
   13        0.407   0.270   9.166   9.842
   14        0.407   0.270   9.166   9.842
   15        0.403   0.269   9.164   9.837
   16        0.406   0.270   9.164   9.840
   17        0.404   0.268   9.164   9.836
   18        0.404   0.268   9.164   9.836
   19        0.405   0.262   9.168   9.835
   20        0.429   0.303   9.139   9.872
   21        0.429   0.303   9.139   9.872
   22        0.392   0.276   9.161   9.829
   23        0.441   0.294   9.142   9.877
   24        0.392   0.276   9.161   9.829
   25        0.401   0.262   9.170   9.833
   26        0.401   0.262   9.170   9.833
   27        0.393   0.276   9.160   9.829
   28        0.408   0.197   9.184   9.789
   29        0.437   0.216   9.161   9.815
   30        0.437   0.216   9.161   9.815
   31        0.406   0.257   9.157   9.820
   32        0.407   0.257   9.157   9.820
   33        0.433   0.208   9.171   9.812
   34        0.433   0.208   9.171   9.812
   35        0.371   0.214   9.196   9.780
   36        2.217   6.026   2.488  10.731
   37        1.613   3.330   0.000   4.943
   38        1.558   3.491   0.000   5.049
   39        0.615   0.120   0.000   0.735
tot         20.409  21.511 323.333 365.253

  FORCE on cell =-STRESS in cart. coord.  units (eV):
  Direction    XX          YY          ZZ          XY          YZ          ZX
  Alpha Z   665.55255   665.55255   665.55255
  Ewald  191410.56170191188.11379************     0.10277    15.47201    -0.76975
  Hartree201649.94272201452.42891************     0.00491    11.75809    -0.21766
  E(xc)   -2151.87612 -2151.95901 -2155.81910     0.00085    -0.01207    -0.00300
  Local  ************************404169.87602    -0.06888   -32.19737     0.86627
  n-local  -370.67590  -371.72695  -385.98782    -0.01049    -0.10424     0.01759
  augment  3249.79924  3250.34172  3262.16653    -0.00211     0.16701     0.00468
  Kinetic  5293.74433  5294.81856  5299.21464    -0.03353     4.78643     0.11000
  Fock        0.00000     0.00000     0.00000     0.00000     0.00000     0.00000
  Total      -4.67051    -3.94298    -0.84452    -0.00649    -0.13013     0.00814
  in kB      -4.22245    -3.56471    -0.76350    -0.00587    -0.11765     0.00736

 VOLUME and BASIS-vectors are now :
  energy-cutoff  :      500.00
  volume of cell :     1772.19
      direct lattice vectors                 reciprocal lattice vectors
     8.791366577  0.000000000  0.000000000     0.113747958 -0.065672414  0.000000000
     4.395683289  7.613546790  0.000000000     0.000000000  0.131344829  0.000000000
     0.000000000  0.000000000 26.476905147     0.000000000  0.000000000  0.037768765

  length of vectors
     8.791366577  8.791366577 26.476905147     0.131344829  0.131344829  0.037768765

 FORCES acting on ions
    electron-ion (+dipol)            ewald-force                    non-local-force                 convergence-correction
   0.134E-02 0.165E+00 0.289E+04   -.213E-03 -.192E+00 -.289E+04   -.227E-03 0.220E-01 -.179E+01   -.910E-03 0.237E-02 -.926E-01
   0.223E+00 0.102E+01 0.289E+04   -.330E+00 -.108E+01 -.289E+04   0.429E-01 0.991E-01 -.172E+01   0.654E-01 -.446E-01 -.838E-01
   -.223E+00 0.101E+01 0.289E+04   0.331E+00 -.108E+01 -.289E+04   -.425E-01 0.984E-01 -.172E+01   -.656E-01 -.349E-01 -.800E-01
   0.918E+00 -.840E-01 0.289E+04   -.929E+00 0.930E-01 -.289E+04   0.689E-01 -.586E-01 -.153E+01   -.548E-01 0.474E-01 -.937E-01
   -.125E-01 0.203E+00 0.289E+04   0.342E-03 -.626E-01 -.289E+04   -.299E-02 -.456E-01 -.165E+01   0.155E-01 -.891E-01 0.444E-02
   -.910E+00 -.899E-01 0.289E+04   0.929E+00 0.929E-01 -.289E+04   -.681E-01 -.584E-01 -.153E+01   0.467E-01 0.531E-01 -.871E-01
   0.654E+00 -.994E+00 0.289E+04   -.602E+00 0.983E+00 -.289E+04   0.416E-01 -.257E-01 -.163E+01   -.903E-01 0.359E-01 -.898E-01
   -.664E+00 -.987E+00 0.289E+04   0.602E+00 0.983E+00 -.289E+04   -.415E-01 -.256E-01 -.163E+01   0.996E-01 0.299E-01 -.869E-01
   0.146E-01 -.233E+00 0.289E+04   -.362E-04 0.257E+00 -.289E+04   0.222E-02 -.639E-02 -.166E+01   -.169E-01 -.125E-01 -.958E-01
   0.531E+01 0.515E+01 0.106E+04   -.512E+01 -.487E+01 -.106E+04   -.239E+00 -.241E+00 -.554E+00   0.264E-01 -.409E-01 0.137E+00
   -.140E-01 0.104E+02 0.107E+04   0.144E-02 -.105E+02 -.107E+04   -.282E-02 0.738E-01 -.436E+00   0.156E-01 0.236E-01 0.618E-01
   -.530E+01 0.514E+01 0.106E+04   0.512E+01 -.487E+01 -.106E+04   0.239E+00 -.241E+00 -.553E+00   -.356E-01 -.311E-01 0.139E+00
   0.697E+01 -.499E+01 0.107E+04   -.747E+01 0.516E+01 -.107E+04   0.320E+00 -.732E-01 -.605E+00   0.125E+00 -.602E-01 0.771E-01
   -.699E+01 -.499E+01 0.107E+04   0.747E+01 0.515E+01 -.107E+04   -.323E+00 -.724E-01 -.605E+00   -.976E-01 -.624E-01 0.792E-01
   0.155E-01 -.277E+01 0.106E+04   -.163E-02 0.265E+01 -.106E+04   -.133E-03 0.750E-01 -.640E+00   -.136E-01 0.456E-01 0.101E+00
   -.391E-02 -.729E+01 0.106E+04   0.349E-03 0.699E+01 -.106E+04   -.255E-03 0.326E+00 -.563E+00   0.381E-02 -.191E-03 0.196E+00
   -.176E+01 -.307E+00 0.105E+04   0.154E+01 0.160E+00 -.105E+04   0.107E+00 0.827E-01 -.695E+00   0.841E-01 0.529E-01 0.752E-01
   0.176E+01 -.322E+00 0.105E+04   -.154E+01 0.162E+00 -.105E+04   -.106E+00 0.828E-01 -.696E+00   -.877E-01 0.662E-01 0.758E-01
   0.197E-01 0.137E+02 -.799E+03   -.890E-02 -.138E+02 0.798E+03   0.691E-03 0.759E-01 0.762E+00   -.114E-01 0.122E-01 0.113E+00
   0.378E+02 0.316E+02 -.741E+03   -.374E+02 -.316E+02 0.741E+03   -.684E+00 -.174E+00 -.127E+00   -.123E-01 0.605E-01 0.361E-01
   -.378E+02 0.316E+02 -.741E+03   0.374E+02 -.316E+02 0.741E+03   0.676E+00 -.174E+00 -.126E+00   0.368E-01 0.690E-01 0.352E-01
   0.897E+01 -.194E+02 -.795E+03   -.951E+01 0.195E+02 0.794E+03   0.522E+00 -.966E-01 0.254E+00   0.298E-01 -.368E-01 0.534E-01
   -.302E-01 -.551E+02 -.742E+03   0.118E-01 0.543E+02 0.742E+03   -.167E-02 0.103E+01 -.308E+00   0.203E-01 0.835E-01 0.119E-01
   -.895E+01 -.194E+02 -.795E+03   0.950E+01 0.195E+02 0.794E+03   -.521E+00 -.956E-01 0.253E+00   -.421E-01 -.424E-01 0.531E-01
   -.709E+00 0.818E+00 -.821E+03   0.768E+00 -.622E+00 0.820E+03   -.998E-01 -.133E+00 0.113E+01   0.573E-01 -.337E-01 0.480E-01
   0.712E+00 0.842E+00 -.821E+03   -.771E+00 -.633E+00 0.820E+03   0.997E-01 -.132E+00 0.113E+01   -.564E-01 -.474E-01 0.497E-01
   -.757E-03 0.145E+02 -.814E+03   0.289E-02 -.147E+02 0.813E+03   0.358E-04 0.174E+00 0.658E+00   -.222E-02 0.195E-02 -.555E-01
   0.122E-01 0.447E+02 -.271E+04   -.108E-01 -.459E+02 0.270E+04   -.568E-03 0.921E+00 0.198E+01   -.901E-03 0.113E+00 -.868E-01
   0.418E+02 0.854E+02 -.273E+04   -.409E+02 -.845E+02 0.273E+04   -.828E+00 -.117E+01 0.177E+01   -.111E+00 0.107E+00 -.713E-01
   -.418E+02 0.853E+02 -.273E+04   0.409E+02 -.844E+02 0.273E+04   0.828E+00 -.117E+01 0.176E+01   0.111E+00 0.119E+00 -.725E-01
   -.182E+02 0.618E+02 -.261E+04   0.205E+02 -.623E+02 0.261E+04   -.184E+01 0.339E+00 0.171E+01   -.330E-01 -.718E-01 -.547E-01
   0.185E+02 0.618E+02 -.261E+04   -.207E+02 -.623E+02 0.261E+04   0.183E+01 0.335E+00 0.170E+01   0.212E-01 -.665E-01 -.609E-01
   0.212E+02 -.116E+03 -.271E+04   -.209E+02 0.116E+03 0.271E+04   -.447E+00 0.752E+00 0.251E+01   0.116E+00 -.529E-01 -.108E+00
   -.212E+02 -.116E+03 -.271E+04   0.209E+02 0.116E+03 0.271E+04   0.451E+00 0.756E+00 0.251E+01   -.106E+00 -.604E-01 -.112E+00
   0.108E-01 -.121E+03 -.264E+04   0.629E-02 0.124E+03 0.264E+04   0.665E-03 -.175E+01 0.264E+01   -.183E-01 -.129E+00 -.484E-01
   -.449E+00 0.396E+02 -.277E+04   0.421E+00 -.393E+02 0.277E+04   0.465E-02 -.549E+00 -.533E+01   0.233E-01 0.611E-01 0.241E-01
   0.162E+00 -.122E+02 -.203E+04   -.198E+00 0.143E+02 0.206E+04   0.295E-01 -.212E+01 -.283E+02   0.769E-02 0.491E-02 -.611E-01
   -.227E+00 -.225E+02 -.186E+04   0.436E+00 0.373E+02 0.184E+04   -.203E+00 -.148E+02 0.233E+02   -.213E-02 -.357E-01 -.534E-01
   0.391E+00 0.259E+02 -.373E+03   -.429E+00 -.284E+02 0.381E+03   0.407E-01 0.253E+01 -.773E+01   -.200E-03 -.379E-02 -.428E-02
   0.100E+00 0.154E+02 0.182E+02   -.825E-13 -.362E-12 -.318E-11   -.142E+00 -.155E+02 -.180E+02   0.467E-01 0.321E-01 -.128E+00

 POSITION                                       TOTAL-FORCE (eV/Angst)
      0.00000      0.00000      5.28219        -0.000136     -0.001909     -0.013006
      2.93046      0.00000      5.28219         0.000486     -0.001090      0.035734
      5.86091      0.00000      5.28219        -0.000744     -0.001013      0.035625
      1.46523      2.53785      5.28219         0.002708     -0.001599      0.027098
      4.39568      2.53785      5.28219         0.000217      0.006692     -0.005480
      7.32614      2.53785      5.28219        -0.003072     -0.001684      0.027058
      2.93046      5.07570      5.28219         0.003875      0.000535      0.026895
      5.86091      5.07570      5.28219        -0.004189      0.000483      0.026968
      8.79137      5.07570      5.28219        -0.000282      0.005838      0.011003
      1.46523      0.84595      7.67490        -0.022918     -0.006765     -0.064710
      4.39568      0.84595      7.67490         0.000161     -0.049462      0.014100
      7.32614      0.84595      7.67490         0.022576     -0.006759     -0.064705
      2.93046      3.38380      7.67490        -0.061656      0.035477     -0.070970
      5.86091      3.38380      7.67490         0.061771      0.035401     -0.071082
      8.79137      3.38380      7.67490         0.000056     -0.006721      0.033992
      4.39568      5.92165      7.67490        -0.000130      0.019976     -0.043938
      7.32614      5.92165      7.67490        -0.027275     -0.010513      0.030803
     10.25659      5.92165      7.67490         0.027022     -0.010680      0.030898
      8.79137      1.69211     10.06133        -0.000075     -0.009470     -0.015353
      2.92756      1.69022     10.03254        -0.337766     -0.100346     -0.123273
      5.86381      1.69022     10.03254         0.338444     -0.100513     -0.123997
     10.25459      4.23091     10.07004         0.013740     -0.011868      0.034756
      4.39568      4.23310     10.03254         0.000085      0.273655     -0.168317
      7.32815      4.23091     10.07004        -0.013994     -0.011816      0.034234
     11.72164      6.76749     10.06133         0.015667      0.030284      0.020701
      5.86110      6.76749     10.06133        -0.015914      0.030257      0.020875
      8.79137      6.76528     10.07004        -0.000174     -0.032880      0.086091
      0.00000      0.00000     12.45237        -0.000129     -0.172200     -0.104388
      2.94700      0.02679     12.48745        -0.077553     -0.194175     -0.188214
      5.84437      0.02679     12.48745         0.077165     -0.193660     -0.187993
      1.49670      2.53878     12.48745         0.386695     -0.243643     -0.091151
      7.29466      2.53878     12.48745        -0.388478     -0.242400     -0.093204
      2.94539      5.04797     12.48745        -0.060670      0.314667     -0.247097
      5.84598      5.04797     12.48745         0.060143      0.314289     -0.247118
      8.79137      5.07570     12.46721        -0.000719      0.531160     -0.022362
      4.39568      2.53785     12.28926        -0.000516     -0.173359      1.462576
      4.39354      2.69819     14.01024         0.000265      0.002545     -0.008907
      8.79107      3.24231     14.00148         0.002920     -0.013030     -0.009447
      8.78618      2.93288     14.92441         0.002393     -0.003702      0.005310
    total drift:                                0.004707     -0.024416      0.050691

  FREE ENERGIE OF THE ION-ELECTRON SYSTEM (eV)
  free  energy   TOTEN  =      -115.97384430 eV

  energy  without entropy=     -115.97384430  energy(sigma->0) =     -115.97384430

 stress matrix after NEB project (eV)
     -4.67051     -0.00649      0.00814
     -0.00649     -3.94298     -0.13013
      0.00814     -0.13013     -0.84452
  FORCES: max atom, RMS     0.016357    0.003207
  FORCE total and by dimension    0.020027    0.013030
  Stress total and by dimension    6.173174    4.670514
|           W    W    AA    RRRRR   N    N  II  N    N   GGGG   !!!           |
|           W    W   A  A   R    R  NN   N  II  NN   N  G    G  !!!           |
|           W    W  A    A  R    R  N N  N  II  N N  N  G       !!!           |
|           W WW W  AAAAAA  RRRRR   N  N N  II  N  N N  G  GGG   !            |
|           WW  WW  A    A  R   R   N   NN  II  N   NN  G    G                |
|           W    W  A    A  R    R  N    N  II  N    N   GGGG   !!!           |
|     Tetrahedron method does not include variations of the Fermi             |
|     occupations, so forces and stress will be inaccurate. We suggest        |
|     using a different smearing scheme ISMEAR = 1 or 2 for metals in         |
|     relaxations.                                                            |

 total charge

# of ion       s       p       d       tot
    1        0.419   0.202   9.177   9.798
    2        0.416   0.204   9.176   9.795
    3        0.416   0.204   9.176   9.795
    4        0.416   0.203   9.178   9.797
    5        0.418   0.201   9.177   9.797
    6        0.416   0.203   9.178   9.797
    7        0.416   0.204   9.177   9.797
    8        0.416   0.204   9.177   9.797
    9        0.414   0.203   9.177   9.794
   10        0.407   0.269   9.165   9.842
   11        0.398   0.274   9.165   9.837
   12        0.407   0.269   9.165   9.841
   13        0.407   0.270   9.166   9.842
   14        0.407   0.270   9.166   9.842
   15        0.403   0.269   9.164   9.837
   16        0.406   0.270   9.164   9.840
   17        0.404   0.268   9.164   9.836
   18        0.404   0.268   9.164   9.836
   19        0.405   0.262   9.168   9.835
   20        0.429   0.303   9.139   9.872
   21        0.429   0.303   9.139   9.872
   22        0.392   0.276   9.161   9.829
   23        0.441   0.294   9.142   9.877
   24        0.392   0.276   9.161   9.829
   25        0.401   0.262   9.170   9.833
   26        0.401   0.262   9.170   9.833
   27        0.393   0.276   9.160   9.829
   28        0.408   0.197   9.184   9.789
   29        0.437   0.216   9.161   9.815
   30        0.437   0.216   9.161   9.815
   31        0.406   0.257   9.157   9.820
   32        0.407   0.257   9.157   9.820
   33        0.433   0.208   9.171   9.812
   34        0.433   0.208   9.171   9.812
   35        0.371   0.214   9.196   9.780
   36        2.217   6.026   2.488  10.731
   37        1.613   3.330   0.000   4.943
   38        1.558   3.491   0.000   5.049
   39        0.615   0.120   0.000   0.735
tot         20.409  21.511 323.333 365.253

 BZINTS: Fermi energy:    0.079384;  411.000000 electrons
         Band energy:-0.199491E+04;  BLOECHL correction:   -0.032706