 vasp.6.2.0 18Jan21 (build Jun 12 2021 23:27:24) complex

 executed on             LinuxIFC date 2022.05.27  06:03:13

 INCAR:
   ISMEAR = -5
   SIGMA = 0.1
   ISPIN = 1
   EDIFF = 1.d-5
   EDIFFG = -0.01
   NSW = 0
   NELM = 150
   ENCUT = 500
   ISIF = 2
   IBRION = 2
   LREAL = Auto
   ALGO = Fast
   ICHARG = 11
   LORBIT = 10
   LCHARG = .F.
   LWAVE = .F.

 POTCAR:    PAW_PBE Cu 22Jun2005
 POTCAR:    PAW_PBE Co 02Aug2007
 POTCAR:    PAW_PBE O 08Apr2002
 POTCAR:    PAW_PBE H 15Jun2001
|           W    W    AA    RRRRR   N    N  II  N    N   GGGG   !!!           |
|           W    W   A  A   R    R  NN   N  II  NN   N  G    G  !!!           |
|           W    W  A    A  R    R  N N  N  II  N N  N  G       !!!           |
|           W WW W  AAAAAA  RRRRR   N  N N  II  N  N N  G  GGG   !            |
|           WW  WW  A    A  R   R   N   NN  II  N   NN  G    G                |
|           W    W  A    A  R    R  N    N  II  N    N   GGGG   !!!           |
|     For optimal performance we recommend to set                             |
|       NCORE = 2 up to number-of-cores-per-socket                            |
|     This setting can greatly improve the performance of VASP for DFT.       |
|     The default, NCORE=1 might be grossly inefficient on modern             |
|     multi-core architectures or massively parallel machines. Do your        |
|     Unfortunately you need to use the default for GW and RPA                |
|     calculations (for HF NCORE is supported but not extensively tested      |
|     yet).                                                                   |

 POTCAR:    PAW_PBE Cu 22Jun2005
   VRHFIN =Cu: d10 p1

   TITEL  = PAW_PBE Cu 22Jun2005
   POMASS =   63.546; ZVAL   =   11.000    mass and valenz
   ENMAX  =  295.446; ENMIN  =  221.585 eV

 POTCAR:    PAW_PBE Co 02Aug2007
   VRHFIN =Co: d8 s1

   TITEL  = PAW_PBE Co 02Aug2007
   POMASS =   58.933; ZVAL   =    9.000    mass and valenz
   ENMAX  =  267.968; ENMIN  =  200.976 eV

 POTCAR:    PAW_PBE O 08Apr2002
   VRHFIN =O: s2p4

   TITEL  = PAW_PBE O 08Apr2002
   POMASS =   16.000; ZVAL   =    6.000    mass and valenz
   ENMAX  =  400.000; ENMIN  =  300.000 eV

 POTCAR:    PAW_PBE H 15Jun2001
   VRHFIN =H: ultrasoft test

   TITEL  = PAW_PBE H 15Jun2001
   POMASS =    1.000; ZVAL   =    1.000    mass and valenz
   ENMAX  =  250.000; ENMIN  =  200.000 eV

 Optimization of the real space projectors (new method)

 maximal supplied QI-value         = 16.25
 optimisation between [QCUT,QGAM] = [ 11.38, 22.75] = [ 36.24,144.96] Ry
 Optimized for a Real-space Cutoff    1.52 Angstroem

   l    n(q)    QCUT    max X(q) W(low)/X(q) W(high)/X(q)  e(spline)
   2      9    11.376     4.610    0.21E-03    0.10E-03    0.26E-06
   2      9    11.376     8.522    0.33E-03    0.16E-03    0.37E-06
   0     10    11.376    51.609    0.62E-04    0.20E-04    0.13E-06
   0     10    11.376    27.747    0.54E-04    0.20E-04    0.13E-06
   1     10    11.376    20.408    0.13E-04    0.99E-04    0.19E-06
   1     10    11.376    13.425    0.12E-04    0.87E-04    0.17E-06
 Optimization of the real space projectors (new method)

[...]

   l    n(q)    QCUT    max X(q) W(low)/X(q) W(high)/X(q)  e(spline)
   0      7    11.387    20.381    0.39E-03    0.13E-02    0.15E-06
   0      7    11.387    15.268    0.42E-03    0.14E-02    0.17E-06
   1      6    11.387     5.964    0.41E-03    0.11E-02    0.17E-06
   1      6    11.387     5.382    0.39E-03    0.87E-03    0.15E-06
 Optimization of the real space projectors (new method)

 maximal supplied QI-value         = 34.20
 optimisation between [QCUT,QGAM] = [ 11.29, 22.57] = [ 35.68,142.71] Ry
 Optimized for a Real-space Cutoff    1.16 Angstroem

   l    n(q)    QCUT    max X(q) W(low)/X(q) W(high)/X(q)  e(spline)
   0      8    11.287    19.460    0.40E-03    0.73E-03    0.16E-06
   0      8    11.287    12.209    0.38E-03    0.70E-03    0.15E-06
   1      7    11.287     4.655    0.22E-03    0.25E-04    0.22E-06
  PAW_PBE Cu 22Jun2005                  :
  PAW_PBE Co 02Aug2007                  :
  PAW_PBE O 08Apr2002                   :
  PAW_PBE H 15Jun2001                   :

 POSCAR: Cu-Co-OH
  positions in direct lattice
  velocities in cartesian coordinates
 exchange correlation table for  LEXCH =        8
   RHO(1)=    0.500       N(1)  =     2000
   RHO(2)=  100.500       N(2)  =     4000

 VTST: version 3.2, (02/03/18)

 CHAIN: initializing optimizer

 OPT: Using VASP Conjugate-Gradient optimizer
 CHAIN: Read ICHAIN            0

 POSCAR: Cu-Co-OH
  positions in direct lattice
  velocities in cartesian coordinates

 ion  position               nearest neighbor table
   1  0.000  0.000  0.252-   7 2.57   3 2.57   4 2.57   2 2.57   6 2.57   8 2.57  12 2.57  10 2.57
                            16 2.57
   2  0.333  0.000  0.252-   8 2.57   9 2.57   5 2.57   1 2.57   3 2.57  11 2.57   4 2.57  10 2.57
                            17 2.57
   3  0.667  0.000  0.252-   1 2.57   7 2.57   6 2.57   9 2.57   2 2.57  12 2.57   5 2.57  18 2.57
                            11 2.57
   4  0.000  0.333  0.252-   5 2.57   6 2.57   1 2.57   7 2.57   2 2.57  13 2.57   9 2.57  10 2.57
                            15 2.57
   5  0.333  0.333  0.252-   4 2.57   2 2.57   7 2.57  13 2.57   8 2.57   6 2.57   3 2.57  11 2.57
                            14 2.57
   6  0.667  0.333  0.252-   4 2.57   9 2.57  15 2.57   3 2.57   1 2.57   8 2.57  14 2.57   5 2.57
                            12 2.57
   7  0.000  0.667  0.252-   1 2.57   3 2.57  16 2.57  18 2.57   4 2.57   5 2.57   8 2.57   9 2.57
                            13 2.57
   8  0.333  0.667  0.252-   9 2.57   2 2.57  17 2.57   6 2.57   1 2.57   7 2.57   5 2.57  14 2.57
                            16 2.57
   9  0.667  0.667  0.252-   8 2.57   6 2.57   2 2.57  17 2.57   3 2.57   7 2.57   4 2.57  15 2.57
                            18 2.57
  10  0.111  0.111  0.351-  20 2.55  26 2.56  19 2.56  11 2.57  12 2.57  13 2.57   1 2.57   2 2.57
                             4 2.57  15 2.57  16 2.57  17 2.57
  11  0.444  0.111  0.351-  20 2.55  21 2.55  27 2.56  10 2.57  13 2.57   2 2.57  17 2.57  14 2.57
                            12 2.57   5 2.57   3 2.57  18 2.57
  12  0.778  0.111  0.351-  21 2.55  19 2.56  25 2.56  15 2.57  10 2.57  14 2.57  18 2.57   3 2.57
                             1 2.57  16 2.57  11 2.57   6 2.57
  13  0.111  0.444  0.351-  23 2.55  20 2.55  22 2.56  16 2.57  18 2.57  10 2.57  11 2.57  14 2.57
                             5 2.57   4 2.57   7 2.57  15 2.57
  14  0.444  0.444  0.351-  21 2.55  23 2.55  24 2.56  15 2.57  17 2.57  12 2.57  16 2.57  13 2.57
                            11 2.57   6 2.57   8 2.57   5 2.57
  15  0.778  0.444  0.351-  24 2.56  22 2.56  19 2.56  14 2.57  17 2.57  12 2.57   6 2.57  18 2.57
                            10 2.57   9 2.57  13 2.57   4 2.57
  16  0.111  0.778  0.351-  23 2.55  25 2.56  26 2.56  18 2.57  13 2.57   7 2.57  14 2.57  17 2.57
                            12 2.57  10 2.57   8 2.57   1 2.57
  17  0.444  0.778  0.351-  27 2.56  24 2.56  26 2.56  14 2.57  15 2.57   8 2.57   9 2.57  11 2.57
                            16 2.57  18 2.57  10 2.57   2 2.57
  18  0.778  0.778  0.351-  22 2.56  27 2.56  25 2.56  16 2.57  13 2.57   7 2.57  15 2.57  12 2.57
                            17 2.57   9 2.57   3 2.57  11 2.57
  19  0.889  0.223  0.449-  28 2.54  32 2.56  31 2.56  15 2.56  12 2.56  10 2.56  22 2.56  24 2.56
                            21 2.57  20 2.57  25 2.57  26 2.57
  20  0.222  0.222  0.448-  36 2.46  29 2.55  31 2.55  11 2.55  13 2.55  10 2.55  23 2.56  21 2.56
                            26 2.57  19 2.57  27 2.57  22 2.57
  21  0.555  0.222  0.448-  36 2.46  32 2.55  30 2.55  14 2.55  11 2.55  12 2.55  20 2.56  23 2.56
                            19 2.57  25 2.57  24 2.57  27 2.57
  22  0.889  0.556  0.449-  35 2.54  31 2.55  33 2.55  18 2.56  15 2.56  13 2.56  24 2.56  27 2.56
                            19 2.56  25 2.56  23 2.57  20 2.57
  23  0.222  0.555  0.448-  36 2.46  33 2.55  34 2.55  13 2.55  14 2.55  16 2.55  20 2.56  21 2.56
                            25 2.57  26 2.57  22 2.57  24 2.57
  24  0.556  0.556  0.449-  35 2.54  32 2.55  34 2.55  15 2.56  17 2.56  14 2.56  22 2.56  27 2.56
                            19 2.56  26 2.56  21 2.57  23 2.57
  25  0.889  0.889  0.449-  28 2.54  33 2.56  30 2.56  18 2.56  16 2.56  12 2.56  22 2.56  27 2.56
                            21 2.57  23 2.57  19 2.57  26 2.57
  26  0.223  0.889  0.449-  28 2.54  29 2.56  34 2.56  17 2.56  10 2.56  16 2.56  27 2.56  24 2.56
                            20 2.57  23 2.57  25 2.57  19 2.57
  27  0.556  0.889  0.449-  35 2.54  29 2.55  30 2.55  17 2.56  18 2.56  11 2.56  24 2.56  22 2.56
                            26 2.56  25 2.56  20 2.57  21 2.57
  28  0.000  0.000  0.546-  25 2.54  19 2.54  26 2.54  33 2.58  30 2.58  31 2.58  29 2.58  32 2.58
                            34 2.58
  29  0.333  0.003  0.546-  31 2.54  36 2.54  30 2.55  20 2.55  27 2.55  26 2.56  28 2.58  35 2.58
                            34 2.61
  30  0.664  0.003  0.546-  32 2.54  36 2.54  29 2.55  21 2.55  27 2.55  25 2.56  28 2.58  35 2.58
                            33 2.61
  31  0.003  0.333  0.546-  29 2.54  36 2.54  33 2.55  20 2.55  22 2.55  19 2.56  28 2.58  35 2.58
                            32 2.61
  32  0.664  0.333  0.546-  30 2.54  36 2.54  34 2.55  21 2.55  24 2.55  19 2.56  28 2.58  35 2.58
                            31 2.61
  33  0.003  0.664  0.546-  34 2.54  36 2.54  31 2.55  23 2.55  22 2.55  25 2.56  28 2.58  35 2.58
                            30 2.61
  34  0.333  0.664  0.546-  33 2.54  36 2.54  32 2.55  23 2.55  24 2.55  26 2.56  28 2.58  35 2.58
                            29 2.61
  35  0.667  0.667  0.546-  24 2.54  27 2.54  22 2.54  34 2.58  32 2.58  29 2.58  30 2.58  33 2.58
                            31 2.58
  36  0.333  0.333  0.541-  37 1.78  23 2.46  20 2.46  21 2.46  31 2.54  29 2.54  33 2.54  34 2.54
                            32 2.54  30 2.54
  37  0.333  0.333  0.625-  38 0.97  36 1.78
  38  0.333  0.333  0.670-  37 0.97

  LATTYP: Found a hexagonal cell.
 ALAT       =     7.6967864036
 C/A-ratio  =     2.7653617908

  Lattice vectors:

 A1 = (  -3.8483927580,  -6.6656128093,   0.0000000000)
 A2 = (   7.6967864037,   0.0000000000,   0.0000000000)
 A3 = (   0.0000000000,   0.0000000000,  21.2843990326)

Analysis of symmetry for initial positions (statically):
 Subroutine PRICEL returns:
 Original cell was already a primitive cell.

 Routine SETGRP: Setting up the symmetry group for a
 hexagonal supercell.

 Subroutine GETGRP returns: Found  6 space group operations
 (whereof  6 operations were pure point group operations)
 out of a pool of 24 trial point group operations.

The static configuration has the point symmetry C_3v.

Analysis of symmetry for dynamics (positions and initial velocities):
 Subroutine PRICEL returns:
 Original cell was already a primitive cell.

[...]

The dynamic configuration has the point symmetry C_3v.

Analysis of constrained symmetry for selective dynamics:
 Subroutine PRICEL returns:
 Original cell was already a primitive cell.

[...]
     33      -3.7641      2.00000
     34      -3.7115      2.00000
     35      -3.6971      2.00000
     36      -3.6747      2.00000
     37      -3.6109      2.00000
     38      -3.5752      2.00000
     39      -3.5064      2.00000
     40      -3.4805      2.00000
     41      -3.4648      2.00000
     42      -3.4391      2.00000
     43      -3.3882      2.00000
     44      -3.3807      2.00000
     45      -3.3629      2.00000
     46      -3.3432      2.00000
     47      -3.3387      2.00000
     48      -3.3028      2.00000
     49      -3.2448      2.00000
     50      -3.1406      2.00000
     51      -3.1203      2.00000
     52      -3.1167      2.00000
     53      -3.1130      2.00000
     54      -3.0583      2.00000
     55      -3.0513      2.00000
     56      -3.0432      2.00000
     57      -3.0166      2.00000
     58      -3.0066      2.00000
     59      -2.9807      2.00000
     60      -2.9730      2.00000
[...]
    238       6.3596      0.00000
    239       6.5644      0.00000
    240       6.6131      0.00000
    241       6.6494      0.00000
    242       6.8061      0.00000
    243       6.9941      0.00000
    244       7.0622      0.00000
    245       7.1889      0.00000
    246       7.3560      0.00000
    247       7.4327      0.00000
    248       7.5167      0.00000
    249       7.6426      0.00000
    250       7.7279      0.00000
    251       7.9177      0.00000
    252       8.1742      0.00000

 soft charge-density along one line, spin component           1
         0         1         2         3         4         5         6         7         8         9
 total charge-density along one line

------------------------ aborting loop because EDIFF is reached ----------------------------------------

 total charge

# of ion       s       p       d       tot
    1        0.448   0.285   9.189   9.922
    2        0.450   0.285   9.186   9.921
    3        0.450   0.285   9.186   9.921
    4        0.450   0.285   9.186   9.921
    5        0.447   0.288   9.184   9.919
    6        0.450   0.285   9.186   9.921
    7        0.450   0.285   9.186   9.921
    8        0.450   0.285   9.186   9.921
    9        0.445   0.285   9.186   9.916
   10        0.441   0.371   9.178   9.991
   11        0.443   0.368   9.181   9.992
   12        0.441   0.371   9.178   9.991
   13        0.443   0.368   9.181   9.992
   14        0.443   0.368   9.181   9.992
   15        0.439   0.368   9.181   9.988
   16        0.441   0.371   9.178   9.991
   17        0.439   0.368   9.181   9.988
   18        0.439   0.368   9.181   9.988
   19        0.440   0.371   9.179   9.990
   20        0.453   0.390   9.169  10.013
   21        0.453   0.390   9.169  10.013
   22        0.438   0.372   9.183   9.993
   23        0.453   0.390   9.169  10.013
   24        0.438   0.372   9.183   9.993
   25        0.440   0.371   9.179   9.990
   26        0.440   0.371   9.179   9.990
   27        0.438   0.372   9.183   9.993
   28        0.450   0.284   9.193   9.926
   29        0.441   0.286   9.194   9.921
   30        0.441   0.286   9.194   9.921
   31        0.441   0.286   9.194   9.921
   32        0.441   0.286   9.194   9.921
   33        0.441   0.286   9.194   9.921
   34        0.441   0.286   9.194   9.921
   35        0.444   0.288   9.187   9.919
   36        0.434   0.474   7.364   8.272
   37        1.548   3.523   0.000   5.071
   38        0.608   0.127   0.000   0.736
tot         18.131  15.703 328.799 362.633

  FORCE on cell =-STRESS in cart. coord.  units (eV):
  Direction    XX          YY          ZZ          XY          YZ          ZX
  Alpha Z   881.20007   881.20007   881.20007
  Ewald  174448.74664174448.74618************     0.00042     0.00011     0.00019
  Hartree187752.80674187752.80668************     0.00006     0.00005     0.00009
  E(xc)   -2326.11692 -2326.11648 -2329.59661    -0.00038    -0.00003    -0.00006
  Local  ************************375301.89537     0.01866    -0.00059    -0.00102
  n-local  -799.84932  -786.27757  -806.17612     7.41020    -0.00830     0.21736
  augment  3472.92727  3472.94717  3481.61838    -0.01723     0.00028     0.00047
  Kinetic  3354.56646  3359.64921  3347.80345     4.15605     1.67638    -1.03994
  Fock        0.00000     0.00000     0.00000     0.00000     0.00000     0.00000
  Total      -6.43016    -6.43016     0.51247     0.00000    -0.00000    -0.00000
  in kB      -9.43456    -9.43456     0.75191     0.00000    -0.00000    -0.00000

 VOLUME and BASIS-vectors are now :
  energy-cutoff  :      500.00
  volume of cell :     1091.97
      direct lattice vectors                 reciprocal lattice vectors
     7.696786404  0.000000000  0.000000000     0.129924354 -0.075011849  0.000000000
     3.848392758  6.665612809  0.000000000     0.000000000  0.150023716  0.000000000
     0.000000000  0.000000000 21.284399033     0.000000000  0.000000000  0.046982769

  length of vectors
     7.696786404  7.696786404 21.284399033     0.150023716  0.150023716  0.046982769

 FORCES acting on ions
    electron-ion (+dipol)            ewald-force                    non-local-force                 convergence-correction
   -.415E-04 0.173E-06 0.351E+04   0.578E-04 -.443E-05 -.350E+04   -.230E-19 -.338E-18 -.292E+01   -.280E-03 -.129E-03 -.421E+00
   0.191E+00 0.413E+00 0.351E+04   -.270E+00 -.336E+00 -.350E+04   0.266E-02 0.535E-01 -.186E+01   0.787E-01 -.114E+00 -.244E+00
   -.191E+00 0.413E+00 0.351E+04   0.270E+00 -.336E+00 -.350E+04   -.266E-02 0.535E-01 -.186E+01   -.779E-01 -.111E+00 -.243E+00
   0.453E+00 -.407E-01 0.351E+04   -.426E+00 -.657E-01 -.350E+04   0.477E-01 -.244E-01 -.186E+01   -.590E-01 0.125E+00 -.244E+00
   -.659E-04 -.582E-05 0.351E+04   0.116E-03 -.101E-04 -.351E+04   0.364E-18 0.131E-17 -.181E+01   0.121E-01 0.740E-02 -.233E+00
   -.453E+00 -.406E-01 0.351E+04   0.426E+00 -.658E-01 -.350E+04   -.477E-01 -.244E-01 -.186E+01   0.574E-01 0.126E+00 -.243E+00
   0.262E+00 -.372E+00 0.351E+04   -.156E+00 0.402E+00 -.350E+04   0.450E-01 -.291E-01 -.186E+01   -.135E+00 -.119E-01 -.243E+00
   -.262E+00 -.372E+00 0.351E+04   0.156E+00 0.402E+00 -.350E+04   -.450E-01 -.291E-01 -.186E+01   0.139E+00 -.133E-01 -.243E+00
   -.144E-03 -.328E-04 0.351E+04   0.264E-03 0.206E-04 -.350E+04   0.154E-17 -.328E-18 -.241E+01   -.132E-01 -.680E-02 -.190E+00
   0.347E+01 0.200E+01 0.121E+04   -.312E+01 -.180E+01 -.121E+04   -.426E+00 -.246E+00 -.998E+00   0.927E-01 0.535E-01 0.133E-01
   -.902E-04 0.361E+01 0.121E+04   0.189E-03 -.349E+01 -.121E+04   -.443E-08 0.665E-01 -.489E+00   0.115E-01 -.211E+00 0.326E-01
   -.347E+01 0.200E+01 0.121E+04   0.312E+01 -.180E+01 -.121E+04   0.426E+00 -.246E+00 -.998E+00   -.940E-01 0.545E-01 0.122E-01
   0.313E+01 -.181E+01 0.121E+04   -.302E+01 0.174E+01 -.121E+04   0.576E-01 -.332E-01 -.489E+00   -.177E+00 0.116E+00 0.327E-01
   -.313E+01 -.181E+01 0.121E+04   0.302E+01 0.174E+01 -.121E+04   -.576E-01 -.332E-01 -.489E+00   0.200E+00 0.115E+00 0.305E-01
   -.144E-03 -.639E-01 0.121E+04   0.300E-03 -.282E+00 -.121E+04   -.832E-08 0.125E+00 -.853E+00   -.319E-02 0.202E+00 -.103E+00
   -.911E-04 -.400E+01 0.121E+04   0.185E-03 0.360E+01 -.121E+04   -.328E-07 0.492E+00 -.998E+00   -.759E-03 -.110E+00 0.121E-01
   -.554E-01 0.318E-01 0.121E+04   -.244E+00 0.141E+00 -.121E+04   0.108E+00 -.625E-01 -.853E+00   0.174E+00 -.104E+00 -.103E+00
   0.555E-01 0.319E-01 0.121E+04   0.244E+00 0.141E+00 -.121E+04   -.108E+00 -.625E-01 -.853E+00   -.173E+00 -.102E+00 -.102E+00
   -.560E-04 0.187E+01 -.112E+04   0.661E-04 -.208E+01 0.112E+04   -.110E-07 0.166E+00 0.892E+00   0.113E-01 0.542E-01 -.134E-01
   0.966E+01 0.558E+01 -.109E+04   -.844E+01 -.487E+01 0.109E+04   -.110E+01 -.632E+00 -.105E+01   -.876E-01 -.507E-01 -.688E-01
   -.966E+01 0.558E+01 -.109E+04   0.844E+01 -.487E+01 0.109E+04   0.110E+01 -.632E+00 -.105E+01   0.871E-01 -.512E-01 -.692E-01
   0.376E+01 -.217E+01 -.111E+04   -.407E+01 0.235E+01 0.111E+04   0.374E+00 -.216E+00 0.780E+00   -.226E-01 0.239E-01 -.127E+00
   -.757E-04 -.112E+02 -.109E+04   0.141E-03 0.974E+01 0.109E+04   -.842E-07 0.126E+01 -.105E+01   -.194E-02 0.998E-01 -.693E-01
   -.376E+01 -.217E+01 -.111E+04   0.407E+01 0.235E+01 0.111E+04   -.374E+00 -.216E+00 0.780E+00   0.441E-01 0.246E-01 -.127E+00
   -.162E+01 -.933E+00 -.112E+04   0.180E+01 0.104E+01 0.112E+04   -.144E+00 -.829E-01 0.892E+00   -.316E-01 -.182E-01 -.138E-01
   0.162E+01 -.933E+00 -.112E+04   -.180E+01 0.104E+01 0.112E+04   0.144E+00 -.829E-01 0.892E+00   0.529E-01 -.172E-01 -.133E-01
   -.129E-03 0.434E+01 -.111E+04   0.244E-03 -.469E+01 0.111E+04   -.288E-07 0.432E+00 0.780E+00   0.937E-02 -.316E-01 -.127E+00
   -.280E-04 0.196E-04 -.343E+04   0.315E-04 -.354E-04 0.343E+04   -.882E-19 -.339E-17 0.196E+01   0.350E-04 0.701E-04 0.171E+00
   0.227E+02 0.408E+02 -.341E+04   -.230E+02 -.418E+02 0.341E+04   0.310E+00 0.924E+00 0.316E+01   -.123E+00 -.158E+00 -.582E-01
   -.227E+02 0.408E+02 -.341E+04   0.230E+02 -.418E+02 0.341E+04   -.310E+00 0.924E+00 0.316E+01   0.123E+00 -.156E+00 -.578E-01
   0.467E+02 -.789E+00 -.341E+04   -.477E+02 0.102E+01 0.341E+04   0.955E+00 -.193E+00 0.316E+01   -.198E+00 -.276E-01 -.582E-01
   -.467E+02 -.788E+00 -.341E+04   0.477E+02 0.102E+01 0.341E+04   -.955E+00 -.193E+00 0.316E+01   0.197E+00 -.264E-01 -.570E-01
   0.240E+02 -.400E+02 -.341E+04   -.247E+02 0.408E+02 0.341E+04   0.645E+00 -.731E+00 0.316E+01   -.735E-01 0.185E+00 -.579E-01
   -.240E+02 -.400E+02 -.341E+04   0.247E+02 0.408E+02 0.341E+04   -.645E+00 -.731E+00 0.316E+01   0.764E-01 0.184E+00 -.568E-01
   -.133E-03 -.176E-04 -.344E+04   0.259E-03 0.728E-05 0.343E+04   0.319E-18 -.114E-17 0.211E+01   -.129E-01 -.661E-02 0.110E+00
   -.499E-04 -.113E-04 -.253E+04   0.119E-03 0.211E-04 0.253E+04   0.298E-17 -.112E-17 0.105E+01   0.517E-02 0.316E-02 -.309E+00
   0.187E-03 -.784E-04 -.220E+04   0.183E-04 0.857E-05 0.217E+04   0.185E-19 -.436E-18 0.218E+02   0.329E-02 0.201E-02 0.204E+00
   0.456E-05 -.134E-04 -.401E+03   0.691E-06 0.583E-06 0.409E+03   0.257E-18 0.116E-18 -.841E+01   0.178E-03 0.108E-03 0.521E-01
   -.105E-03 -.123E-03 -.108E+02   0.694E-13 0.466E-12 0.101E-10   -.218E-15 -.114E-15 0.140E+02   0.910E-01 0.497E-01 -.323E+01

 POSITION                                       TOTAL-FORCE (eV/Angst)
      0.00000      0.00000      5.37156        -0.000000      0.000000      0.043562
      2.56560      0.00000      5.37156         0.003031      0.017398      0.073333
      5.13119      0.00000      5.37156        -0.003031      0.017398      0.073333
      1.28280      2.22187      5.37156         0.016582     -0.006074      0.073333
      3.84839      2.22187      5.37156         0.000000      0.000000      0.063582
      6.41399      2.22187      5.37156        -0.016582     -0.006074      0.073333
      2.56560      4.44374      5.37156         0.013552     -0.011323      0.073333
      5.13119      4.44374      5.37156        -0.013552     -0.011323      0.073333
      7.69679      4.44374      5.37156        -0.000000      0.000000      0.027254
      1.28280      0.74062      7.46636         0.016629      0.009601     -0.048743
      3.84839      0.74062      7.46636         0.000000     -0.027031     -0.105849
      6.41399      0.74062      7.46636        -0.016629      0.009601     -0.048743
      2.56560      2.96249      7.46636        -0.023410      0.013516     -0.105849
      5.13119      2.96249      7.46636         0.023410      0.013516     -0.105849
      7.69679      2.96249      7.46636         0.000000     -0.018878     -0.035326
      3.84839      5.18437      7.46636         0.000000     -0.019202     -0.048743
      6.41399      5.18437      7.46636        -0.016349      0.009439     -0.035326
      8.97958      5.18437      7.46636         0.016349      0.009439     -0.035326
      7.69679      1.48420      9.55496         0.000000     -0.002887      0.011702
      2.56664      1.48185      9.54157         0.045717      0.026395     -0.092941
      5.13014      1.48185      9.54157        -0.045717      0.026395     -0.092941
      8.97778      3.70416      9.55304         0.038520     -0.022240     -0.009787
      3.84839      3.70191      9.54157         0.000000     -0.052790     -0.092941
      6.41579      3.70416      9.55304        -0.038520     -0.022240     -0.009787
     10.25982      5.92351      9.55496         0.002500      0.001444      0.011702
      5.13375      5.92351      9.55496        -0.002500      0.001444      0.011702
      7.69679      5.92291      9.55304        -0.000000      0.044479     -0.009787
      0.00000      0.00000     11.62172        -0.000000      0.000000      0.002735
      2.57582      0.02145     11.62841        -0.123261     -0.234157     -0.094984
      5.12097      0.02145     11.62841         0.123261     -0.234157     -0.094984
      1.30649      2.22000     11.62841        -0.264417      0.010331     -0.094984
      6.39030      2.22000     11.62841         0.264417      0.010331     -0.094984
      2.57906      4.42416     11.62841        -0.141156      0.223826     -0.094984
      5.11773      4.42416     11.62841         0.141156      0.223826     -0.094984
      7.69679      4.44374     11.62071         0.000000      0.000000      0.030023
      3.84839      2.22187     11.51210        -0.000000      0.000000      0.808314
      3.84839      2.22187     13.29601         0.000000      0.000000      0.048746
      3.84839      2.22187     14.26142        -0.000000      0.000000     -0.051474
    total drift:                                0.090941      0.049596     -0.014649

  FREE ENERGIE OF THE ION-ELECTRON SYSTEM (eV)
  free  energy   TOTEN  =      -138.49568770 eV

  energy  without entropy=     -138.49568770  energy(sigma->0) =     -138.49568770

 stress matrix after NEB project (eV)
     -6.43016      0.00000     -0.00000
      0.00000     -6.43016     -0.00000
     -0.00000     -0.00000      0.51247
  FORCES: max atom, RMS     0.051474    0.011500
  FORCE total and by dimension    0.070892    0.051474
  Stress total and by dimension    9.108052    6.430163
|           W    W    AA    RRRRR   N    N  II  N    N   GGGG   !!!           |
|           W    W   A  A   R    R  NN   N  II  NN   N  G    G  !!!           |
|           W    W  A    A  R    R  N N  N  II  N N  N  G       !!!           |
|           W WW W  AAAAAA  RRRRR   N  N N  II  N  N N  G  GGG   !            |
|           WW  WW  A    A  R   R   N   NN  II  N   NN  G    G                |
|           W    W  A    A  R    R  N    N  II  N    N   GGGG   !!!           |
|     Tetrahedron method does not include variations of the Fermi             |
|     occupations, so forces and stress will be inaccurate. We suggest        |
|     using a different smearing scheme ISMEAR = 1 or 2 for metals in         |
|     relaxations.                                                            |

 total charge

# of ion       s       p       d       tot
    1        0.448   0.285   9.189   9.922
    2        0.450   0.285   9.186   9.921
    3        0.450   0.285   9.186   9.921
    4        0.450   0.285   9.186   9.921
    5        0.447   0.288   9.184   9.919
    6        0.450   0.285   9.186   9.921
    7        0.450   0.285   9.186   9.921
    8        0.450   0.285   9.186   9.921
    9        0.445   0.285   9.186   9.916
   10        0.441   0.371   9.178   9.991
   11        0.443   0.368   9.181   9.992
   12        0.441   0.371   9.178   9.991
   13        0.443   0.368   9.181   9.992
   14        0.443   0.368   9.181   9.992
   15        0.439   0.368   9.181   9.988
   16        0.441   0.371   9.178   9.991
   17        0.439   0.368   9.181   9.988
   18        0.439   0.368   9.181   9.988
   19        0.440   0.371   9.179   9.990
   20        0.453   0.390   9.169  10.013
   21        0.453   0.390   9.169  10.013
   22        0.438   0.372   9.183   9.993
   23        0.453   0.390   9.169  10.013
   24        0.438   0.372   9.183   9.993
   25        0.440   0.371   9.179   9.990
   26        0.440   0.371   9.179   9.990
   27        0.438   0.372   9.183   9.993
   28        0.450   0.284   9.193   9.926
   29        0.441   0.286   9.194   9.921
   30        0.441   0.286   9.194   9.921
   31        0.441   0.286   9.194   9.921
   32        0.441   0.286   9.194   9.921
   33        0.441   0.286   9.194   9.921
   34        0.441   0.286   9.194   9.921
   35        0.444   0.288   9.187   9.919
   36        0.434   0.474   7.364   8.272
   37        1.548   3.523   0.000   5.071
   38        0.608   0.127   0.000   0.736
tot         18.131  15.703 328.799 362.633

 BZINTS: Fermi energy:    0.311626;  401.000000 electrons
         Band energy:-0.103576E+04;  BLOECHL correction:   -0.042616