 vasp.6.2.0 18Jan21 (build Jun 12 2021 23:27:24) complex

 executed on             LinuxIFC date 2022.05.26  19:30:00

 INCAR:
   ISMEAR = -5
   SIGMA = 0.1
   ISPIN = 1
   EDIFF = 1.d-5
   EDIFFG = -0.01
   NSW = 0
   NELM = 150
   ENCUT = 500
   ISIF = 2
   IBRION = 2
   LREAL = Auto
   ALGO = Fast
   ICHARG = 11
   LORBIT = 10
   LCHARG = .F.
   LWAVE = .F.

 POTCAR:    PAW_PBE Au 04Oct2007
 POTCAR:    PAW_PBE Hf 20Jan2003
 POTCAR:    PAW_PBE H 15Jun2001
|           W    W    AA    RRRRR   N    N  II  N    N   GGGG   !!!           |
|           W    W   A  A   R    R  NN   N  II  NN   N  G    G  !!!           |
|           W    W  A    A  R    R  N N  N  II  N N  N  G       !!!           |
|           W WW W  AAAAAA  RRRRR   N  N N  II  N  N N  G  GGG   !            |
|           WW  WW  A    A  R   R   N   NN  II  N   NN  G    G                |
|           W    W  A    A  R    R  N    N  II  N    N   GGGG   !!!           |
|     For optimal performance we recommend to set                             |
|       NCORE = 2 up to number-of-cores-per-socket                            |
|     This setting can greatly improve the performance of VASP for DFT.       |
|     The default, NCORE=1 might be grossly inefficient on modern             |
|     multi-core architectures or massively parallel machines. Do your        |
|     Unfortunately you need to use the default for GW and RPA                |
|     calculations (for HF NCORE is supported but not extensively tested      |
|     yet).                                                                   |

 POTCAR:    PAW_PBE Au 04Oct2007
   VRHFIN =Au: s1d10

   TITEL  = PAW_PBE Au 04Oct2007
   POMASS =  196.966; ZVAL   =   11.000    mass and valenz
   ENMAX  =  229.943; ENMIN  =  172.457 eV

 POTCAR:    PAW_PBE Hf 20Jan2003
   VRHFIN =Hf: 6s5d

   TITEL  = PAW_PBE Hf 20Jan2003
   POMASS =  178.490; ZVAL   =    4.000    mass and valenz
   ENMAX  =  220.334; ENMIN  =  165.250 eV

 POTCAR:    PAW_PBE H 15Jun2001
   VRHFIN =H: ultrasoft test

   TITEL  = PAW_PBE H 15Jun2001
   POMASS =    1.000; ZVAL   =    1.000    mass and valenz
   ENMAX  =  250.000; ENMIN  =  200.000 eV

 Optimization of the real space projectors (new method)

 maximal supplied QI-value         = 15.12
 optimisation between [QCUT,QGAM] = [ 11.34, 22.83] = [ 36.00,145.93] Ry
 Optimized for a Real-space Cutoff    1.39 Angstroem

   l    n(q)    QCUT    max X(q) W(low)/X(q) W(high)/X(q)  e(spline)
   2      9    11.338    60.898    0.39E-03    0.42E-03    0.21E-06
   2      9    11.338    58.894    0.40E-03    0.42E-03    0.22E-06
   0      9    11.338   109.617    0.13E-03    0.20E-04    0.13E-06
   0      9    11.338    75.026    0.13E-03    0.20E-04    0.13E-06
   1      9    11.338    16.344    0.33E-04    0.24E-03    0.18E-06
   1      9    11.338    10.160    0.26E-04    0.19E-03    0.15E-06
 Optimization of the real space projectors (new method)

[...]

   l    n(q)    QCUT    max X(q) W(low)/X(q) W(high)/X(q)  e(spline)
   2     10    11.350    48.111    0.20E-03    0.11E-03    0.41E-06
   2     10    11.350    40.545    0.19E-03    0.10E-03    0.39E-06
   0     11    11.350   121.658    0.22E-04    0.19E-04    0.24E-06
   0     11    11.350    71.177    0.17E-04    0.17E-04    0.23E-06
   1     11    11.350    14.183    0.25E-03    0.43E-03    0.12E-05
   1     11    11.350     8.257    0.17E-03    0.29E-03    0.81E-06
 Optimization of the real space projectors (new method)

 maximal supplied QI-value         = 34.20
 optimisation between [QCUT,QGAM] = [ 11.29, 22.57] = [ 35.68,142.71] Ry
 Optimized for a Real-space Cutoff    1.16 Angstroem

   l    n(q)    QCUT    max X(q) W(low)/X(q) W(high)/X(q)  e(spline)
   0      8    11.287    19.460    0.40E-03    0.73E-03    0.16E-06
   0      8    11.287    12.209    0.38E-03    0.70E-03    0.15E-06
   1      7    11.287     4.655    0.22E-03    0.25E-04    0.22E-06
  PAW_PBE Au 04Oct2007                  :
  PAW_PBE Hf 20Jan2003                  :
  PAW_PBE H 15Jun2001                   :

 POSCAR: Au-Hf-H
  positions in direct lattice
  velocities in cartesian coordinates
 exchange correlation table for  LEXCH =        8
   RHO(1)=    0.500       N(1)  =     2000
   RHO(2)=  100.500       N(2)  =     4000

 VTST: version 3.2, (02/03/18)

 CHAIN: initializing optimizer

 OPT: Using VASP Conjugate-Gradient optimizer
 CHAIN: Read ICHAIN            0

 POSCAR: Au-Hf-H
  positions in direct lattice
  velocities in cartesian coordinates

 ion  position               nearest neighbor table
   1  0.000  0.000  0.238-  16 2.94  12 2.94   6 2.94   8 2.94   7 2.94   3 2.94  10 2.94   4 2.94
                             2 2.94
   2  0.333  0.000  0.238-   9 2.94  11 2.94  17 2.94  10 2.94   8 2.94   4 2.94   5 2.94   1 2.94
                             3 2.94
   3  0.667  0.000  0.238-   7 2.94  18 2.94  12 2.94   1 2.94  11 2.94   5 2.94   6 2.94   9 2.94
                             2 2.94
   4  0.000  0.333  0.238-  10 2.94   6 2.94   5 2.94  13 2.94   2 2.94  15 2.94   9 2.94   1 2.94
                             7 2.94
   5  0.333  0.333  0.238-  13 2.94   7 2.94  11 2.94   4 2.94   2 2.94  14 2.94   3 2.94   8 2.94
                             6 2.94
   6  0.667  0.333  0.238-  15 2.94  14 2.94   1 2.94  12 2.94   4 2.94   9 2.94   8 2.94   3 2.94
                             5 2.94
   7  0.000  0.667  0.238-  18 2.94   3 2.94  16 2.94   5 2.94   1 2.94  13 2.94   8 2.94   4 2.94
                             9 2.94
   8  0.333  0.667  0.238-   9 2.94  17 2.94   1 2.94   2 2.94  14 2.94  16 2.94   6 2.94   7 2.94
                             5 2.94
   9  0.667  0.667  0.238-   2 2.94   8 2.94  17 2.94   6 2.94  15 2.94   4 2.94   3 2.94  18 2.94
                             7 2.94
  10  0.111  0.111  0.346-  20 2.93  26 2.94  19 2.94  11 2.94  17 2.94   2 2.94   4 2.94   1 2.94
                            12 2.94  16 2.94  13 2.94  15 2.94
  11  0.444  0.111  0.346-  20 2.92  21 2.92  13 2.94   2 2.94  10 2.94  17 2.94   5 2.94   3 2.94
                            18 2.94  14 2.94  12 2.94  27 2.94
  12  0.778  0.111  0.346-  21 2.93  25 2.94  19 2.94  16 2.94  18 2.94   1 2.94  14 2.94  15 2.94
                             3 2.94   6 2.94  10 2.94  11 2.94
  13  0.111  0.444  0.346-  23 2.92  20 2.92   5 2.94  18 2.94  11 2.94   7 2.94   4 2.94  16 2.94
                            10 2.94  14 2.94  15 2.94  22 2.94
  14  0.444  0.444  0.346-  21 2.92  23 2.92  15 2.94   6 2.94  12 2.94   8 2.94  17 2.94   5 2.94
                            16 2.94  13 2.94  11 2.94  24 2.94
  15  0.778  0.444  0.346-  24 2.93  22 2.93  19 2.94  14 2.94   6 2.94  17 2.94  12 2.94   9 2.94
                             4 2.94  10 2.94  13 2.94  18 2.94
  16  0.111  0.778  0.346-  23 2.93  25 2.94  26 2.94  18 2.94  12 2.94   7 2.94   1 2.94   8 2.94
                            13 2.94  10 2.94  14 2.94  17 2.94
  17  0.444  0.778  0.346-  27 2.93  24 2.93  26 2.94   9 2.94  15 2.94   2 2.94  10 2.94  11 2.94
                             8 2.94  14 2.94  16 2.94  18 2.94
  18  0.778  0.778  0.346-  22 2.93  27 2.93  25 2.94  16 2.94   7 2.94  13 2.94  12 2.94   3 2.94
                            11 2.94   9 2.94  15 2.94  17 2.94
  19  0.889  0.222  0.454-  15 2.94  10 2.94  12 2.94  24 2.94  22 2.94  26 2.94  25 2.94  21 2.94
                            20 2.94  28 2.96  32 3.04  31 3.04
  20  0.223  0.223  0.453-  36 2.81  11 2.92  13 2.92  23 2.93  21 2.93  10 2.93  26 2.94  19 2.94
                            27 2.95  22 2.95  29 2.99  31 2.99
  21  0.555  0.223  0.453-  36 2.81  14 2.92  11 2.92  20 2.93  23 2.93  12 2.93  25 2.94  19 2.94
                            27 2.95  24 2.95  30 2.99  32 2.99
  22  0.887  0.556  0.454-  24 2.92  27 2.92  18 2.93  15 2.93  25 2.94  19 2.94  13 2.94  23 2.95
                            20 2.95  35 2.96  33 3.01  31 3.01
  23  0.223  0.555  0.453-  36 2.81  13 2.92  14 2.92  20 2.93  21 2.93  16 2.93  25 2.94  26 2.94
                            22 2.95  24 2.95  33 2.99  34 2.99
  24  0.556  0.556  0.454-  27 2.92  22 2.92  15 2.93  17 2.93  26 2.94  19 2.94  14 2.94  21 2.95
                            23 2.95  35 2.96  32 3.01  34 3.01
  25  0.889  0.889  0.454-  18 2.94  16 2.94  12 2.94  22 2.94  27 2.94  19 2.94  26 2.94  23 2.94
                            21 2.94  28 2.96  33 3.04  30 3.04
  26  0.222  0.889  0.454-  17 2.94  10 2.94  16 2.94  27 2.94  24 2.94  19 2.94  25 2.94  20 2.94
                            23 2.94  28 2.96  29 3.04  34 3.04
  27  0.556  0.887  0.454-  24 2.92  22 2.92  17 2.93  18 2.93  26 2.94  25 2.94  11 2.94  20 2.95
                            21 2.95  35 2.96  29 3.01  30 3.01
  28  0.000  0.000  0.563-  25 2.96  19 2.96  26 2.96  34 2.98  32 2.98  33 2.98  30 2.98  31 2.98
                            29 2.98
  29  0.334  0.008  0.566-  30 2.86  31 2.87  36 2.88  35 2.97  28 2.98  20 2.99  27 3.01  26 3.04
                            34 3.08
  30  0.658  0.008  0.566-  29 2.86  32 2.87  36 2.88  35 2.97  28 2.98  21 2.99  27 3.01  25 3.04
                            33 3.08
  31  0.008  0.334  0.566-  33 2.86  29 2.87  36 2.88  35 2.97  28 2.98  20 2.99  22 3.01  19 3.04
                            32 3.08
  32  0.658  0.334  0.566-  34 2.86  30 2.87  36 2.88  35 2.97  28 2.98  21 2.99  24 3.01  19 3.04
                            31 3.08
  33  0.008  0.658  0.566-  31 2.86  34 2.87  36 2.88  35 2.97  28 2.98  23 2.99  22 3.01  25 3.04
                            30 3.08
  34  0.334  0.658  0.566-  32 2.86  33 2.87  36 2.88  35 2.97  28 2.98  23 2.99  24 3.01  26 3.04
                            29 3.08
  35  0.667  0.667  0.564-  24 2.96  27 2.96  22 2.96  29 2.97  34 2.97  32 2.97  31 2.97  30 2.97
                            33 2.97
  36  0.333  0.333  0.555-  37 1.85  20 2.81  23 2.81  21 2.81  33 2.88  31 2.88  29 2.88  30 2.88
                            34 2.88  32 2.88
  37  0.333  0.333  0.638-  36 1.85

  LATTYP: Found a hexagonal cell.
 ALAT       =     8.8135128021
 C/A-ratio  =     2.5184286595

  Lattice vectors:

 A1 = (  -4.4067569092,  -7.6327256898,   0.0000000000)
 A2 = (   8.8135128021,   0.0000000000,   0.0000000000)
 A3 = (   0.0000000000,   0.0000000000,  22.1962032318)

Analysis of symmetry for initial positions (statically):
 Subroutine PRICEL returns:
 Original cell was already a primitive cell.

 Routine SETGRP: Setting up the symmetry group for a
 hexagonal supercell.

 Subroutine GETGRP returns: Found  6 space group operations
 (whereof  6 operations were pure point group operations)
 out of a pool of 24 trial point group operations.

The static configuration has the point symmetry C_3v.

Analysis of symmetry for dynamics (positions and initial velocities):
 Subroutine PRICEL returns:
 Original cell was already a primitive cell.

[...]

The dynamic configuration has the point symmetry C_3v.

Analysis of constrained symmetry for selective dynamics:
 Subroutine PRICEL returns:
 Original cell was already a primitive cell.

 Routine SETGRP: Setting up the symmetry group for a
 hexagonal supercell.

 Subroutine GETGRP returns: Found  6 space group operations
 (whereof  6 operations were pure point group operations)
[...]
     24      -5.1068      2.00000
     25      -5.0971      2.00000
     26      -5.0590      2.00000
     27      -5.0079      2.00000
     28      -4.9881      2.00000
     29      -4.9327      2.00000
     30      -4.8874      2.00000
     31      -4.8728      2.00000
     32      -4.8153      2.00000
     33      -4.7982      2.00000
     34      -4.7832      2.00000
     35      -4.7710      2.00000
     36      -4.7559      2.00000
     37      -4.6324      2.00000
     38      -4.5839      2.00000
     39      -4.5252      2.00000
     40      -4.4804      2.00000
     41      -4.4498      2.00000
     42      -4.4218      2.00000
     43      -4.3950      2.00000
     44      -4.3815      2.00000
     45      -4.3437      2.00000
     46      -4.2713      2.00000
     47      -4.2576      2.00000
     48      -4.2146      2.00000
     49      -4.1898      2.00000
     50      -4.1811      2.00000
     51      -4.1708      2.00000
     52      -4.1549      2.00000
     53      -4.1377      2.00000
     54      -4.0952      2.00000
     55      -4.0631      2.00000
     56      -4.0538      2.00000
     57      -4.0506      2.00000
     58      -4.0363      2.00000
     59      -4.0265      2.00000
     60      -4.0021      2.00000
[...]
    238       6.6924      0.00000
    239       6.7309      0.00000
    240       6.8322      0.00000
    241       6.9237      0.00000
    242       6.9866      0.00000
    243       7.1285      0.00000
    244       7.2334      0.00000
    245       7.3085      0.00000
    246       7.6242      0.00000
    247       7.6523      0.00000
    248       7.8423      0.00000
    249       7.8558      0.00000
    250       7.9391      0.00000
    251       7.9665      0.00000
    252       8.0057      0.00000

 soft charge-density along one line, spin component           1
         0         1         2         3         4         5         6         7         8         9
 total charge-density along one line

------------------------ aborting loop because EDIFF is reached ----------------------------------------

 total charge

# of ion       s       p       d       tot
    1        0.550   0.237   8.766   9.553
    2        0.541   0.241   8.765   9.547
    3        0.541   0.241   8.765   9.547
    4        0.541   0.241   8.765   9.547
    5        0.543   0.240   8.762   9.546
    6        0.541   0.241   8.765   9.547
    7        0.541   0.241   8.765   9.547
    8        0.541   0.241   8.765   9.547
    9        0.543   0.240   8.767   9.549
   10        0.523   0.307   8.772   9.602
   11        0.518   0.307   8.778   9.603
   12        0.523   0.307   8.772   9.602
   13        0.518   0.307   8.778   9.603
   14        0.518   0.307   8.778   9.603
   15        0.516   0.309   8.774   9.599
   16        0.523   0.307   8.772   9.602
   17        0.516   0.309   8.774   9.599
   18        0.516   0.309   8.774   9.599
   19        0.520   0.296   8.772   9.588
   20        0.568   0.331   8.742   9.641
   21        0.568   0.331   8.742   9.641
   22        0.511   0.306   8.772   9.590
   23        0.568   0.331   8.742   9.641
   24        0.511   0.306   8.772   9.590
   25        0.520   0.296   8.772   9.588
   26        0.520   0.296   8.772   9.588
   27        0.511   0.306   8.772   9.590
   28        0.542   0.230   8.754   9.526
   29        0.597   0.242   8.733   9.572
   30        0.597   0.242   8.733   9.572
   31        0.597   0.242   8.733   9.572
   32        0.597   0.242   8.733   9.572
   33        0.597   0.242   8.733   9.572
   34        0.597   0.242   8.733   9.572
   35        0.538   0.233   8.757   9.528
   36        0.568   0.570   1.867   3.005
   37        0.532   0.006   0.000   0.537
tot         20.114  10.219 308.492 338.825

  FORCE on cell =-STRESS in cart. coord.  units (eV):
  Direction    XX          YY          ZZ          XY          YZ          ZX
  Alpha Z   990.20962   990.20962   990.20962
  Ewald  115972.75779115972.75815************    -0.00034    -0.00009    -0.00017
  Hartree124408.75847124408.75846************    -0.00000    -0.00003    -0.00005
  E(xc)   -1746.27879 -1746.27877 -1754.65500    -0.00001    -0.00000    -0.00000
  Local  ************************252564.55338     0.00175     0.00005     0.00010
  n-local   -63.53247   -18.64584   -12.91792    22.11895    -1.71593     1.28324
  augment  2363.13652  2363.13808  2382.67299    -0.00135    -0.00001     0.00001
  Kinetic  5379.49179  5384.73491  5448.00953     3.43422     0.44693    -0.11258
  Fock        0.00000     0.00000     0.00000     0.00000     0.00000     0.00000
  Total     -19.86957   -19.86957     3.78759    -0.00000     0.00000     0.00000
  in kB     -21.32022   -21.32022     4.06412    -0.00000     0.00000     0.00000

 VOLUME and BASIS-vectors are now :
  energy-cutoff  :      500.00
  volume of cell :     1493.16
      direct lattice vectors                 reciprocal lattice vectors
     8.813512802  0.000000000  0.000000000     0.113462137 -0.065507406  0.000000000
     4.406756909  7.632725690  0.000000000     0.000000000  0.131014796  0.000000000
     0.000000000  0.000000000 22.196203232     0.000000000  0.000000000  0.045052750

  length of vectors
     8.813512802  8.813512802 22.196203232     0.131014796  0.131014796  0.045052750

 FORCES acting on ions
    electron-ion (+dipol)            ewald-force                    non-local-force                 convergence-correction
   -.196E-04 -.162E-04 0.244E+04   0.518E-04 0.432E-04 -.244E+04   -.127E-16 -.367E-18 -.429E+00   -.281E-03 -.176E-03 -.233E+00
   -.128E+00 -.451E+00 0.244E+04   0.464E-01 0.396E+00 -.244E+04   0.426E-03 0.468E-01 -.360E+00   0.744E-01 -.417E-03 -.280E+00
   0.128E+00 -.451E+00 0.244E+04   -.464E-01 0.396E+00 -.244E+04   -.426E-03 0.468E-01 -.360E+00   -.741E-01 0.162E-02 -.279E+00
   -.454E+00 0.114E+00 0.244E+04   0.366E+00 -.158E+00 -.244E+04   0.408E-01 -.231E-01 -.360E+00   0.369E-01 0.646E-01 -.280E+00
   0.703E-05 -.241E-04 0.244E+04   0.951E-04 0.172E-05 -.244E+04   -.281E-17 0.299E-17 -.282E+00   0.439E-02 0.267E-02 -.221E+00
   0.454E+00 0.115E+00 0.244E+04   -.366E+00 -.158E+00 -.244E+04   -.408E-01 -.231E-01 -.360E+00   -.386E-01 0.655E-01 -.279E+00
   -.326E+00 0.336E+00 0.244E+04   0.320E+00 -.238E+00 -.244E+04   0.404E-01 -.238E-01 -.360E+00   -.356E-01 -.650E-01 -.279E+00
   0.326E+00 0.336E+00 0.244E+04   -.320E+00 -.238E+00 -.244E+04   -.404E-01 -.238E-01 -.360E+00   0.375E-01 -.661E-01 -.279E+00
   0.196E-04 -.417E-04 0.245E+04   0.166E-03 -.199E-04 -.244E+04   -.961E-18 -.116E-17 -.356E+00   -.466E-02 -.241E-02 -.339E+00
   -.120E+01 -.690E+00 0.773E+03   0.130E+01 0.749E+00 -.773E+03   -.204E+00 -.118E+00 -.456E+00   0.524E-01 0.301E-01 -.173E+00
   0.136E-04 -.285E+01 0.770E+03   0.149E-03 0.261E+01 -.769E+03   0.413E-08 0.621E-01 -.211E+00   0.426E-02 0.933E-01 -.180E+00
   0.120E+01 -.690E+00 0.773E+03   -.130E+01 0.749E+00 -.773E+03   0.204E+00 -.118E+00 -.456E+00   -.544E-01 0.321E-01 -.172E+00
   -.247E+01 0.142E+01 0.770E+03   0.226E+01 -.131E+01 -.769E+03   0.537E-01 -.310E-01 -.211E+00   0.832E-01 -.427E-01 -.180E+00
   0.247E+01 0.142E+01 0.770E+03   -.226E+01 -.131E+01 -.769E+03   -.537E-01 -.310E-01 -.211E+00   -.749E-01 -.434E-01 -.179E+00
   0.324E-04 0.264E+01 0.777E+03   0.235E-03 -.267E+01 -.776E+03   0.810E-09 0.122E-01 -.381E+00   -.297E-02 -.108E-01 -.192E+00
   -.205E-04 0.138E+01 0.773E+03   0.161E-03 -.150E+01 -.773E+03   0.157E-07 0.236E+00 -.456E+00   0.385E-03 -.631E-01 -.172E+00
   0.229E+01 -.132E+01 0.777E+03   -.231E+01 0.134E+01 -.776E+03   0.105E-01 -.609E-02 -.381E+00   -.106E-01 0.326E-02 -.192E+00
   -.229E+01 -.132E+01 0.777E+03   0.231E+01 0.134E+01 -.776E+03   -.105E-01 -.609E-02 -.381E+00   0.107E-01 0.591E-02 -.192E+00
   -.425E-04 -.648E+01 -.903E+03   0.564E-04 0.648E+01 0.902E+03   -.675E-09 -.101E-01 0.666E+00   -.607E-02 -.177E-01 0.539E-01
   -.285E+02 -.165E+02 -.933E+03   0.294E+02 0.170E+02 0.933E+03   -.111E+01 -.639E+00 -.902E+00   0.226E-01 0.129E-01 0.469E-01
   0.285E+02 -.165E+02 -.933E+03   -.294E+02 0.170E+02 0.933E+03   0.111E+01 -.639E+00 -.902E+00   -.132E-01 0.144E-01 0.459E-01
   -.211E+02 0.122E+02 -.900E+03   0.207E+02 -.120E+02 0.899E+03   0.356E+00 -.205E+00 0.678E+00   0.431E-01 -.279E-01 0.320E-01
   -.772E-05 0.329E+02 -.933E+03   0.137E-03 -.340E+02 0.933E+03   0.851E-07 0.128E+01 -.902E+00   0.561E-02 -.187E-01 0.459E-01
   0.211E+02 0.122E+02 -.900E+03   -.207E+02 -.120E+02 0.899E+03   -.356E+00 -.205E+00 0.678E+00   -.511E-01 -.295E-01 0.323E-01
   0.561E+01 0.324E+01 -.903E+03   -.561E+01 -.324E+01 0.902E+03   0.879E-02 0.507E-02 0.666E+00   0.131E-01 0.751E-02 0.539E-01
   -.561E+01 0.324E+01 -.903E+03   0.561E+01 -.324E+01 0.902E+03   -.879E-02 0.507E-02 0.666E+00   -.181E-01 0.364E-02 0.539E-01
   0.664E-05 -.243E+02 -.900E+03   0.200E-03 0.239E+02 0.899E+03   0.274E-07 0.411E+00 0.678E+00   -.322E-02 0.512E-01 0.320E-01
   -.862E-05 -.956E-05 -.244E+04   0.259E-04 0.291E-04 0.244E+04   -.726E-17 -.612E-20 0.449E+00   -.143E-02 -.840E-03 0.254E+00
   -.193E+02 -.411E+02 -.246E+04   0.204E+02 0.429E+02 0.246E+04   -.122E+01 -.191E+01 -.665E-01   0.470E-01 -.145E-01 0.287E+00
   0.193E+02 -.411E+02 -.246E+04   -.204E+02 0.429E+02 0.246E+04   0.122E+01 -.191E+01 -.665E-01   -.400E-01 -.129E-01 0.286E+00
   -.452E+02 0.387E+01 -.246E+04   0.473E+02 -.380E+01 0.246E+04   -.226E+01 -.102E+00 -.665E-01   0.110E-01 0.478E-01 0.287E+00
   0.452E+02 0.387E+01 -.246E+04   -.473E+02 -.380E+01 0.246E+04   0.226E+01 -.102E+00 -.665E-01   -.556E-02 0.485E-01 0.285E+00
   -.260E+02 0.372E+02 -.246E+04   0.269E+02 -.391E+02 0.246E+04   -.104E+01 0.201E+01 -.665E-01   -.311E-01 -.282E-01 0.286E+00
   0.260E+02 0.372E+02 -.246E+04   -.269E+02 -.391E+02 0.246E+04   0.104E+01 0.201E+01 -.665E-01   0.393E-01 -.290E-01 0.285E+00
   0.307E-04 -.347E-04 -.245E+04   0.146E-03 -.443E-04 0.245E+04   -.223E-17 -.189E-17 0.473E+00   -.588E-02 -.310E-02 0.293E+00
   -.217E-04 0.198E-05 -.849E+03   0.408E-04 0.362E-05 0.851E+03   0.273E-18 -.584E-19 -.114E+01   0.159E-03 0.936E-04 0.671E-01
   0.599E-05 -.381E-05 -.251E+03   0.354E-05 0.232E-06 0.253E+03   -.614E-19 -.101E-18 -.185E+01   0.228E-04 0.141E-04 0.197E-01
   -.825E-03 -.783E-03 0.921E+01   -.934E-13 0.373E-13 -.176E-11   -.224E-15 0.442E-15 -.751E+01   0.143E-01 0.881E-02 -.136E+01

 POSITION                                       TOTAL-FORCE (eV/Angst)
      0.00000      0.00000      5.28038        -0.000000     -0.000000     -0.158100
      2.93784      0.00000      5.28038        -0.006392     -0.007164     -0.043642
      5.87568      0.00000      5.28038         0.006392     -0.007164     -0.043642
      1.46892      2.54424      5.28038        -0.009400     -0.001954     -0.043642
      4.40676      2.54424      5.28038        -0.000000     -0.000000     -0.057539
      7.34459      2.54424      5.28038         0.009400     -0.001954     -0.043642
      2.93784      5.08848      5.28038        -0.003008      0.009118     -0.043642
      5.87568      5.08848      5.28038         0.003008      0.009118     -0.043642
      8.81351      5.08848      5.28038        -0.000000     -0.000000     -0.060097
      1.46892      0.84808      7.67911        -0.049264     -0.028442      0.034027
      4.40676      0.84808      7.67911        -0.000000     -0.083232      0.011416
      7.34459      0.84808      7.67911         0.049264     -0.028442      0.034027
      2.93784      3.39232      7.67911        -0.072081      0.041616      0.011416
      5.87568      3.39232      7.67911         0.072081      0.041616      0.011416
      8.81351      3.39232      7.67911        -0.000000     -0.025828      0.129590
      4.40676      5.93656      7.67911         0.000000      0.056885      0.034027
      7.34459      5.93656      7.67911        -0.022368      0.012914      0.129590
     10.28243      5.93656      7.67911         0.022368      0.012914      0.129590
      8.81351      1.69636     10.07469        -0.000000     -0.030083     -0.015409
      2.94338      1.69936     10.06127        -0.163990     -0.094680     -0.187712
      5.87013      1.69936     10.06127         0.163990     -0.094680     -0.187712
     10.27220      4.24631     10.06987         0.047589     -0.027476      0.050890
      4.40676      4.23400     10.06127         0.000000      0.189360     -0.187712
      7.35483      4.24631     10.06987        -0.047589     -0.027476      0.050890
     11.75117      6.78454     10.07469         0.026053      0.015042     -0.015409
      5.87585      6.78454     10.07469        -0.026053      0.015042     -0.015409
      8.81351      6.77283     10.06987         0.000000      0.054951      0.050890
      0.00000      0.00000     12.49672        -0.000000     -0.000000      0.008142
      2.97727      0.06002     12.55884        -0.072482     -0.160429     -0.134670
      5.83624      0.06002     12.55884         0.072482     -0.160429     -0.134670
      1.54061      2.54838     12.55884        -0.175177      0.017443     -0.134670
      7.27290      2.54838     12.55884         0.175177      0.017443     -0.134670
      2.97010      5.02433     12.55884        -0.102695      0.142986     -0.134670
      5.84341      5.02433     12.55884         0.102695      0.142986     -0.134670
      8.81351      5.08848     12.50791        -0.000000      0.000000      0.017465
      4.40676      2.54424     12.31155        -0.000000     -0.000000      1.282425
      4.40676      2.54424     14.16087        -0.000000     -0.000000     -0.030826
    total drift:                                0.013467      0.008028      0.335458

  FREE ENERGIE OF THE ION-ELECTRON SYSTEM (eV)
  free  energy   TOTEN  =      -120.81332076 eV

  energy  without entropy=     -120.81332076  energy(sigma->0) =     -120.81332076

 stress matrix after NEB project (eV)
    -19.86957     -0.00000      0.00000
     -0.00000    -19.86957      0.00000
      0.00000      0.00000      3.78759
  FORCES: max atom, RMS     0.030826    0.005068
  FORCE total and by dimension    0.030826    0.030826
  Stress total and by dimension   28.353933   19.869572
|           W    W    AA    RRRRR   N    N  II  N    N   GGGG   !!!           |
|           W    W   A  A   R    R  NN   N  II  NN   N  G    G  !!!           |
|           W    W  A    A  R    R  N N  N  II  N N  N  G       !!!           |
|           W WW W  AAAAAA  RRRRR   N  N N  II  N  N N  G  GGG   !            |
|           WW  WW  A    A  R   R   N   NN  II  N   NN  G    G                |
|           W    W  A    A  R    R  N    N  II  N    N   GGGG   !!!           |
|     Tetrahedron method does not include variations of the Fermi             |
|     occupations, so forces and stress will be inaccurate. We suggest        |
|     using a different smearing scheme ISMEAR = 1 or 2 for metals in         |
|     relaxations.                                                            |

 total charge

# of ion       s       p       d       tot
    1        0.550   0.237   8.766   9.553
    2        0.541   0.241   8.765   9.547
    3        0.541   0.241   8.765   9.547
    4        0.541   0.241   8.765   9.547
    5        0.543   0.240   8.762   9.546
    6        0.541   0.241   8.765   9.547
    7        0.541   0.241   8.765   9.547
    8        0.541   0.241   8.765   9.547
    9        0.543   0.240   8.767   9.549
   10        0.523   0.307   8.772   9.602
   11        0.518   0.307   8.778   9.603
   12        0.523   0.307   8.772   9.602
   13        0.518   0.307   8.778   9.603
   14        0.518   0.307   8.778   9.603
   15        0.516   0.309   8.774   9.599
   16        0.523   0.307   8.772   9.602
   17        0.516   0.309   8.774   9.599
   18        0.516   0.309   8.774   9.599
   19        0.520   0.296   8.772   9.588
   20        0.568   0.331   8.742   9.641
   21        0.568   0.331   8.742   9.641
   22        0.511   0.306   8.772   9.590
   23        0.568   0.331   8.742   9.641
   24        0.511   0.306   8.772   9.590
   25        0.520   0.296   8.772   9.588
   26        0.520   0.296   8.772   9.588
   27        0.511   0.306   8.772   9.590
   28        0.542   0.230   8.754   9.526
   29        0.597   0.242   8.733   9.572
   30        0.597   0.242   8.733   9.572
   31        0.597   0.242   8.733   9.572
   32        0.597   0.242   8.733   9.572
   33        0.597   0.242   8.733   9.572
   34        0.597   0.242   8.733   9.572
   35        0.538   0.233   8.757   9.528
   36        0.568   0.570   1.867   3.005
   37        0.532   0.006   0.000   0.537
tot         20.114  10.219 308.492 338.825

 BZINTS: Fermi energy:    0.642122;  390.000000 electrons
         Band energy:-0.121776E+04;  BLOECHL correction:   -0.059528