 vasp.6.2.0 18Jan21 (build Jun 12 2021 23:27:24) complex

 executed on             LinuxIFC date 2022.05.30  18:11:00

 INCAR:
   ISMEAR = -5
   SIGMA = 0.1
   ISPIN = 1
   EDIFF = 1.d-5
   EDIFFG = -0.01
   NSW = 0
   NELM = 150
   ENCUT = 500
   ISIF = 2
   IBRION = 2
   LREAL = Auto
   ALGO = Fast
   ICHARG = 11
   LORBIT = 10
   LCHARG = .F.
   LWAVE = .F.

 POTCAR:    PAW_PBE Cu 22Jun2005
 POTCAR:    PAW_PBE Mo 08Apr2002
 POTCAR:    PAW_PBE C 08Apr2002
|           W    W    AA    RRRRR   N    N  II  N    N   GGGG   !!!           |
|           W    W   A  A   R    R  NN   N  II  NN   N  G    G  !!!           |
|           W    W  A    A  R    R  N N  N  II  N N  N  G       !!!           |
|           W WW W  AAAAAA  RRRRR   N  N N  II  N  N N  G  GGG   !            |
|           WW  WW  A    A  R   R   N   NN  II  N   NN  G    G                |
|           W    W  A    A  R    R  N    N  II  N    N   GGGG   !!!           |
|     For optimal performance we recommend to set                             |
|       NCORE = 2 up to number-of-cores-per-socket                            |
|     This setting can greatly improve the performance of VASP for DFT.       |
|     The default, NCORE=1 might be grossly inefficient on modern             |
|     multi-core architectures or massively parallel machines. Do your        |
|     Unfortunately you need to use the default for GW and RPA                |
|     calculations (for HF NCORE is supported but not extensively tested      |
|     yet).                                                                   |

 POTCAR:    PAW_PBE Cu 22Jun2005
   VRHFIN =Cu: d10 p1

   TITEL  = PAW_PBE Cu 22Jun2005
   POMASS =   63.546; ZVAL   =   11.000    mass and valenz
   ENMAX  =  295.446; ENMIN  =  221.585 eV

 POTCAR:    PAW_PBE Mo 08Apr2002
   VRHFIN =Mo: 4p5s4d

   TITEL  = PAW_PBE Mo 08Apr2002
   POMASS =   95.940; ZVAL   =    6.000    mass and valenz
   ENMAX  =  224.584; ENMIN  =  168.438 eV

 POTCAR:    PAW_PBE C 08Apr2002
   VRHFIN =C: s2p2

   TITEL  = PAW_PBE C 08Apr2002
   POMASS =   12.011; ZVAL   =    4.000    mass and valenz
   ENMAX  =  400.000; ENMIN  =  300.000 eV

 Optimization of the real space projectors (new method)

 maximal supplied QI-value         = 16.25
 optimisation between [QCUT,QGAM] = [ 11.38, 22.75] = [ 36.24,144.96] Ry
 Optimized for a Real-space Cutoff    1.52 Angstroem

   l    n(q)    QCUT    max X(q) W(low)/X(q) W(high)/X(q)  e(spline)
   2      9    11.376     4.610    0.21E-03    0.10E-03    0.26E-06
   2      9    11.376     8.522    0.33E-03    0.16E-03    0.37E-06
   0     10    11.376    51.609    0.62E-04    0.20E-04    0.13E-06
   0     10    11.376    27.747    0.54E-04    0.20E-04    0.13E-06
   1     10    11.376    20.408    0.13E-04    0.99E-04    0.19E-06
   1     10    11.376    13.425    0.12E-04    0.87E-04    0.17E-06
 Optimization of the real space projectors (new method)

[...]

   l    n(q)    QCUT    max X(q) W(low)/X(q) W(high)/X(q)  e(spline)
   2     10    11.429    80.908    0.27E-03    0.78E-03    0.13E-05
   2     10    11.429    79.000    0.27E-03    0.78E-03    0.13E-05
   0     11    11.429    52.066    0.33E-04    0.97E-04    0.72E-06
   0     11    11.429    24.514    0.27E-04    0.80E-04    0.60E-06
   1     10    11.429    16.033    0.31E-04    0.17E-03    0.36E-06
   1     10    11.429    11.179    0.22E-04    0.13E-03    0.29E-06
 Optimization of the real space projectors (new method)

 maximal supplied QI-value         = 25.13
 optimisation between [QCUT,QGAM] = [ 11.31, 22.87] = [ 35.82,146.48] Ry
 Optimized for a Real-space Cutoff    1.00 Angstroem

   l    n(q)    QCUT    max X(q) W(low)/X(q) W(high)/X(q)  e(spline)
   0      7    11.310   115.676    0.43E-03    0.13E-02    0.19E-06
   0      7    11.310    87.132    0.43E-03    0.13E-02    0.18E-06
   1      6    11.310     4.429    0.42E-03    0.74E-03    0.11E-06
   1      6    11.310     2.733    0.34E-03    0.55E-03    0.92E-07
  PAW_PBE Cu 22Jun2005                  :
  PAW_PBE Mo 08Apr2002                  :
  PAW_PBE C 08Apr2002                   :

 POSCAR: Cu-Mo-C
  positions in direct lattice
  velocities in cartesian coordinates
 exchange correlation table for  LEXCH =        8
   RHO(1)=    0.500       N(1)  =     2000
   RHO(2)=  100.500       N(2)  =     4000

 VTST: version 3.2, (02/03/18)

 CHAIN: initializing optimizer

 OPT: Using VASP Conjugate-Gradient optimizer
 CHAIN: Read ICHAIN            0

 POSCAR: Cu-Mo-C
  positions in direct lattice
  velocities in cartesian coordinates

 ion  position               nearest neighbor table
   1  0.000  0.000  0.226-   7 2.57   3 2.57   4 2.57   2 2.57   6 2.57   8 2.57  12 2.57  10 2.57
                            16 2.57
   2  0.333  0.000  0.226-   8 2.57   9 2.57   5 2.57   1 2.57   3 2.57  11 2.57   4 2.57  10 2.57
                            17 2.57
   3  0.667  0.000  0.226-   1 2.57   7 2.57   6 2.57   9 2.57   2 2.57  12 2.57   5 2.57  18 2.57
                            11 2.57
   4  0.000  0.333  0.226-   5 2.57   6 2.57   1 2.57   7 2.57   2 2.57  13 2.57   9 2.57  10 2.57
                            15 2.57
   5  0.333  0.333  0.226-   4 2.57   2 2.57   7 2.57  13 2.57   8 2.57   6 2.57   3 2.57  11 2.57
                            14 2.57
   6  0.667  0.333  0.226-   4 2.57   9 2.57  15 2.57   3 2.57   1 2.57   8 2.57  14 2.57   5 2.57
                            12 2.57
   7  0.000  0.667  0.226-   1 2.57   3 2.57  16 2.57  18 2.57   4 2.57   5 2.57   8 2.57   9 2.57
                            13 2.57
   8  0.333  0.667  0.226-   9 2.57   2 2.57  17 2.57   6 2.57   1 2.57   7 2.57   5 2.57  14 2.57
                            16 2.57
   9  0.667  0.667  0.226-   8 2.57   6 2.57   2 2.57  17 2.57   3 2.57   7 2.57   4 2.57  15 2.57
                            18 2.57
  10  0.111  0.111  0.314-  20 2.55  26 2.56  19 2.56  11 2.57  12 2.57  13 2.57   1 2.57   2 2.57
                             4 2.57  15 2.57  16 2.57  17 2.57
  11  0.444  0.111  0.314-  20 2.56  21 2.56  10 2.57  13 2.57   2 2.57  17 2.57  14 2.57  12 2.57
                             5 2.57   3 2.57  18 2.57  27 2.57
  12  0.778  0.111  0.314-  21 2.55  19 2.56  25 2.56  15 2.57  10 2.57  14 2.57  18 2.57   3 2.57
                             1 2.57  16 2.57  11 2.57   6 2.57
  13  0.111  0.444  0.314-  23 2.56  20 2.56  16 2.57  18 2.57  10 2.57  11 2.57  14 2.57   5 2.57
                             4 2.57   7 2.57  15 2.57  22 2.57
  14  0.444  0.444  0.314-  21 2.56  23 2.56  15 2.57  17 2.57  12 2.57  16 2.57  13 2.57  11 2.57
                             6 2.57   8 2.57   5 2.57  24 2.57
  15  0.778  0.444  0.314-  19 2.56  14 2.57  17 2.57  12 2.57   6 2.57  18 2.57  10 2.57   9 2.57
                            13 2.57   4 2.57  24 2.57  22 2.57
  16  0.111  0.778  0.314-  23 2.55  25 2.56  26 2.56  18 2.57  13 2.57   7 2.57  14 2.57  17 2.57
                            12 2.57  10 2.57   8 2.57   1 2.57
  17  0.444  0.778  0.314-  26 2.56  14 2.57  15 2.57   8 2.57   9 2.57  11 2.57  16 2.57  18 2.57
                            10 2.57   2 2.57  27 2.57  24 2.57
  18  0.778  0.778  0.314-  25 2.56  16 2.57  13 2.57   7 2.57  15 2.57  12 2.57  17 2.57   9 2.57
                             3 2.57  11 2.57  22 2.57  27 2.57
  19  0.889  0.222  0.401-  15 2.56  12 2.56  10 2.56  21 2.56  20 2.56  22 2.57  24 2.57  25 2.57
                            26 2.57  28 2.57  32 2.58  31 2.58
  20  0.222  0.222  0.401-  10 2.55  11 2.56  13 2.56  26 2.56  19 2.56  27 2.57  22 2.57  23 2.57
                            21 2.57  36 2.58  29 2.60  31 2.60
  21  0.556  0.222  0.401-  12 2.55  14 2.56  11 2.56  19 2.56  25 2.56  24 2.57  27 2.57  20 2.57
                            23 2.57  36 2.58  32 2.60  30 2.60
  22  0.888  0.556  0.402-  24 2.56  27 2.56  35 2.56  19 2.57  25 2.57  23 2.57  20 2.57  18 2.57
                            15 2.57  13 2.57  31 2.58  33 2.58
  23  0.222  0.556  0.401-  16 2.55  13 2.56  14 2.56  25 2.56  26 2.56  22 2.57  24 2.57  20 2.57
                            21 2.57  36 2.58  33 2.60  34 2.60
  24  0.556  0.556  0.402-  22 2.56  27 2.56  35 2.56  19 2.57  26 2.57  21 2.57  23 2.57  15 2.57
                            17 2.57  14 2.57  32 2.58  34 2.58
  25  0.889  0.889  0.401-  18 2.56  12 2.56  16 2.56  21 2.56  23 2.56  22 2.57  27 2.57  19 2.57
                            26 2.57  28 2.57  33 2.58  30 2.58
  26  0.222  0.889  0.401-  17 2.56  10 2.56  16 2.56  20 2.56  23 2.56  27 2.57  24 2.57  25 2.57
                            19 2.57  28 2.57  29 2.58  34 2.58
  27  0.556  0.888  0.402-  24 2.56  22 2.56  35 2.56  26 2.57  25 2.57  20 2.57  21 2.57  17 2.57
                            18 2.57  11 2.57  29 2.58  30 2.58
  28  0.000  0.000  0.490-  33 2.56  30 2.56  31 2.56  29 2.56  32 2.56  34 2.56  25 2.57  19 2.57
                            26 2.57
  29  0.333  0.998  0.491-  34 2.54  28 2.56  35 2.56  27 2.58  31 2.58  26 2.58  36 2.58  30 2.58
                            20 2.60
  30  0.669  0.998  0.491-  33 2.54  28 2.56  35 2.56  27 2.58  32 2.58  25 2.58  36 2.58  29 2.58
                            21 2.60
  31  0.998  0.333  0.491-  32 2.54  28 2.56  35 2.56  22 2.58  29 2.58  19 2.58  36 2.58  33 2.58
                            20 2.60
  32  0.669  0.333  0.491-  31 2.54  28 2.56  35 2.56  24 2.58  30 2.58  19 2.58  36 2.58  34 2.58
                            21 2.60
  33  0.998  0.669  0.491-  30 2.54  28 2.56  35 2.56  22 2.58  34 2.58  25 2.58  36 2.58  31 2.58
                            23 2.60
  34  0.333  0.669  0.491-  29 2.54  28 2.56  35 2.56  24 2.58  33 2.58  26 2.58  36 2.58  32 2.58
                            23 2.60
  35  0.667  0.667  0.490-  34 2.56  32 2.56  29 2.56  30 2.56  33 2.56  31 2.56  24 2.56  27 2.56
                            22 2.56
  36  0.333  0.333  0.490-  37 1.77  23 2.58  20 2.58  21 2.58  31 2.58  29 2.58  33 2.58  34 2.58
                            32 2.58  30 2.58
  37  0.333  0.333  0.564-  36 1.77

  LATTYP: Found a hexagonal cell.
 ALAT       =     7.6967864036
 C/A-ratio  =     3.0908716217

  Lattice vectors:

 A1 = (  -3.8483927580,  -6.6656128093,   0.0000000000)
 A2 = (   7.6967864037,   0.0000000000,   0.0000000000)
 A3 = (   0.0000000000,   0.0000000000,  23.7897786731)

Analysis of symmetry for initial positions (statically):
 Subroutine PRICEL returns:
 Original cell was already a primitive cell.

 Routine SETGRP: Setting up the symmetry group for a
 hexagonal supercell.

 Subroutine GETGRP returns: Found  6 space group operations
 (whereof  6 operations were pure point group operations)
 out of a pool of 24 trial point group operations.

The static configuration has the point symmetry C_3v.

Analysis of symmetry for dynamics (positions and initial velocities):
 Subroutine PRICEL returns:
 Original cell was already a primitive cell.

[...]

The dynamic configuration has the point symmetry C_3v.

Analysis of constrained symmetry for selective dynamics:
 Subroutine PRICEL returns:
 Original cell was already a primitive cell.

 Routine SETGRP: Setting up the symmetry group for a
 hexagonal supercell.

 Subroutine GETGRP returns: Found  6 space group operations
[...]
     24      -4.9107      2.00000
     25      -4.7942      2.00000
     26      -4.7647      2.00000
     27      -4.7291      2.00000
     28      -4.7183      2.00000
     29      -4.6750      2.00000
     30      -4.6655      2.00000
     31      -4.6601      2.00000
     32      -4.6563      2.00000
     33      -4.6447      2.00000
     34      -4.6225      2.00000
     35      -4.5672      2.00000
     36      -4.5358      2.00000
     37      -4.4899      2.00000
     38      -4.3504      2.00000
     39      -4.3477      2.00000
     40      -4.3144      2.00000
     41      -4.2736      2.00000
     42      -4.2725      2.00000
     43      -4.2527      2.00000
     44      -4.2421      2.00000
     45      -4.2309      2.00000
     46      -4.2275      2.00000
     47      -4.0526      2.00000
     48      -4.0257      2.00000
     49      -4.0238      2.00000
     50      -4.0109      2.00000
     51      -3.9581      2.00000
     52      -3.9502      2.00000
     53      -3.9412      2.00000
     54      -3.9353      2.00000
     55      -3.9252      2.00000
     56      -3.9196      2.00000
     57      -3.8897      2.00000
     58      -3.8779      2.00000
     59      -3.8733      2.00000
     60      -3.8628      2.00000
[...]
    238       5.8075      0.00000
    239       5.8865      0.00000
    240       5.9436      0.00000
    241       6.0746      0.00000
    242       6.1473      0.00000
    243       6.2830      0.00000
    244       6.3359      0.00000
    245       6.5552      0.00000
    246       6.6574      0.00000
    247       6.7462      0.00000
    248       6.8276      0.00000
    249       6.9800      0.00000
    250       7.2211      0.00000
    251       7.2715      0.00000
    252       7.4245      0.00000

 soft charge-density along one line, spin component           1
         0         1         2         3         4         5         6         7         8         9
 total charge-density along one line

------------------------ aborting loop because EDIFF is reached ----------------------------------------

 total charge

# of ion       s       p       d       tot
    1        0.446   0.286   9.188   9.920
    2        0.450   0.285   9.185   9.920
    3        0.450   0.285   9.185   9.920
    4        0.450   0.285   9.185   9.920
    5        0.446   0.287   9.184   9.916
    6        0.450   0.285   9.185   9.920
    7        0.450   0.285   9.185   9.920
    8        0.450   0.285   9.185   9.920
    9        0.447   0.285   9.187   9.918
   10        0.440   0.373   9.176   9.988
   11        0.442   0.367   9.181   9.991
   12        0.440   0.373   9.176   9.988
   13        0.442   0.367   9.181   9.991
   14        0.442   0.367   9.181   9.991
   15        0.437   0.370   9.177   9.984
   16        0.440   0.373   9.176   9.988
   17        0.437   0.370   9.177   9.984
   18        0.437   0.370   9.177   9.984
   19        0.441   0.366   9.184   9.991
   20        0.455   0.390   9.174  10.018
   21        0.455   0.390   9.174  10.018
   22        0.430   0.374   9.178   9.982
   23        0.455   0.390   9.174  10.018
   24        0.430   0.374   9.178   9.982
   25        0.441   0.366   9.184   9.991
   26        0.441   0.366   9.184   9.991
   27        0.430   0.374   9.178   9.982
   28        0.449   0.291   9.185   9.925
   29        0.465   0.306   9.174   9.945
   30        0.465   0.306   9.174   9.945
   31        0.465   0.306   9.174   9.945
   32        0.465   0.306   9.174   9.945
   33        0.465   0.306   9.174   9.945
   34        0.465   0.306   9.174   9.945
   35        0.448   0.294   9.183   9.925
   36        0.534   0.528   4.714   5.776
   37        1.003   1.218   0.000   2.221
tot         17.198  13.447 326.007 356.652

  FORCE on cell =-STRESS in cart. coord.  units (eV):
  Direction    XX          YY          ZZ          XY          YZ          ZX
  Alpha Z   796.75771   796.75771   796.75771
  Ewald  220612.05785220612.05748************     0.00036     0.00013     0.00016
  Hartree233155.31348233155.31348************     0.00003     0.00006     0.00006
  E(xc)   -2288.23508 -2288.23459 -2295.15847    -0.00043    -0.00003    -0.00006
  Local  ************************466979.62233     0.01860    -0.00058    -0.00090
  n-local  -776.79580  -764.44974  -787.69331     6.30163    -0.12267     0.24868
  augment  3315.28656  3315.30698  3338.18129    -0.01768     0.00031     0.00056
  Kinetic  3258.39333  3263.69048  3286.57829     3.60952     1.68995    -1.16353
  Fock        0.00000     0.00000     0.00000     0.00000     0.00000     0.00000
  Total      -4.50539    -4.50539     0.09024     0.00000     0.00000    -0.00000
  in kB      -5.91429    -5.91429     0.11845     0.00000     0.00000    -0.00000

 VOLUME and BASIS-vectors are now :
  energy-cutoff  :      500.00
  volume of cell :     1220.51
      direct lattice vectors                 reciprocal lattice vectors
     7.696786404  0.000000000  0.000000000     0.129924354 -0.075011849  0.000000000
     3.848392758  6.665612809  0.000000000     0.000000000  0.150023716  0.000000000
     0.000000000  0.000000000 23.789778673     0.000000000  0.000000000  0.042034859

  length of vectors
     7.696786404  7.696786404 23.789778673     0.150023716  0.150023716  0.042034859

 FORCES acting on ions
    electron-ion (+dipol)            ewald-force                    non-local-force                 convergence-correction
   -.423E-04 -.242E-06 0.370E+04   0.581E-04 -.429E-05 -.370E+04   0.391E-17 0.404E-17 -.242E+01   -.354E-03 -.171E-03 -.134E+00
   -.710E+00 -.172E+00 0.370E+04   0.662E+00 0.391E+00 -.370E+04   -.420E-02 -.897E-01 -.187E+01   0.522E-01 -.119E+00 -.796E-01
   0.710E+00 -.172E+00 0.370E+04   -.662E+00 0.391E+00 -.370E+04   0.420E-02 -.897E-01 -.187E+01   -.513E-01 -.117E+00 -.786E-01
   -.504E+00 -.529E+00 0.370E+04   0.670E+00 0.378E+00 -.370E+04   -.798E-01 0.412E-01 -.187E+01   -.773E-01 0.105E+00 -.796E-01
   -.639E-04 -.456E-05 0.370E+04   0.116E-03 -.101E-04 -.369E+04   -.469E-18 -.847E-18 -.208E+01   0.121E-01 0.742E-02 -.266E-01
   0.504E+00 -.529E+00 0.370E+04   -.670E+00 0.378E+00 -.370E+04   0.798E-01 0.412E-01 -.187E+01   0.757E-01 0.106E+00 -.784E-01
   0.206E+00 0.701E+00 0.370E+04   0.754E-02 -.769E+00 -.370E+04   -.756E-01 0.485E-01 -.187E+01   -.127E+00 0.140E-01 -.784E-01
   -.206E+00 0.701E+00 0.370E+04   -.781E-02 -.769E+00 -.370E+04   0.756E-01 0.485E-01 -.187E+01   0.130E+00 0.125E-01 -.784E-01
   -.144E-03 -.332E-04 0.370E+04   0.263E-03 0.204E-04 -.370E+04   -.349E-17 -.265E-17 -.231E+01   -.131E-01 -.678E-02 -.145E+00
   -.400E+01 -.231E+01 0.122E+04   0.423E+01 0.244E+01 -.122E+04   -.248E+00 -.143E+00 -.838E+00   0.355E-01 0.205E-01 -.104E+00
   -.891E-04 -.406E+01 0.121E+04   0.190E-03 0.381E+01 -.121E+04   -.847E-08 0.127E+00 -.885E+00   0.120E-01 0.805E-01 -.128E+00
   0.400E+01 -.231E+01 0.122E+04   -.423E+01 0.244E+01 -.122E+04   0.248E+00 -.143E+00 -.838E+00   -.372E-01 0.216E-01 -.104E+00
   -.351E+01 0.203E+01 0.121E+04   0.330E+01 -.190E+01 -.121E+04   0.110E+00 -.636E-01 -.885E+00   0.762E-01 -.291E-01 -.128E+00
   0.351E+01 0.203E+01 0.121E+04   -.330E+01 -.190E+01 -.121E+04   -.110E+00 -.636E-01 -.885E+00   -.525E-01 -.307E-01 -.130E+00
   -.139E-03 -.220E+01 0.122E+04   0.297E-03 0.213E+01 -.122E+04   -.537E-08 0.806E-01 -.741E+00   -.338E-02 0.277E-02 -.183E+00
   -.900E-04 0.462E+01 0.122E+04   0.186E-03 -.488E+01 -.122E+04   -.191E-07 0.286E+00 -.838E+00   -.835E-03 -.442E-01 -.104E+00
   -.191E+01 0.110E+01 0.122E+04   0.185E+01 -.107E+01 -.122E+04   0.698E-01 -.403E-01 -.741E+00   0.140E-02 -.432E-02 -.183E+00
   0.191E+01 0.110E+01 0.122E+04   -.185E+01 -.107E+01 -.122E+04   -.698E-01 -.403E-01 -.741E+00   0.156E-03 -.160E-02 -.181E+00
   -.659E-04 -.665E+01 -.125E+04   0.714E-04 0.663E+01 0.125E+04   -.238E-08 0.358E-01 0.121E+01   -.108E-01 -.265E-01 -.264E+00
   -.496E+02 -.286E+02 -.131E+04   0.493E+02 0.285E+02 0.131E+04   -.166E+00 -.957E-01 0.305E+00   0.242E-01 0.138E-01 -.295E+00
   0.496E+02 -.286E+02 -.131E+04   -.493E+02 0.285E+02 0.131E+04   0.166E+00 -.957E-01 0.305E+00   -.430E-01 0.122E-01 -.296E+00
   -.260E+02 0.150E+02 -.127E+04   0.253E+02 -.146E+02 0.127E+04   0.572E+00 -.330E+00 0.114E+01   0.141E+00 -.799E-01 -.299E+00
   -.842E-04 0.572E+02 -.131E+04   0.150E-03 -.570E+02 0.131E+04   -.127E-07 0.191E+00 0.305E+00   -.121E-01 -.446E-01 -.296E+00
   0.260E+02 0.150E+02 -.127E+04   -.253E+02 -.146E+02 0.127E+04   -.572E+00 -.330E+00 0.114E+01   -.139E+00 -.812E-01 -.299E+00
   0.576E+01 0.333E+01 -.125E+04   -.575E+01 -.332E+01 0.125E+04   -.310E-01 -.179E-01 0.121E+01   0.671E-02 0.389E-02 -.265E+00
   -.576E+01 0.333E+01 -.125E+04   0.575E+01 -.332E+01 0.125E+04   0.310E-01 -.179E-01 0.121E+01   -.280E-01 0.408E-02 -.264E+00
   -.121E-03 -.300E+02 -.127E+04   0.240E-03 0.293E+02 0.127E+04   -.440E-07 0.661E+00 0.114E+01   0.109E-02 0.162E+00 -.299E+00
   -.397E-04 0.156E-04 -.366E+04   0.433E-04 -.318E-04 0.366E+04   -.683E-17 0.508E-18 0.209E+01   -.226E-03 -.777E-04 0.791E-01
   -.361E+02 -.645E+02 -.366E+04   0.365E+02 0.647E+02 0.366E+04   -.401E+00 -.438E+00 0.256E+01   -.495E-01 0.660E-01 -.278E-01
   0.361E+02 -.645E+02 -.366E+04   -.365E+02 0.647E+02 0.366E+04   0.401E+00 -.438E+00 0.256E+01   0.505E-01 0.673E-01 -.286E-01
   -.739E+02 0.942E+00 -.366E+04   0.743E+02 -.727E+00 0.366E+04   -.580E+00 -.128E+00 0.256E+01   0.325E-01 -.760E-01 -.278E-01
   0.739E+02 0.942E+00 -.366E+04   -.743E+02 -.727E+00 0.366E+04   0.580E+00 -.128E+00 0.256E+01   -.325E-01 -.753E-01 -.276E-01
   -.378E+02 0.636E+02 -.366E+04   0.378E+02 -.640E+02 0.366E+04   -.179E+00 0.566E+00 0.256E+01   0.835E-01 0.101E-01 -.286E-01
   0.378E+02 0.636E+02 -.366E+04   -.378E+02 -.640E+02 0.366E+04   0.179E+00 0.566E+00 0.256E+01   -.807E-01 0.954E-02 -.275E-01
   -.142E-03 -.235E-04 -.368E+04   0.250E-03 0.149E-05 0.367E+04   0.791E-17 0.341E-19 0.245E+01   -.125E-01 -.641E-02 0.183E+00
   -.373E-04 -.132E-04 -.190E+04   0.738E-04 0.151E-04 0.190E+04   0.732E-18 0.306E-17 0.130E+01   0.634E-03 0.374E-03 -.348E-01
   0.531E-04 -.207E-04 -.156E+04   0.113E-04 0.522E-05 0.157E+04   -.964E-18 0.261E-18 -.666E+01   0.558E-03 0.334E-03 -.174E-01
   -.176E-03 -.211E-06 0.745E+01   -.886E-13 -.250E-12 -.978E-11   0.768E-17 0.336E-17 -.296E+01   -.355E-01 -.236E-01 -.456E+01

 POSITION                                       TOTAL-FORCE (eV/Angst)
      0.00000      0.00000      5.37156         0.000000      0.000000      0.041220
      2.56560      0.00000      5.37156         0.000658      0.011035      0.045263
      5.13119      0.00000      5.37156        -0.000658      0.011035      0.045263
      1.28280      2.22187      5.37156         0.009885     -0.004948      0.045263
      3.84839      2.22187      5.37156         0.000000      0.000000      0.008002
      6.41399      2.22187      5.37156        -0.009885     -0.004948      0.045263
      2.56560      4.44374      5.37156         0.009228     -0.006087      0.045263
      5.13119      4.44374      5.37156        -0.009228     -0.006087      0.045263
      7.69679      4.44374      5.37156         0.000000      0.000000      0.043079
      1.28280      0.74062      7.46636         0.014912      0.008609     -0.057691
      3.84839      0.74062      7.46636         0.000000     -0.047606     -0.065554
      6.41399      0.74062      7.46636        -0.014912      0.008609     -0.057691
      2.56560      2.96249      7.46636        -0.041228      0.023803     -0.065554
      5.13119      2.96249      7.46636         0.041228      0.023803     -0.065554
      7.69679      2.96249      7.46636        -0.000000      0.015266      0.042455
      3.84839      5.18437      7.46636         0.000000     -0.017219     -0.057691
      6.41399      5.18437      7.46636         0.013221     -0.007633      0.042455
      8.97958      5.18437      7.46636        -0.013221     -0.007633      0.042455
      7.69679      1.48128      9.55134         0.000000     -0.002211      0.071105
      2.56091      1.47854      9.54628        -0.341162     -0.196970     -0.395536
      5.13587      1.47854      9.54628         0.341162     -0.196970     -0.395536
      8.97673      3.70477      9.56818         0.058541     -0.033799      0.031944
      3.84839      3.70853      9.54628        -0.000000      0.393939     -0.395536
      6.41684      3.70477      9.56818        -0.058541     -0.033799      0.031944
     10.26235      5.92497      9.55134         0.001915      0.001106      0.071105
      5.13122      5.92497      9.55134        -0.001915      0.001106      0.071105
      7.69679      5.92169      9.56818        -0.000000      0.067598      0.031944
      0.00000      0.00000     11.64671         0.000000      0.000000     -0.119931
      6.40484      6.65345     11.67351        -0.056694     -0.119972      0.012721
      8.98873      6.65345     11.67351         0.056694     -0.119972      0.012721
      8.96447      2.22003     11.67351        -0.132245      0.010888      0.012721
      6.42910      2.22003     11.67351         0.132245      0.010888      0.012721
     10.25642      4.45775     11.67351        -0.075552      0.109084      0.012721
      5.13715      4.45775     11.67351         0.075552      0.109084      0.012721
      7.69679      4.44374     11.65978         0.000000      0.000000     -0.116805
      3.84839      2.22187     11.64991         0.000000      0.000000      0.928640
      3.84839      2.22187     13.42195         0.000000      0.000000     -0.012273
    total drift:                               -0.035648     -0.023562     -0.069199

  FREE ENERGIE OF THE ION-ELECTRON SYSTEM (eV)
  free  energy   TOTEN  =      -137.97685755 eV

  energy  without entropy=     -137.97685755  energy(sigma->0) =     -137.97685755

 stress matrix after NEB project (eV)
     -4.50539      0.00000     -0.00000
      0.00000     -4.50539      0.00000
      0.00000      0.00000      0.09024
  FORCES: max atom, RMS     0.012273    0.002018
  FORCE total and by dimension    0.012273    0.012273
  Stress total and by dimension    6.372219    4.505387
|           W    W    AA    RRRRR   N    N  II  N    N   GGGG   !!!           |
|           W    W   A  A   R    R  NN   N  II  NN   N  G    G  !!!           |
|           W    W  A    A  R    R  N N  N  II  N N  N  G       !!!           |
|           W WW W  AAAAAA  RRRRR   N  N N  II  N  N N  G  GGG   !            |
|           WW  WW  A    A  R   R   N   NN  II  N   NN  G    G                |
|           W    W  A    A  R    R  N    N  II  N    N   GGGG   !!!           |
|     Tetrahedron method does not include variations of the Fermi             |
|     occupations, so forces and stress will be inaccurate. We suggest        |
|     using a different smearing scheme ISMEAR = 1 or 2 for metals in         |
|     relaxations.                                                            |

 total charge

# of ion       s       p       d       tot
    1        0.446   0.286   9.188   9.920
    2        0.450   0.285   9.185   9.920
    3        0.450   0.285   9.185   9.920
    4        0.450   0.285   9.185   9.920
    5        0.446   0.287   9.184   9.916
    6        0.450   0.285   9.185   9.920
    7        0.450   0.285   9.185   9.920
    8        0.450   0.285   9.185   9.920
    9        0.447   0.285   9.187   9.918
   10        0.440   0.373   9.176   9.988
   11        0.442   0.367   9.181   9.991
   12        0.440   0.373   9.176   9.988
   13        0.442   0.367   9.181   9.991
   14        0.442   0.367   9.181   9.991
   15        0.437   0.370   9.177   9.984
   16        0.440   0.373   9.176   9.988
   17        0.437   0.370   9.177   9.984
   18        0.437   0.370   9.177   9.984
   19        0.441   0.366   9.184   9.991
   20        0.455   0.390   9.174  10.018
   21        0.455   0.390   9.174  10.018
   22        0.430   0.374   9.178   9.982
   23        0.455   0.390   9.174  10.018
   24        0.430   0.374   9.178   9.982
   25        0.441   0.366   9.184   9.991
   26        0.441   0.366   9.184   9.991
   27        0.430   0.374   9.178   9.982
   28        0.449   0.291   9.185   9.925
   29        0.465   0.306   9.174   9.945
   30        0.465   0.306   9.174   9.945
   31        0.465   0.306   9.174   9.945
   32        0.465   0.306   9.174   9.945
   33        0.465   0.306   9.174   9.945
   34        0.465   0.306   9.174   9.945
   35        0.448   0.294   9.183   9.925
   36        0.534   0.528   4.714   5.776
   37        1.003   1.218   0.000   2.221
tot         17.198  13.447 326.007 356.652

 BZINTS: Fermi energy:   -0.547364;  395.000000 electrons
         Band energy:-0.134774E+04;  BLOECHL correction:   -0.047185