 vasp.6.2.0 18Jan21 (build Jun 12 2021 23:27:24) complex

 executed on             LinuxIFC date 2022.05.28  01:08:27

 INCAR:
   ISMEAR = -5
   SIGMA = 0.1
   ISPIN = 1
   EDIFF = 1.d-5
   EDIFFG = -0.01
   NSW = 0
   NELM = 150
   ENCUT = 500
   ISIF = 2
   IBRION = 2
   LREAL = Auto
   ALGO = Fast
   ICHARG = 11
   LORBIT = 10
   LCHARG = .F.
   LWAVE = .F.

 POTCAR:    PAW_PBE Au 04Oct2007
 POTCAR:    PAW_PBE Ta 17Jan2003
 POTCAR:    PAW_PBE H 15Jun2001
 POTCAR:    PAW_PBE O 08Apr2002
|           W    W    AA    RRRRR   N    N  II  N    N   GGGG   !!!           |
|           W    W   A  A   R    R  NN   N  II  NN   N  G    G  !!!           |
|           W    W  A    A  R    R  N N  N  II  N N  N  G       !!!           |
|           W WW W  AAAAAA  RRRRR   N  N N  II  N  N N  G  GGG   !            |
|           WW  WW  A    A  R   R   N   NN  II  N   NN  G    G                |
|           W    W  A    A  R    R  N    N  II  N    N   GGGG   !!!           |
|     For optimal performance we recommend to set                             |
|       NCORE = 2 up to number-of-cores-per-socket                            |
|     This setting can greatly improve the performance of VASP for DFT.       |
|     The default, NCORE=1 might be grossly inefficient on modern             |
|     multi-core architectures or massively parallel machines. Do your        |
|     Unfortunately you need to use the default for GW and RPA                |
|     calculations (for HF NCORE is supported but not extensively tested      |
|     yet).                                                                   |

 POTCAR:    PAW_PBE Au 04Oct2007
   VRHFIN =Au: s1d10

   TITEL  = PAW_PBE Au 04Oct2007
   POMASS =  196.966; ZVAL   =   11.000    mass and valenz
   ENMAX  =  229.943; ENMIN  =  172.457 eV

 POTCAR:    PAW_PBE Ta 17Jan2003
   VRHFIN =Ta:  6s5d

   TITEL  = PAW_PBE Ta 17Jan2003
   POMASS =  180.948; ZVAL   =    5.000    mass and valenz
   ENMAX  =  223.667; ENMIN  =  167.750 eV

 POTCAR:    PAW_PBE H 15Jun2001
   VRHFIN =H: ultrasoft test

   TITEL  = PAW_PBE H 15Jun2001
   POMASS =    1.000; ZVAL   =    1.000    mass and valenz
   ENMAX  =  250.000; ENMIN  =  200.000 eV

 POTCAR:    PAW_PBE O 08Apr2002
   VRHFIN =O: s2p4

   TITEL  = PAW_PBE O 08Apr2002
   POMASS =   16.000; ZVAL   =    6.000    mass and valenz
   ENMAX  =  400.000; ENMIN  =  300.000 eV

 Optimization of the real space projectors (new method)

 maximal supplied QI-value         = 15.12
 optimisation between [QCUT,QGAM] = [ 11.34, 22.83] = [ 36.00,145.93] Ry
 Optimized for a Real-space Cutoff    1.39 Angstroem

   l    n(q)    QCUT    max X(q) W(low)/X(q) W(high)/X(q)  e(spline)
   2      9    11.338    60.898    0.39E-03    0.42E-03    0.21E-06
   2      9    11.338    58.894    0.40E-03    0.42E-03    0.22E-06
   0      9    11.338   109.617    0.13E-03    0.20E-04    0.13E-06
   0      9    11.338    75.026    0.13E-03    0.20E-04    0.13E-06
   1      9    11.338    16.344    0.33E-04    0.24E-03    0.18E-06
   1      9    11.338    10.160    0.26E-04    0.19E-03    0.15E-06
 Optimization of the real space projectors (new method)

[...]

   l    n(q)    QCUT    max X(q) W(low)/X(q) W(high)/X(q)  e(spline)
   0      8    11.287    19.460    0.40E-03    0.73E-03    0.16E-06
   0      8    11.287    12.209    0.38E-03    0.70E-03    0.15E-06
   1      7    11.287     4.655    0.22E-03    0.25E-04    0.22E-06
 Optimization of the real space projectors (new method)

 maximal supplied QI-value         = 24.76
 optimisation between [QCUT,QGAM] = [ 11.39, 22.77] = [ 36.31,145.25] Ry
 Optimized for a Real-space Cutoff    1.00 Angstroem

   l    n(q)    QCUT    max X(q) W(low)/X(q) W(high)/X(q)  e(spline)
   0      7    11.387    20.381    0.39E-03    0.13E-02    0.15E-06
   0      7    11.387    15.268    0.42E-03    0.14E-02    0.17E-06
   1      6    11.387     5.964    0.41E-03    0.11E-02    0.17E-06
   1      6    11.387     5.382    0.39E-03    0.87E-03    0.15E-06
  PAW_PBE Au 04Oct2007                  :
  PAW_PBE Ta 17Jan2003                  :
  PAW_PBE H 15Jun2001                   :
  PAW_PBE O 08Apr2002                   :

 POSCAR: Au-Ta-H2O
  positions in direct lattice
  velocities in cartesian coordinates
 exchange correlation table for  LEXCH =        8
   RHO(1)=    0.500       N(1)  =     2000
   RHO(2)=  100.500       N(2)  =     4000

 VTST: version 3.2, (02/03/18)

 CHAIN: initializing optimizer

 OPT: Using VASP Conjugate-Gradient optimizer
 CHAIN: Read ICHAIN            0

 POSCAR: Au-Ta-H2O
  positions in direct lattice
  velocities in cartesian coordinates

 ion  position               nearest neighbor table
   1  0.000  0.000  0.213-  16 2.94  12 2.94   6 2.94   8 2.94   7 2.94   3 2.94  10 2.94   4 2.94
                             2 2.94
   2  0.333  0.000  0.213-   9 2.94  11 2.94  17 2.94  10 2.94   8 2.94   4 2.94   5 2.94   1 2.94
                             3 2.94
   3  0.667  0.000  0.213-   7 2.94  18 2.94  12 2.94   1 2.94  11 2.94   5 2.94   6 2.94   9 2.94
                             2 2.94
   4  0.000  0.333  0.213-  10 2.94   6 2.94   5 2.94  13 2.94   2 2.94  15 2.94   9 2.94   1 2.94
                             7 2.94
   5  0.333  0.333  0.213-  13 2.94   7 2.94  11 2.94   4 2.94   2 2.94  14 2.94   3 2.94   8 2.94
                             6 2.94
   6  0.667  0.333  0.213-  15 2.94  14 2.94   1 2.94  12 2.94   4 2.94   9 2.94   8 2.94   3 2.94
                             5 2.94
   7  0.000  0.667  0.213-  18 2.94   3 2.94  16 2.94   5 2.94   1 2.94  13 2.94   8 2.94   4 2.94
                             9 2.94
   8  0.333  0.667  0.213-   9 2.94  17 2.94   1 2.94   2 2.94  14 2.94  16 2.94   6 2.94   7 2.94
                             5 2.94
   9  0.667  0.667  0.213-   2 2.94   8 2.94  17 2.94   6 2.94  15 2.94   4 2.94   3 2.94  18 2.94
                             7 2.94
  10  0.111  0.111  0.310-  20 2.91  11 2.94  17 2.94   2 2.94   4 2.94   1 2.94  12 2.94  16 2.94
                            13 2.94  15 2.94  26 2.96  19 2.96
  11  0.444  0.111  0.310-  20 2.91  21 2.91  13 2.94   2 2.94  10 2.94  17 2.94   5 2.94   3 2.94
                            18 2.94  14 2.94  12 2.94  27 2.94
  12  0.778  0.111  0.310-  21 2.91  16 2.94  18 2.94   1 2.94  14 2.94  15 2.94   3 2.94   6 2.94
                            10 2.94  11 2.94  25 2.96  19 2.96
  13  0.111  0.444  0.310-  23 2.91  20 2.91   5 2.94  18 2.94  11 2.94   7 2.94   4 2.94  16 2.94
                            10 2.94  14 2.94  15 2.94  22 2.94
  14  0.444  0.444  0.310-  21 2.91  23 2.91  15 2.94   6 2.94  12 2.94   8 2.94  17 2.94   5 2.94
                            16 2.94  13 2.94  11 2.94  24 2.94
  15  0.778  0.444  0.310-  24 2.92  22 2.92  14 2.94   6 2.94  17 2.94  12 2.94   9 2.94   4 2.94
                            10 2.94  13 2.94  18 2.94  19 2.95
  16  0.111  0.778  0.310-  23 2.91  18 2.94  12 2.94   7 2.94   1 2.94   8 2.94  13 2.94  10 2.94
                            14 2.94  17 2.94  25 2.96  26 2.96
  17  0.444  0.778  0.310-  27 2.92  24 2.92   9 2.94  15 2.94   2 2.94  10 2.94  11 2.94   8 2.94
                            14 2.94  16 2.94  18 2.94  26 2.95
  18  0.778  0.778  0.310-  22 2.92  27 2.92  16 2.94   7 2.94  13 2.94  12 2.94   3 2.94  11 2.94
                             9 2.94  15 2.94  17 2.94  25 2.95
  19  0.888  0.223  0.408-  24 2.93  22 2.93  21 2.93  20 2.93  28 2.95  15 2.95  26 2.95  25 2.95
                            10 2.96  12 2.96  32 3.06  31 3.06
  20  0.222  0.222  0.406-  36 2.74  10 2.91  11 2.91  13 2.91  26 2.93  19 2.93  23 2.95  21 2.95
                            27 2.95  22 2.95  29 2.99  31 2.99
  21  0.556  0.222  0.406-  36 2.74  12 2.91  14 2.91  11 2.91  25 2.93  19 2.93  20 2.95  23 2.95
                            27 2.95  24 2.95  30 2.99  32 2.99
  22  0.886  0.557  0.407-  24 2.91  27 2.91  18 2.92  15 2.92  25 2.93  19 2.93  13 2.94  23 2.95
                            20 2.95  35 2.96  33 3.03  31 3.03
  23  0.222  0.556  0.406-  36 2.74  16 2.91  13 2.91  14 2.91  25 2.93  26 2.93  20 2.95  21 2.95
                            22 2.95  24 2.95  33 2.99  34 2.99
  24  0.557  0.557  0.407-  27 2.91  22 2.91  15 2.92  17 2.92  26 2.93  19 2.93  14 2.94  21 2.95
                            23 2.95  35 2.96  32 3.03  34 3.03
  25  0.888  0.888  0.408-  22 2.93  27 2.93  23 2.93  21 2.93  28 2.95  18 2.95  19 2.95  26 2.95
                            16 2.96  12 2.96  33 3.06  30 3.06
  26  0.223  0.888  0.408-  27 2.93  24 2.93  20 2.93  23 2.93  28 2.95  17 2.95  19 2.95  25 2.95
                            10 2.96  16 2.96  29 3.06  34 3.06
  27  0.557  0.886  0.407-  24 2.91  22 2.91  17 2.92  18 2.92  26 2.93  25 2.93  11 2.94  20 2.95
                            21 2.95  35 2.96  29 3.03  30 3.03
  28  0.000  0.000  0.505-  25 2.95  19 2.95  26 2.95  34 3.00  32 3.00  33 3.00  30 3.00  31 3.00
                            29 3.00
  29  0.334  0.012  0.508-  30 2.82  31 2.84  36 2.85  35 2.99  20 2.99  28 3.00  27 3.03  26 3.06
                            34 3.16
  30  0.654  0.012  0.508-  29 2.82  32 2.84  36 2.85  35 2.99  21 2.99  28 3.00  27 3.03  25 3.06
                            33 3.16
  31  0.012  0.334  0.508-  33 2.82  29 2.84  36 2.85  35 2.99  20 2.99  28 3.00  22 3.03  19 3.06
                            32 3.16
  32  0.654  0.334  0.508-  34 2.82  30 2.84  36 2.85  35 2.99  21 2.99  28 3.00  24 3.03  19 3.06
                            31 3.16
  33  0.012  0.654  0.508-  31 2.82  34 2.84  36 2.85  35 2.99  23 2.99  28 3.00  22 3.03  25 3.06
                            30 3.16
  34  0.334  0.654  0.508-  32 2.82  33 2.84  36 2.85  35 2.99  23 2.99  28 3.00  24 3.03  26 3.06
                            29 3.16
  35  0.667  0.667  0.505-  24 2.96  27 2.96  22 2.96  29 2.99  34 2.99  32 2.99  31 2.99  30 2.99
                            33 2.99
  36  0.333  0.333  0.493-  39 2.27  20 2.74  23 2.74  21 2.74  33 2.85  31 2.85  29 2.85  30 2.85
                            34 2.85  32 2.85
  37  0.279  0.263  0.595-  39 0.98
  38  0.458  0.262  0.595-  39 0.98
  39  0.334  0.331  0.585-  37 0.98  38 0.98  36 2.27

  LATTYP: Found a hexagonal cell.
 ALAT       =     8.8135128021
 C/A-ratio  =     2.8075332270

  Lattice vectors:

 A1 = (  -4.4067569092,  -7.6327256898,   0.0000000000)
 A2 = (   8.8135128021,   0.0000000000,   0.0000000000)
 A3 = (   0.0000000000,   0.0000000000,  24.7442300386)

Analysis of symmetry for initial positions (statically):
 Subroutine PRICEL returns:
 Original cell was already a primitive cell.

 Routine SETGRP: Setting up the symmetry group for a
 hexagonal supercell.

 Subroutine GETGRP returns: Found  1 space group operations
 (whereof  1 operations were pure point group operations)
 out of a pool of 24 trial point group operations.

The static configuration has the point symmetry C_1 .

Analysis of symmetry for dynamics (positions and initial velocities):
 Subroutine PRICEL returns:
 Original cell was already a primitive cell.

[...]

The dynamic configuration has the point symmetry C_1 .

Analysis of constrained symmetry for selective dynamics:
 Subroutine PRICEL returns:
[...]
     41      -4.8131      2.00000
     42      -4.7870      2.00000
     43      -4.7310      2.00000
     44      -4.6861      2.00000
     45      -4.6574      2.00000
     46      -4.6470      2.00000
     47      -4.6103      2.00000
     48      -4.5905      2.00000
     49      -4.5727      2.00000
     50      -4.4841      2.00000
     51      -4.4781      2.00000
     52      -4.4371      2.00000
     53      -4.4237      2.00000
     54      -4.4097      2.00000
     55      -4.3937      2.00000
     56      -4.3714      2.00000
     57      -4.3503      2.00000
     58      -4.3284      2.00000
     59      -4.2898      2.00000
     60      -4.2752      2.00000
[...]
    238       5.8367      0.00000
    239       6.0181      0.00000
    240       6.0690      0.00000
    241       6.1344      0.00000
    242       6.2602      0.00000
    243       6.3738      0.00000
    244       6.4015      0.00000
    245       6.4628      0.00000
    246       6.5731      0.00000
    247       6.5971      0.00000
    248       6.6455      0.00000
    249       6.7140      0.00000
    250       6.7394      0.00000
    251       6.8502      0.00000
    252       6.8981      0.00000

 soft charge-density along one line, spin component           1
         0         1         2         3         4         5         6         7         8         9
 total charge-density along one line

------------------------ aborting loop because EDIFF is reached ----------------------------------------

 total charge

# of ion       s       p       d       tot
    1        0.550   0.236   8.768   9.553
    2        0.542   0.241   8.765   9.547
    3        0.542   0.241   8.765   9.547
    4        0.541   0.241   8.765   9.547
    5        0.547   0.240   8.761   9.549
    6        0.541   0.241   8.765   9.547
    7        0.541   0.241   8.765   9.547
    8        0.541   0.241   8.765   9.547
    9        0.544   0.240   8.765   9.549
   10        0.528   0.306   8.767   9.601
   11        0.522   0.307   8.779   9.607
   12        0.528   0.306   8.767   9.601
   13        0.520   0.307   8.779   9.606
   14        0.520   0.307   8.779   9.606
   15        0.515   0.307   8.774   9.596
   16        0.527   0.306   8.767   9.600
   17        0.515   0.307   8.774   9.596
   18        0.515   0.307   8.774   9.596
   19        0.520   0.295   8.769   9.584
   20        0.586   0.348   8.714   9.648
   21        0.586   0.348   8.714   9.648
   22        0.508   0.305   8.777   9.590
   23        0.585   0.347   8.715   9.647
   24        0.508   0.305   8.777   9.590
   25        0.519   0.294   8.770   9.583
   26        0.519   0.294   8.770   9.583
   27        0.509   0.305   8.776   9.591
   28        0.540   0.229   8.750   9.519
   29        0.601   0.260   8.722   9.583
   30        0.601   0.260   8.722   9.583
   31        0.600   0.260   8.722   9.582
   32        0.600   0.260   8.722   9.582
   33        0.596   0.252   8.727   9.575
   34        0.596   0.252   8.727   9.575
   35        0.538   0.230   8.754   9.522
   36        0.627   0.638   2.908   4.173
   37        0.595   0.117   0.000   0.713
   38        0.595   0.117   0.000   0.712
   39        1.567   3.624   0.000   5.190
tot         22.475  14.265 309.377 346.118

  FORCE on cell =-STRESS in cart. coord.  units (eV):
  Direction    XX          YY          ZZ          XY          YZ          ZX
  Alpha Z   919.36827   919.36827   919.36827
  Ewald  153202.06718153133.08021************    -0.21893   -12.67310     0.23149
  Hartree161572.34876161560.06604************    -0.04330     5.04411     0.05314
  E(xc)   -1785.18211 -1785.33710 -1792.87785    -0.00071    -0.02765     0.00224
  Local  ************************326952.93618     0.20378     0.15855    -0.23285
  n-local   -74.95145   -75.57734   -43.26984     0.00112    -0.25326     0.00002
  augment  2369.50047  2370.73507  2391.43244     0.00258     0.41896    -0.00486
  Kinetic  5529.08530  5547.97986  5612.37410     0.06380     7.15148    -0.06183
  Fock        0.00000     0.00000     0.00000     0.00000     0.00000     0.00000
  Total     -22.71600   -22.77927     1.70048     0.00833    -0.18091    -0.01266
  in kB     -21.86451   -21.92541     1.63674     0.00801    -0.17413    -0.01218

 VOLUME and BASIS-vectors are now :
  energy-cutoff  :      500.00
  volume of cell :     1664.57
      direct lattice vectors                 reciprocal lattice vectors
     8.813512802  0.000000000  0.000000000     0.113462137 -0.065507406  0.000000000
     4.406756909  7.632725690  0.000000000     0.000000000  0.131014796  0.000000000
     0.000000000  0.000000000 24.744230039     0.000000000  0.000000000  0.040413462

  length of vectors
     8.813512802  8.813512802 24.744230039     0.131014796  0.131014796  0.040413462

 FORCES acting on ions
    electron-ion (+dipol)            ewald-force                    non-local-force                 convergence-correction
   0.128E-02 0.241E-02 0.266E+04   0.426E-04 -.103E-01 -.266E+04   0.160E-03 0.135E-02 -.655E+00   -.145E-02 0.751E-02 -.120E+00
   0.528E+00 -.159E+00 0.267E+04   -.552E+00 -.873E-02 -.267E+04   0.280E-01 0.143E+00 -.259E+00   0.749E-04 0.120E-01 -.109E+00
   -.530E+00 -.170E+00 0.267E+04   0.552E+00 -.870E-02 -.267E+04   -.277E-01 0.143E+00 -.259E+00   0.178E-02 0.224E-01 -.107E+00
   0.121E+00 0.523E+00 0.267E+04   -.275E+00 -.461E+00 -.267E+04   0.140E+00 -.530E-01 -.263E+00   0.247E-02 -.103E-02 -.110E+00
   -.142E-01 -.348E-01 0.267E+04   0.129E-03 0.175E-01 -.267E+04   0.176E-03 -.362E-02 0.239E+00   0.141E-01 0.151E-01 -.517E-01
   -.111E+00 0.518E+00 0.267E+04   0.274E+00 -.461E+00 -.267E+04   -.140E+00 -.527E-01 -.263E+00   -.121E-01 0.391E-02 -.106E+00
   -.434E+00 -.349E+00 0.267E+04   0.277E+00 0.470E+00 -.267E+04   0.117E+00 -.967E-01 -.304E+00   0.239E-01 -.179E-01 -.114E+00
   0.425E+00 -.342E+00 0.267E+04   -.277E+00 0.470E+00 -.267E+04   -.117E+00 -.968E-01 -.305E+00   -.147E-01 -.246E-01 -.113E+00
   0.141E-01 0.299E-01 0.267E+04   0.141E-03 -.695E-02 -.267E+04   -.229E-03 -.176E-02 -.324E+00   -.142E-01 -.207E-01 0.763E-02
   0.535E+01 0.308E+01 0.887E+03   -.495E+01 -.285E+01 -.886E+03   -.403E+00 -.241E+00 -.651E+00   -.255E-01 -.611E-02 -.339E+00
   -.893E-02 0.116E+01 0.890E+03   0.297E-03 -.114E+01 -.890E+03   -.173E-03 -.534E-01 -.140E+00   0.895E-02 -.300E-01 -.323E+00
   -.534E+01 0.307E+01 0.887E+03   0.495E+01 -.285E+01 -.886E+03   0.402E+00 -.241E+00 -.651E+00   0.206E-01 -.174E-02 -.348E+00
   0.100E+01 -.702E+00 0.890E+03   -.988E+00 0.676E+00 -.890E+03   -.305E-01 0.251E-01 -.130E+00   -.313E-01 0.332E-01 -.324E+00
   -.102E+01 -.700E+00 0.890E+03   0.988E+00 0.676E+00 -.890E+03   0.304E-01 0.252E-01 -.130E+00   0.484E-01 0.318E-01 -.334E+00
   0.866E-02 0.499E+01 0.892E+03   -.163E-04 -.519E+01 -.891E+03   -.512E-03 0.145E-01 -.556E+00   -.817E-02 0.996E-01 -.338E+00
   -.267E-02 -.603E+01 0.887E+03   0.263E-03 0.560E+01 -.886E+03   0.576E-03 0.463E+00 -.653E+00   0.187E-02 0.447E-02 -.335E+00
   0.445E+01 -.244E+01 0.892E+03   -.458E+01 0.254E+01 -.891E+03   -.570E-02 0.506E-02 -.562E+00   0.684E-01 -.637E-01 -.334E+00
   -.445E+01 -.244E+01 0.892E+03   0.458E+01 0.254E+01 -.891E+03   0.611E-02 0.544E-02 -.562E+00   -.695E-01 -.564E-01 -.330E+00
   -.128E-01 -.119E+01 -.915E+03   -.148E-02 0.124E+01 0.915E+03   -.469E-03 -.582E-01 0.453E+00   0.151E-01 -.466E-02 -.970E-01
   -.796E+01 -.522E+01 -.888E+03   0.921E+01 0.595E+01 0.889E+03   -.118E+01 -.689E+00 -.165E+01   -.617E-01 -.358E-01 -.211E+00
   0.798E+01 -.522E+01 -.888E+03   -.920E+01 0.595E+01 0.889E+03   0.118E+01 -.689E+00 -.165E+01   0.426E-01 -.354E-01 -.214E+00
   -.133E+02 0.743E+01 -.894E+03   0.130E+02 -.726E+01 0.894E+03   0.412E+00 -.221E+00 0.609E+00   -.741E-01 0.357E-01 -.192E+00
   0.598E-02 0.904E+01 -.889E+03   0.170E-02 -.105E+02 0.891E+03   0.254E-03 0.140E+01 -.149E+01   -.825E-02 0.627E-01 -.210E+00
   0.133E+02 0.743E+01 -.894E+03   -.130E+02 -.726E+01 0.894E+03   -.412E+00 -.221E+00 0.610E+00   0.785E-01 0.420E-01 -.196E+00
   0.511E+00 0.117E+01 -.915E+03   -.577E+00 -.116E+01 0.915E+03   0.656E-01 0.965E-03 0.543E+00   0.184E-01 0.249E-02 -.996E-01
   -.515E+00 0.117E+01 -.915E+03   0.577E+00 -.117E+01 0.915E+03   -.655E-01 0.692E-03 0.544E+00   -.149E-01 0.107E-01 -.963E-01
   0.316E-02 -.145E+02 -.893E+03   -.322E-04 0.141E+02 0.893E+03   -.237E-03 0.471E+00 0.560E+00   -.288E-02 -.821E-01 -.185E+00
   -.731E-02 0.217E+01 -.259E+04   -.596E-03 -.224E+01 0.259E+04   -.510E-04 0.438E-01 0.443E+00   0.789E-02 0.391E-03 0.149E-01
   0.263E+02 0.352E+02 -.258E+04   -.249E+02 -.331E+02 0.258E+04   -.146E+01 -.215E+01 -.987E+00   -.758E-01 -.755E-01 -.189E-01
   -.263E+02 0.351E+02 -.258E+04   0.249E+02 -.331E+02 0.258E+04   0.146E+01 -.216E+01 -.988E+00   0.595E-01 -.736E-01 -.171E-01
   0.398E+02 0.151E+01 -.258E+04   -.371E+02 -.130E+01 0.259E+04   -.265E+01 -.203E+00 -.998E+00   -.100E+00 -.259E-01 -.191E-01
   -.397E+02 0.151E+01 -.258E+04   0.371E+02 -.130E+01 0.259E+04   0.265E+01 -.203E+00 -.993E+00   0.888E-01 -.202E-01 -.142E-01
   0.116E+02 -.335E+02 -.259E+04   -.106E+02 0.313E+02 0.259E+04   -.108E+01 0.226E+01 -.532E+00   -.212E-01 0.851E-01 -.552E-02
   -.116E+02 -.334E+02 -.259E+04   0.106E+02 0.312E+02 0.259E+04   0.108E+01 0.226E+01 -.530E+00   0.141E-01 0.880E-01 -.347E-02
   0.106E-01 0.135E+01 -.259E+04   -.523E-02 -.136E+01 0.259E+04   0.210E-03 0.136E-01 0.546E+00   -.595E-02 -.250E-02 -.373E-01
   -.446E-02 -.401E+01 -.103E+04   0.660E-02 0.402E+01 0.103E+04   0.179E-02 0.467E-02 0.148E+01   0.141E-03 0.341E-02 -.581E-05
   0.668E+02 0.404E+02 -.288E+03   -.736E+02 -.445E+02 0.290E+03   0.678E+01 0.417E+01 -.205E+01   -.578E-02 -.340E-02 0.147E-01
   -.664E+02 0.409E+02 -.288E+03   0.731E+02 -.451E+02 0.290E+03   -.673E+01 0.422E+01 -.209E+01   0.566E-02 -.361E-02 0.148E-01
   -.297E+00 -.547E+02 -.160E+04   0.505E+00 0.956E+02 0.159E+04   -.200E+00 -.408E+02 0.753E+01   -.459E-02 0.509E-02 0.112E+00
   0.182E+00 0.326E+02 0.131E+02   0.423E-13 -.213E-12 0.500E-11   -.153E+00 -.326E+02 -.707E+01   -.308E-01 -.192E-01 -.529E+01

 POSITION                                       TOTAL-FORCE (eV/Angst)
      0.00000      0.00000      5.28038         0.000082      0.000691     -0.113685
      2.93784      0.00000      5.28038         0.003785     -0.013419     -0.009170
      5.87568      0.00000      5.28038        -0.003660     -0.013373     -0.009146
      1.46892      2.54424      5.28038        -0.010904      0.007381     -0.007432
      4.40676      2.54424      5.28038         0.000222     -0.006186     -0.015555
      7.34459      2.54424      5.28038         0.011011      0.007323     -0.007268
      2.93784      5.08848      5.28038        -0.015455      0.006302     -0.003578
      5.87568      5.08848      5.28038         0.015538      0.006421     -0.003490
      8.81351      5.08848      5.28038        -0.000121      0.000201     -0.027643
      1.46892      0.84808      7.67911        -0.034094     -0.018159      0.068293
      4.40676      0.84808      7.67911         0.000191     -0.060257     -0.064230
      7.34459      0.84808      7.67911         0.034079     -0.018134      0.068386
      2.93784      3.39232      7.67911        -0.048115      0.032754     -0.063609
      5.87568      3.39232      7.67911         0.048598      0.032727     -0.063645
      8.81351      3.39232      7.67911         0.000010     -0.083105      0.067991
      4.40676      5.93656      7.67911         0.000092      0.041373      0.060702
      7.34459      5.93656      7.67911        -0.071794      0.040873      0.072108
     10.28243      5.93656      7.67911         0.071995      0.040842      0.072074
      8.81351      1.70341     10.09804         0.000337     -0.016950     -0.012453
      2.93277      1.69323     10.04724         0.000765      0.005668     -0.077269
      5.88075      1.69323     10.04724        -0.001392      0.005653     -0.077515
     10.26617      4.24979     10.06844         0.005321     -0.008507      0.008846
      4.40676      4.24626     10.04724        -0.000264      0.019838     -0.052026
      7.36086      4.24979     10.06844        -0.005260     -0.008577      0.009037
     11.74508      6.78102     10.09804         0.018656      0.014041     -0.026901
      5.88195      6.78102     10.09804        -0.018534      0.014168     -0.026911
      8.81351      6.76586     10.06844         0.000056      0.011575      0.000825
      0.00000      0.00000     12.50054        -0.000013     -0.018282     -0.009593
      2.99863      0.09131     12.57640        -0.118224     -0.148261     -0.070419
      5.81488      0.09131     12.57640         0.117996     -0.148636     -0.070500
      1.57839      2.55123     12.57640        -0.141320     -0.015979     -0.058464
      7.23512      2.55123     12.57640         0.142111     -0.015802     -0.059647
      2.98652      4.99018     12.57640        -0.076205      0.145090     -0.111170
      5.82700      4.99018     12.57640         0.076284      0.145675     -0.111746
      8.81351      5.08848     12.50707        -0.000337      0.000133      0.012121
      4.40676      2.54424     12.20058         0.004116      0.020395      0.706140
      3.61390      2.00633     14.72119        -0.002851     -0.004849      0.000514
      5.19534      1.99996     14.72562        -0.006247      0.001380     -0.009920
      4.40735      2.52765     14.47023         0.003546     -0.002027      0.015945
    total drift:                               -0.002067      0.012514      0.759760

  FREE ENERGIE OF THE ION-ELECTRON SYSTEM (eV)
  free  energy   TOTEN  =      -132.81148692 eV

  energy  without entropy=     -132.81148692  energy(sigma->0) =     -132.81148692

 stress matrix after NEB project (eV)
    -22.71600      0.00833     -0.01266
      0.00833    -22.77927     -0.18091
     -0.01266     -0.18091      1.70048
  FORCES: max atom, RMS     0.016460    0.003367
  FORCE total and by dimension    0.021028    0.015945
  Stress total and by dimension   32.215982   22.779273
|           W    W    AA    RRRRR   N    N  II  N    N   GGGG   !!!           |
|           W    W   A  A   R    R  NN   N  II  NN   N  G    G  !!!           |
|           W    W  A    A  R    R  N N  N  II  N N  N  G       !!!           |
|           W WW W  AAAAAA  RRRRR   N  N N  II  N  N N  G  GGG   !            |
|           WW  WW  A    A  R   R   N   NN  II  N   NN  G    G                |
|           W    W  A    A  R    R  N    N  II  N    N   GGGG   !!!           |
|     Tetrahedron method does not include variations of the Fermi             |
|     occupations, so forces and stress will be inaccurate. We suggest        |
|     using a different smearing scheme ISMEAR = 1 or 2 for metals in         |
|     relaxations.                                                            |

 total charge

# of ion       s       p       d       tot
    1        0.550   0.236   8.768   9.553
    2        0.542   0.241   8.765   9.547
    3        0.542   0.241   8.765   9.547
    4        0.541   0.241   8.765   9.547
    5        0.547   0.240   8.761   9.549
    6        0.541   0.241   8.765   9.547
    7        0.541   0.241   8.765   9.547
    8        0.541   0.241   8.765   9.547
    9        0.544   0.240   8.765   9.549
   10        0.528   0.306   8.767   9.601
   11        0.522   0.307   8.779   9.607
   12        0.528   0.306   8.767   9.601
   13        0.520   0.307   8.779   9.606
   14        0.520   0.307   8.779   9.606
   15        0.515   0.307   8.774   9.596
   16        0.527   0.306   8.767   9.600
   17        0.515   0.307   8.774   9.596
   18        0.515   0.307   8.774   9.596
   19        0.520   0.295   8.769   9.584
   20        0.586   0.348   8.714   9.648
   21        0.586   0.348   8.714   9.648
   22        0.508   0.305   8.777   9.590
   23        0.585   0.347   8.715   9.647
   24        0.508   0.305   8.777   9.590
   25        0.519   0.294   8.770   9.583
   26        0.519   0.294   8.770   9.583
   27        0.509   0.305   8.776   9.591
   28        0.540   0.229   8.750   9.519
   29        0.601   0.260   8.722   9.583
   30        0.601   0.260   8.722   9.583
   31        0.600   0.260   8.722   9.582
   32        0.600   0.260   8.722   9.582
   33        0.596   0.252   8.727   9.575
   34        0.596   0.252   8.727   9.575
   35        0.538   0.230   8.754   9.522
   36        0.627   0.638   2.908   4.173
   37        0.595   0.117   0.000   0.713
   38        0.595   0.117   0.000   0.712
   39        1.567   3.624   0.000   5.190
tot         22.475  14.265 309.377 346.118

 BZINTS: Fermi energy:    0.441165;  398.000000 electrons
         Band energy:-0.139288E+04;  BLOECHL correction:   -0.032581