 vasp.6.2.0 18Jan21 (build Jun 12 2021 23:27:24) complex

 executed on             LinuxIFC date 2022.05.28  01:56:16

 INCAR:
   ISMEAR = -5
   SIGMA = 0.1
   ISPIN = 1
   EDIFF = 1.d-5
   EDIFFG = -0.01
   NSW = 0
   NELM = 150
   ENCUT = 500
   ISIF = 2
   IBRION = 2
   LREAL = Auto
   ALGO = Fast
   ICHARG = 11
   LORBIT = 10
   LCHARG = .F.
   LWAVE = .F.

 POTCAR:    PAW_PBE Ag 02Apr2005
 POTCAR:    PAW_PBE Hf 20Jan2003
 POTCAR:    PAW_PBE C 08Apr2002
 POTCAR:    PAW_PBE O 08Apr2002
|           W    W    AA    RRRRR   N    N  II  N    N   GGGG   !!!           |
|           W    W   A  A   R    R  NN   N  II  NN   N  G    G  !!!           |
|           W    W  A    A  R    R  N N  N  II  N N  N  G       !!!           |
|           W WW W  AAAAAA  RRRRR   N  N N  II  N  N N  G  GGG   !            |
|           WW  WW  A    A  R   R   N   NN  II  N   NN  G    G                |
|           W    W  A    A  R    R  N    N  II  N    N   GGGG   !!!           |
|     For optimal performance we recommend to set                             |
|       NCORE = 2 up to number-of-cores-per-socket                            |
|     This setting can greatly improve the performance of VASP for DFT.       |
|     The default, NCORE=1 might be grossly inefficient on modern             |
|     multi-core architectures or massively parallel machines. Do your        |
|     Unfortunately you need to use the default for GW and RPA                |
|     calculations (for HF NCORE is supported but not extensively tested      |
|     yet).                                                                   |

 POTCAR:    PAW_PBE Ag 02Apr2005
   VRHFIN =Ag : s1 d10

   TITEL  = PAW_PBE Ag 02Apr2005
   POMASS =  107.868; ZVAL   =   11.000    mass and valenz
   ENMAX  =  249.844; ENMIN  =  187.383 eV

 POTCAR:    PAW_PBE Hf 20Jan2003
   VRHFIN =Hf: 6s5d

   TITEL  = PAW_PBE Hf 20Jan2003
   POMASS =  178.490; ZVAL   =    4.000    mass and valenz
   ENMAX  =  220.334; ENMIN  =  165.250 eV

 POTCAR:    PAW_PBE C 08Apr2002
   VRHFIN =C: s2p2

[...]

 POTCAR:    PAW_PBE O 08Apr2002
   VRHFIN =O: s2p4

   TITEL  = PAW_PBE O 08Apr2002
   POMASS =   16.000; ZVAL   =    6.000    mass and valenz
   ENMAX  =  400.000; ENMIN  =  300.000 eV

 Optimization of the real space projectors (new method)

 maximal supplied QI-value         = 15.12
 optimisation between [QCUT,QGAM] = [ 11.34, 22.83] = [ 36.00,145.93] Ry
 Optimized for a Real-space Cutoff    1.43 Angstroem

   l    n(q)    QCUT    max X(q) W(low)/X(q) W(high)/X(q)  e(spline)
   2      9    11.338    53.897    0.16E-03    0.20E-03    0.28E-06
   2      9    11.338    52.416    0.16E-03    0.20E-03    0.29E-06
   0     10    11.338   122.045    0.31E-04    0.76E-04    0.15E-06
   0     10    11.338    73.629    0.30E-04    0.72E-04    0.15E-06
   1      9    11.338    15.255    0.20E-03    0.19E-04    0.17E-06
   1      9    11.338     9.562    0.16E-03    0.15E-04    0.14E-06
 Optimization of the real space projectors (new method)

[...]

   l    n(q)    QCUT    max X(q) W(low)/X(q) W(high)/X(q)  e(spline)
   0      7    11.310   115.676    0.43E-03    0.13E-02    0.19E-06
   0      7    11.310    87.132    0.43E-03    0.13E-02    0.18E-06
   1      6    11.310     4.429    0.42E-03    0.74E-03    0.11E-06
   1      6    11.310     2.733    0.34E-03    0.55E-03    0.92E-07
 Optimization of the real space projectors (new method)

 maximal supplied QI-value         = 24.76
 optimisation between [QCUT,QGAM] = [ 11.39, 22.77] = [ 36.31,145.25] Ry
 Optimized for a Real-space Cutoff    1.00 Angstroem

   l    n(q)    QCUT    max X(q) W(low)/X(q) W(high)/X(q)  e(spline)
   0      7    11.387    20.381    0.39E-03    0.13E-02    0.15E-06
   0      7    11.387    15.268    0.42E-03    0.14E-02    0.17E-06
   1      6    11.387     5.964    0.41E-03    0.11E-02    0.17E-06
   1      6    11.387     5.382    0.39E-03    0.87E-03    0.15E-06
  PAW_PBE Ag 02Apr2005                  :
  PAW_PBE Hf 20Jan2003                  :
  PAW_PBE C 08Apr2002                   :
  PAW_PBE O 08Apr2002                   :

 POSCAR: Ag-Hf-CO2
  positions in direct lattice
  velocities in cartesian coordinates
 exchange correlation table for  LEXCH =        8
   RHO(1)=    0.500       N(1)  =     2000
   RHO(2)=  100.500       N(2)  =     4000

 VTST: version 3.2, (02/03/18)

 CHAIN: initializing optimizer

 OPT: Using VASP Conjugate-Gradient optimizer
 CHAIN: Read ICHAIN            0

 POSCAR: Ag-Hf-CO2
  positions in direct lattice
  velocities in cartesian coordinates

 ion  position               nearest neighbor table
   1  0.000  0.000  0.217-   2 2.93   8 2.93   7 2.93   6 2.93   4 2.93  12 2.93  16 2.93  10 2.93
                             3 2.93
   2  0.333  0.000  0.217-   1 2.93   8 2.93   9 2.93   3 2.93   4 2.93   5 2.93  10 2.93  17 2.93
                            11 2.93
   3  0.667  0.000  0.217-   9 2.93   2 2.93   5 2.93  11 2.93   7 2.93  18 2.93   1 2.93   6 2.93
                            12 2.93
   4  0.000  0.333  0.217-   5 2.93   6 2.93   2 2.93   1 2.93   7 2.93  13 2.93  15 2.93   9 2.93
                            10 2.93
   5  0.333  0.333  0.217-   4 2.93   3 2.93   7 2.93   2 2.93   8 2.93  14 2.93  13 2.93  11 2.93
                             6 2.93
   6  0.667  0.333  0.217-   4 2.93   9 2.93   1 2.93  15 2.93   8 2.93  12 2.93   3 2.93   5 2.93
                            14 2.93
   7  0.000  0.667  0.217-   8 2.93   1 2.93   5 2.93   3 2.93   4 2.93  16 2.93  18 2.93  13 2.93
                             9 2.93
   8  0.333  0.667  0.217-   7 2.93   1 2.93   2 2.93   9 2.93   5 2.93  16 2.93   6 2.93  17 2.93
                            14 2.93
   9  0.667  0.667  0.217-   3 2.93   2 2.93   8 2.93   6 2.93  17 2.93   4 2.93  15 2.93   7 2.93
                            18 2.93
  10  0.111  0.111  0.315-  20 2.90  19 2.92  26 2.92  12 2.93  16 2.93  15 2.93  17 2.93  13 2.93
                            11 2.93   2 2.93   1 2.93   4 2.93
  11  0.444  0.111  0.315-  21 2.90  20 2.90  14 2.93  17 2.93  18 2.93   3 2.93  12 2.93  13 2.93
                            10 2.93   5 2.93   2 2.93  27 2.93
  12  0.778  0.111  0.315-  21 2.90  25 2.92  19 2.92  10 2.93  16 2.93  18 2.93  15 2.93  11 2.93
                             1 2.93  14 2.93   6 2.93   3 2.93
  13  0.111  0.444  0.315-  20 2.90  23 2.90  15 2.93  14 2.93  18 2.93  10 2.93  11 2.93  16 2.93
                             4 2.93   5 2.93   7 2.93  22 2.93
  14  0.444  0.444  0.315-  23 2.90  21 2.90  13 2.93  11 2.93  16 2.93   5 2.93  12 2.93  17 2.93
                             8 2.93  15 2.93   6 2.93  24 2.93
  15  0.778  0.444  0.315-  19 2.92  24 2.93  22 2.93  13 2.93  10 2.93  12 2.93  17 2.93  18 2.93
                             4 2.93   6 2.93   9 2.93  14 2.93
  16  0.111  0.778  0.315-  23 2.90  26 2.92  25 2.92  18 2.93  12 2.93  10 2.93  14 2.93  17 2.93
                            13 2.93   7 2.93   8 2.93   1 2.93
  17  0.444  0.778  0.315-  26 2.92  27 2.93  24 2.93  11 2.93  10 2.93   9 2.93  18 2.93  15 2.93
                            16 2.93   2 2.93  14 2.93   8 2.93
  18  0.778  0.778  0.315-  25 2.92  22 2.93  27 2.93  16 2.93  12 2.93  13 2.93  11 2.93  17 2.93
                            15 2.93   7 2.93   3 2.93   9 2.93
  19  0.889  0.222  0.413-  10 2.92  12 2.92  15 2.92  20 2.93  21 2.93  26 2.93  25 2.93  24 2.93
                            22 2.93  28 2.94  32 2.98  31 2.98
  20  0.222  0.222  0.412-  36 2.86  10 2.90  13 2.90  11 2.90  19 2.93  26 2.93  27 2.93  22 2.93
                            21 2.94  23 2.94  31 2.97  29 2.97
  21  0.556  0.222  0.412-  36 2.86  12 2.90  11 2.90  14 2.90  25 2.93  19 2.93  27 2.93  24 2.93
                            20 2.94  23 2.94  30 2.97  32 2.97
  22  0.889  0.556  0.413-  24 2.93  27 2.93  18 2.93  15 2.93  25 2.93  19 2.93  13 2.93  23 2.93
                            20 2.93  35 2.94  33 2.96  31 2.96
  23  0.222  0.556  0.412-  36 2.86  16 2.90  14 2.90  13 2.90  26 2.93  25 2.93  22 2.93  24 2.93
                            21 2.94  20 2.94  34 2.97  33 2.97
  24  0.556  0.556  0.413-  27 2.93  22 2.93  15 2.93  17 2.93  19 2.93  26 2.93  14 2.93  23 2.93
                            21 2.93  35 2.94  32 2.96  34 2.96
  25  0.889  0.889  0.413-  16 2.92  12 2.92  18 2.92  23 2.93  21 2.93  26 2.93  19 2.93  22 2.93
                            27 2.93  28 2.94  33 2.98  30 2.98
  26  0.222  0.889  0.413-  16 2.92  10 2.92  17 2.92  23 2.93  20 2.93  25 2.93  19 2.93  27 2.93
                            24 2.93  28 2.94  34 2.98  29 2.98
  27  0.556  0.889  0.413-  24 2.93  22 2.93  17 2.93  18 2.93  26 2.93  25 2.93  11 2.93  20 2.93
                            21 2.93  35 2.94  29 2.96  30 2.96
  28  0.000  0.000  0.511-  26 2.94  25 2.94  19 2.94  29 2.94  34 2.94  33 2.94  32 2.94  31 2.94
                            30 2.94
  29  0.333  0.003  0.513-  37 2.47  30 2.90  31 2.91  36 2.91  35 2.94  28 2.94  27 2.96  20 2.97
                            26 2.98  34 2.98
  30  0.664  0.003  0.513-  29 2.90  32 2.91  36 2.91  35 2.94  28 2.94  27 2.96  21 2.97  25 2.98
                            33 2.98
  31  0.003  0.333  0.513-  37 2.74  33 2.90  29 2.91  36 2.91  35 2.94  28 2.94  22 2.96  20 2.97
                            19 2.98  32 2.98
  32  0.664  0.333  0.513-  34 2.90  30 2.91  36 2.91  35 2.94  28 2.94  24 2.96  21 2.97  19 2.98
                            31 2.98
  33  0.003  0.664  0.513-  31 2.90  34 2.91  36 2.91  35 2.94  28 2.94  22 2.96  23 2.97  25 2.98
                            30 2.98
  34  0.333  0.664  0.513-  32 2.90  33 2.91  36 2.91  35 2.94  28 2.94  24 2.96  23 2.97  26 2.98
                            29 2.98
  35  0.667  0.667  0.512-  30 2.94  29 2.94  32 2.94  34 2.94  31 2.94  33 2.94  24 2.94  27 2.94
                            22 2.94
  36  0.333  0.333  0.506-  39 2.03  37 2.43  21 2.86  20 2.86  23 2.86  31 2.91  33 2.91  30 2.91
                            29 2.91  34 2.91  32 2.91
  37  0.271  0.214  0.588-  38 1.21  39 1.34  36 2.43  29 2.47  31 2.74
  38  0.230  0.154  0.626-  37 1.21
  39  0.333  0.326  0.590-  37 1.34  36 2.03

  LATTYP: Found a hexagonal cell.
 ALAT       =     8.7913665772
 C/A-ratio  =     2.7703738524

  Lattice vectors:

 A1 = (  -4.3956832886,  -7.6135467898,   0.0000000000)
 A2 = (   8.7913665771,   0.0000000000,   0.0000000000)
 A3 = (   0.0000000000,   0.0000000000,  24.3553720923)

Analysis of symmetry for initial positions (statically):
 Subroutine PRICEL returns:
 Original cell was already a primitive cell.

 Routine SETGRP: Setting up the symmetry group for a
 hexagonal supercell.

 Subroutine GETGRP returns: Found  1 space group operations
 (whereof  1 operations were pure point group operations)
 out of a pool of 24 trial point group operations.

The static configuration has the point symmetry C_1 .

Analysis of symmetry for dynamics (positions and initial velocities):
 Subroutine PRICEL returns:
 Original cell was already a primitive cell.

[...]

The dynamic configuration has the point symmetry C_1 .

Analysis of constrained symmetry for selective dynamics:
 Subroutine PRICEL returns:
 Original cell was already a primitive cell.

[...]
     41      -5.0447      2.00000
     42      -5.0030      2.00000
     43      -4.9667      2.00000
     44      -4.9371      2.00000
     45      -4.9348      2.00000
     46      -4.9237      2.00000
     47      -4.9054      2.00000
     48      -4.8977      2.00000
     49      -4.8158      2.00000
     50      -4.8101      2.00000
     51      -4.7947      2.00000
     52      -4.7736      2.00000
     53      -4.7660      2.00000
     54      -4.7598      2.00000
     55      -4.7458      2.00000
     56      -4.7392      2.00000
     57      -4.7326      2.00000
     58      -4.7217      2.00000
     59      -4.6825      2.00000
     60      -4.6661      2.00000
[...]
    238       5.3916      0.00000
    239       5.5114      0.00000
    240       5.6978      0.00000
    241       5.7392      0.00000
    242       5.8232      0.00000
    243       5.8719      0.00000
    244       5.9301      0.00000
    245       6.0714      0.00000
    246       6.2000      0.00000
    247       6.5950      0.00000
    248       6.6742      0.00000
    249       6.6957      0.00000
    250       6.7231      0.00000
    251       6.7495      0.00000
    252       6.7676      0.00000

 soft charge-density along one line, spin component           1
         0         1         2         3         4         5         6         7         8         9
 total charge-density along one line

------------------------ aborting loop because EDIFF is reached ----------------------------------------

 total charge

# of ion       s       p       d       tot
    1        0.422   0.201   9.177   9.800
    2        0.415   0.203   9.178   9.797
    3        0.417   0.203   9.177   9.797
    4        0.417   0.203   9.177   9.797
    5        0.418   0.202   9.177   9.797
    6        0.413   0.204   9.178   9.795
    7        0.415   0.204   9.176   9.795
    8        0.414   0.204   9.178   9.796
    9        0.416   0.203   9.177   9.796
   10        0.412   0.268   9.164   9.843
   11        0.406   0.269   9.167   9.842
   12        0.407   0.271   9.163   9.841
   13        0.408   0.268   9.166   9.842
   14        0.403   0.271   9.167   9.841
   15        0.401   0.269   9.164   9.835
   16        0.408   0.271   9.163   9.842
   17        0.403   0.269   9.164   9.837
   18        0.399   0.271   9.165   9.835
   19        0.401   0.266   9.165   9.832
   20        0.440   0.299   9.135   9.874
   21        0.439   0.301   9.133   9.873
   22        0.393   0.274   9.162   9.829
   23        0.442   0.300   9.134   9.875
   24        0.398   0.269   9.165   9.833
   25        0.407   0.261   9.169   9.838
   26        0.400   0.269   9.162   9.832
   27        0.392   0.276   9.160   9.828
   28        0.413   0.200   9.177   9.790
   29        0.421   0.267   9.141   9.830
   30        0.449   0.216   9.157   9.821
   31        0.434   0.232   9.156   9.821
   32        0.451   0.219   9.149   9.819
   33        0.451   0.218   9.151   9.820
   34        0.450   0.220   9.149   9.819
   35        0.408   0.207   9.172   9.786
   36        0.568   0.555   1.943   3.066
   37        0.870   1.627   0.000   2.497
   38        1.602   3.513   0.000   5.115
   39        1.590   3.487   0.000   5.077
tot         19.211  17.733 322.659 359.603

  FORCE on cell =-STRESS in cart. coord.  units (eV):
  Direction    XX          YY          ZZ          XY          YZ          ZX
  Alpha Z   709.48111   709.48111   709.48111
  Ewald  148697.01226148611.24033************   219.65281   -30.28777   -66.81635
  Hartree158740.95413158702.30068************   100.21367    18.32590     5.86109
  E(xc)   -2119.57280 -2119.76466 -2125.86091     0.56715     0.04768    -0.06467
  Local  ************************317891.89105  -306.32422     1.41445    47.09578
  n-local  -355.54107  -354.66350  -359.00776    -2.55450    -0.10917     0.01966
  augment  3231.58688  3231.82417  3245.35857    -0.18805     0.22674     0.36001
  Kinetic  5117.29392  5122.41298  5149.96891   -11.60293    10.34524    13.42349
  Fock        0.00000     0.00000     0.00000     0.00000     0.00000     0.00000
  Total      -5.98701    -6.20705    -0.15010    -0.23607    -0.03693    -0.12098
  in kB      -5.88413    -6.10039    -0.14752    -0.23201    -0.03629    -0.11890

 VOLUME and BASIS-vectors are now :
  energy-cutoff  :      500.00
  volume of cell :     1630.19
      direct lattice vectors                 reciprocal lattice vectors
     8.791366577  0.000000000  0.000000000     0.113747958 -0.065672414  0.000000000
     4.395683289  7.613546790  0.000000000     0.000000000  0.131344829  0.000000000
     0.000000000  0.000000000 24.355372092     0.000000000  0.000000000  0.041058703

  length of vectors
     8.791366577  8.791366577 24.355372092     0.131344829  0.131344829  0.041058703

 FORCES acting on ions
    electron-ion (+dipol)            ewald-force                    non-local-force                 convergence-correction
   0.258E+00 0.619E-01 0.268E+04   -.137E+00 -.712E-01 -.268E+04   -.932E-01 -.664E-02 -.179E+01   -.214E-01 0.154E-01 -.283E-01
   -.385E+00 -.173E-01 0.268E+04   0.300E+00 -.740E-01 -.268E+04   0.339E-01 0.110E+00 -.162E+01   0.436E-01 -.255E-01 -.177E-01
   0.107E+00 0.553E-01 0.268E+04   -.164E+00 0.191E-01 -.268E+04   0.665E-01 0.322E-02 -.166E+01   -.848E-02 -.673E-01 -.122E-01
   -.103E+00 -.359E+00 0.268E+04   0.798E-01 0.340E+00 -.268E+04   0.594E-01 -.460E-01 -.156E+01   -.315E-01 0.685E-01 0.326E-01
   -.252E+00 -.266E+00 0.268E+04   0.149E+00 0.125E+00 -.268E+04   0.225E-01 0.377E-01 -.151E+01   0.729E-01 0.953E-01 0.829E-01
   0.349E+00 -.402E+00 0.268E+04   -.229E+00 0.267E+00 -.268E+04   -.905E-01 0.259E-01 -.181E+01   -.259E-01 0.101E+00 -.812E-01
   0.201E-01 0.137E+00 0.268E+04   -.719E-01 -.194E+00 -.268E+04   0.789E-01 0.606E-01 -.174E+01   -.274E-01 -.104E-01 -.203E-01
   0.400E-01 0.699E+00 0.268E+04   0.828E-01 -.358E+00 -.268E+04   -.122E+00 -.184E+00 -.173E+01   0.972E-03 -.138E+00 -.911E-01
   -.649E-02 0.114E+00 0.268E+04   -.108E-01 -.528E-01 -.268E+04   0.143E-01 -.201E-01 -.176E+01   -.116E-02 -.428E-01 0.275E-01
   0.274E+00 -.200E+00 0.935E+03   -.112E+00 0.206E+00 -.934E+03   -.243E+00 -.126E+00 -.759E+00   0.402E-01 0.935E-01 0.212E+00
   -.108E+01 -.116E+01 0.929E+03   0.116E+01 0.735E+00 -.929E+03   -.571E-01 0.209E+00 -.539E+00   -.262E-02 0.133E+00 0.128E+00
   0.805E+00 -.358E+00 0.933E+03   -.105E+01 0.507E+00 -.932E+03   0.288E+00 -.189E+00 -.575E+00   -.195E-01 0.312E-01 0.171E+00
   -.117E+01 -.559E+00 0.928E+03   0.983E+00 0.833E+00 -.928E+03   0.890E-01 -.140E+00 -.573E+00   0.381E-01 -.848E-01 0.786E-01
   0.396E+00 0.189E+00 0.926E+03   -.188E+00 -.343E-01 -.926E+03   -.606E-01 -.353E-01 -.275E+00   -.938E-01 -.863E-01 0.776E-01
   0.773E+00 -.160E+01 0.931E+03   -.796E+00 0.153E+01 -.930E+03   -.310E-01 0.894E-01 -.622E+00   0.539E-01 -.207E-01 0.894E-01
   0.403E+00 0.112E+01 0.932E+03   -.309E+00 -.136E+01 -.932E+03   -.527E-01 0.304E+00 -.573E+00   -.276E-01 -.344E-01 0.127E+00
   -.938E+00 0.186E+01 0.931E+03   0.864E+00 -.176E+01 -.931E+03   0.462E-01 -.918E-01 -.728E+00   0.284E-01 -.279E-02 0.819E-01
   0.482E+00 0.698E+00 0.931E+03   -.555E+00 -.652E+00 -.930E+03   0.408E-01 -.331E-01 -.581E+00   0.267E-01 -.973E-02 0.633E-01
   0.806E+01 -.771E+01 -.824E+03   -.803E+01 0.757E+01 0.823E+03   -.518E-01 0.102E+00 0.849E+00   0.694E-01 0.143E-01 0.924E-01
   -.365E+02 -.240E+02 -.836E+03   0.373E+02 0.244E+02 0.837E+03   -.863E+00 -.446E+00 -.821E+00   0.914E-02 -.776E-03 0.239E+00
   0.289E+02 -.227E+02 -.855E+03   -.295E+02 0.233E+02 0.855E+03   0.753E+00 -.577E+00 -.278E+00   -.956E-01 -.545E-01 0.128E+00
   -.132E+02 0.349E+01 -.832E+03   0.130E+02 -.315E+01 0.831E+03   0.222E+00 -.234E+00 0.728E+00   0.181E-01 -.148E+00 0.981E-01
   -.306E+01 0.367E+02 -.857E+03   0.328E+01 -.374E+02 0.857E+03   -.159E+00 0.876E+00 -.370E+00   -.649E-01 -.668E-01 0.141E+00
   0.163E+02 0.104E+02 -.837E+03   -.163E+02 -.105E+02 0.837E+03   -.691E-01 0.624E-01 0.703E+00   0.311E-01 0.214E-02 0.118E+00
   0.528E+01 0.403E+01 -.830E+03   -.530E+01 -.419E+01 0.829E+03   -.103E-01 0.793E-01 0.104E+01   0.431E-01 0.722E-01 0.542E-01
   -.388E+00 0.112E+02 -.821E+03   0.405E+00 -.110E+02 0.821E+03   -.306E-01 -.214E+00 0.706E+00   0.389E-01 0.665E-01 0.135E+00
   -.491E+01 -.109E+02 -.827E+03   0.494E+01 0.106E+02 0.827E+03   0.188E-01 0.273E+00 0.557E+00   -.683E-01 0.116E+00 0.130E+00
   0.367E+02 0.179E+02 -.252E+04   -.367E+02 -.180E+02 0.252E+04   -.669E-01 0.894E-02 0.173E+01   0.160E-01 0.290E-01 -.727E-01
   -.950E+01 0.592E+02 -.240E+04   0.108E+02 -.587E+02 0.240E+04   -.126E+01 -.670E+00 0.148E+01   0.997E-02 0.116E+00 -.120E+00
   -.255E+02 -.134E+02 -.251E+04   0.252E+02 0.140E+02 0.251E+04   0.531E+00 -.941E+00 0.175E+01   -.355E-01 0.112E+00 -.399E-01
   0.320E+02 -.489E+02 -.245E+04   -.315E+02 0.499E+02 0.244E+04   -.805E+00 -.910E+00 0.188E+01   0.918E-01 -.376E-01 -.100E+00
   0.377E+02 -.625E+01 -.253E+04   -.388E+02 0.647E+01 0.253E+04   0.141E+01 -.184E+00 0.137E+01   -.757E-01 -.252E-01 -.456E-02
   -.223E+02 0.210E+01 -.252E+04   0.227E+02 -.310E+01 0.252E+04   -.626E+00 0.128E+01 0.152E+01   0.729E-01 -.844E-01 -.242E-01
   0.217E+02 0.438E+02 -.253E+04   -.219E+02 -.446E+02 0.253E+04   0.442E+00 0.109E+01 0.132E+01   -.788E-01 -.818E-01 0.441E-02
   0.626E+00 0.118E+02 -.254E+04   -.630E+00 -.117E+02 0.254E+04   0.218E-01 -.813E-01 0.160E+01   -.203E-01 -.248E-01 0.135E-01
   -.256E+02 -.222E+02 -.790E+03   0.253E+02 0.220E+02 0.792E+03   0.153E+00 0.150E+00 -.704E+00   -.160E-01 -.100E-01 -.414E-02
   -.541E+01 0.200E+01 -.923E+03   0.243E+01 -.480E+01 0.916E+03   0.296E+01 0.278E+01 0.680E+01   0.227E-01 0.240E-01 -.461E-01
   0.138E+03 0.102E+03 -.166E+04   -.167E+03 -.123E+03 0.170E+04   0.290E+02 0.213E+02 -.420E+02   0.148E-01 0.156E-01 -.204E-01
   -.182E+03 -.148E+03 -.157E+04   0.211E+03 0.172E+03 0.158E+04   -.291E+02 -.239E+02 -.186E+02   0.761E-02 0.108E-01 -.100E+00
   -.257E+01 0.142E+00 0.575E+02   0.000E+00 0.114E-12 -.819E-11   0.254E+01 -.202E+00 -.591E+02   0.356E-01 0.602E-01 0.154E+01

 POSITION                                       TOTAL-FORCE (eV/Angst)
      0.00000      0.00000      5.28219         0.007112     -0.000611     -0.019813
      2.93046      0.00000      5.28219        -0.007097     -0.007070      0.001313
      5.86091      0.00000      5.28219         0.001307      0.010316      0.029580
      1.46523      2.53785      5.28219         0.004415      0.003859      0.008344
      4.39568      2.53785      5.28219        -0.007400     -0.008104      0.010484
      7.32614      2.53785      5.28219         0.003603     -0.009031      0.045432
      2.93046      5.07570      5.28219        -0.000297     -0.006972      0.039986
      5.86091      5.07570      5.28219         0.001910      0.017830      0.038309
      8.79137      5.07570      5.28219        -0.004128     -0.001907      0.007069
      1.46523      0.84595      7.67490        -0.041641     -0.027417     -0.089781
      4.39568      0.84595      7.67490         0.022602     -0.078320     -0.095131
      7.32614      0.84595      7.67490         0.026858     -0.008985     -0.056485
      2.93046      3.38380      7.67490        -0.054702      0.049736     -0.092763
      5.86091      3.38380      7.67490         0.053248      0.033026     -0.056889
      8.79137      3.38380      7.67490         0.000363     -0.002483      0.040120
      4.39568      5.92165      7.67490         0.013566      0.027247     -0.050619
      7.32614      5.92165      7.67490        -0.000100      0.005474      0.026515
     10.25659      5.92165      7.67490        -0.005340      0.003854      0.071983
      8.79137      1.69178     10.05827         0.049960     -0.023961      0.064571
      2.92613      1.68940     10.03306        -0.125150     -0.063545     -0.210984
      5.86523      1.68940     10.03306         0.109326     -0.052849     -0.098335
     10.25456      4.23092     10.06776         0.050327     -0.039407      0.054539
      4.39568      4.23474     10.03306        -0.003007      0.127678     -0.130182
      7.32817      4.23092     10.06776        -0.055361     -0.029397      0.039772
     11.72193      6.76766     10.05827         0.003560     -0.001863     -0.015014
      5.86080      6.76766     10.05827         0.025017      0.060513      0.104567
      8.79137      6.76525     10.06776        -0.023162      0.047177      0.064139
      0.00000      0.00000     12.45716        -0.099110     -0.057831     -0.058604
      2.94326      0.02074     12.49530        -0.007108     -0.065062     -0.050614
      5.84810      0.02074     12.49530         0.189930     -0.223236     -0.196450
      1.48959      2.53857     12.49530        -0.229997      0.065535     -0.118749
      7.30177      2.53857     12.49530         0.193263      0.013292     -0.183040
      2.94201      5.05424     12.49530        -0.100442      0.190718     -0.175805
      5.84935      5.05424     12.49530         0.122471      0.184591     -0.211817
      8.79137      5.07570     12.47846        -0.003216     -0.019493     -0.011426
      4.39568      2.53785     12.33403        -0.115374     -0.116145      1.293649
      3.32435      1.63166     14.32406         0.007026      0.001815     -0.023078
      2.69859      1.17119     15.25439        -0.004512     -0.003742      0.007644
      4.35869      2.48326     14.35809         0.001280      0.004769     -0.002437
    total drift:                               -0.001446     -0.000245     -0.067674

  FREE ENERGIE OF THE ION-ELECTRON SYSTEM (eV)
  free  energy   TOTEN  =      -121.53499922 eV

  energy  without entropy=     -121.53499922  energy(sigma->0) =     -121.53499922

 stress matrix after NEB project (eV)
     -5.98701     -0.23607     -0.12098
     -0.23607     -6.20705     -0.03693
     -0.12098     -0.03693     -0.15010
  FORCES: max atom, RMS     0.024192    0.004262
  FORCE total and by dimension    0.026615    0.023078
  Stress total and by dimension    8.633525    6.207052
|           W    W    AA    RRRRR   N    N  II  N    N   GGGG   !!!           |
|           W    W   A  A   R    R  NN   N  II  NN   N  G    G  !!!           |
|           W    W  A    A  R    R  N N  N  II  N N  N  G       !!!           |
|           W WW W  AAAAAA  RRRRR   N  N N  II  N  N N  G  GGG   !            |
|           WW  WW  A    A  R   R   N   NN  II  N   NN  G    G                |
|           W    W  A    A  R    R  N    N  II  N    N   GGGG   !!!           |
|     Tetrahedron method does not include variations of the Fermi             |
|     occupations, so forces and stress will be inaccurate. We suggest        |
|     using a different smearing scheme ISMEAR = 1 or 2 for metals in         |
|     relaxations.                                                            |

 total charge

# of ion       s       p       d       tot
    1        0.422   0.201   9.177   9.800
    2        0.415   0.203   9.178   9.797
    3        0.417   0.203   9.177   9.797
    4        0.417   0.203   9.177   9.797
    5        0.418   0.202   9.177   9.797
    6        0.413   0.204   9.178   9.795
    7        0.415   0.204   9.176   9.795
    8        0.414   0.204   9.178   9.796
    9        0.416   0.203   9.177   9.796
   10        0.412   0.268   9.164   9.843
   11        0.406   0.269   9.167   9.842
   12        0.407   0.271   9.163   9.841
   13        0.408   0.268   9.166   9.842
   14        0.403   0.271   9.167   9.841
   15        0.401   0.269   9.164   9.835
   16        0.408   0.271   9.163   9.842
   17        0.403   0.269   9.164   9.837
   18        0.399   0.271   9.165   9.835
   19        0.401   0.266   9.165   9.832
   20        0.440   0.299   9.135   9.874
   21        0.439   0.301   9.133   9.873
   22        0.393   0.274   9.162   9.829
   23        0.442   0.300   9.134   9.875
   24        0.398   0.269   9.165   9.833
   25        0.407   0.261   9.169   9.838
   26        0.400   0.269   9.162   9.832
   27        0.392   0.276   9.160   9.828
   28        0.413   0.200   9.177   9.790
   29        0.421   0.267   9.141   9.830
   30        0.449   0.216   9.157   9.821
   31        0.434   0.232   9.156   9.821
   32        0.451   0.219   9.149   9.819
   33        0.451   0.218   9.151   9.820
   34        0.450   0.220   9.149   9.819
   35        0.408   0.207   9.172   9.786
   36        0.568   0.555   1.943   3.066
   37        0.870   1.627   0.000   2.497
   38        1.602   3.513   0.000   5.115
   39        1.590   3.487   0.000   5.077
tot         19.211  17.733 322.659 359.603

 BZINTS: Fermi energy:    0.301565;  405.000000 electrons
         Band energy:-0.165853E+04;  BLOECHL correction:   -0.028622