 vasp.6.2.0 18Jan21 (build Jun 12 2021 23:27:24) complex

 executed on             LinuxIFC date 2022.05.27  05:23:57

 INCAR:
   ISMEAR = -5
   SIGMA = 0.1
   ISPIN = 1
   EDIFF = 1.d-5
   EDIFFG = -0.01
   NSW = 0
   NELM = 150
   ENCUT = 500
   ISIF = 2
   IBRION = 2
   LREAL = Auto
   ALGO = Fast
   ICHARG = 11
   LORBIT = 10
   LCHARG = .F.
   LWAVE = .F.

 POTCAR:    PAW_PBE Au 04Oct2007
 POTCAR:    PAW_PBE Os 17Jan2003
 POTCAR:    PAW_PBE N 08Apr2002
|           W    W    AA    RRRRR   N    N  II  N    N   GGGG   !!!           |
|           W    W   A  A   R    R  NN   N  II  NN   N  G    G  !!!           |
|           W    W  A    A  R    R  N N  N  II  N N  N  G       !!!           |
|           W WW W  AAAAAA  RRRRR   N  N N  II  N  N N  G  GGG   !            |
|           WW  WW  A    A  R   R   N   NN  II  N   NN  G    G                |
|           W    W  A    A  R    R  N    N  II  N    N   GGGG   !!!           |
|     For optimal performance we recommend to set                             |
|       NCORE = 2 up to number-of-cores-per-socket                            |
|     This setting can greatly improve the performance of VASP for DFT.       |
|     The default, NCORE=1 might be grossly inefficient on modern             |
|     multi-core architectures or massively parallel machines. Do your        |
|     Unfortunately you need to use the default for GW and RPA                |
|     calculations (for HF NCORE is supported but not extensively tested      |
|     yet).                                                                   |

 POTCAR:    PAW_PBE Au 04Oct2007
   VRHFIN =Au: s1d10

   TITEL  = PAW_PBE Au 04Oct2007
   POMASS =  196.966; ZVAL   =   11.000    mass and valenz
   ENMAX  =  229.943; ENMIN  =  172.457 eV

 POTCAR:    PAW_PBE Os 17Jan2003
   VRHFIN =Os: 6s5d

   TITEL  = PAW_PBE Os 17Jan2003
   POMASS =  190.200; ZVAL   =    8.000    mass and valenz
   ENMAX  =  228.022; ENMIN  =  171.017 eV

 POTCAR:    PAW_PBE N 08Apr2002
   VRHFIN =N: s2p3

   TITEL  = PAW_PBE N 08Apr2002
   POMASS =   14.001; ZVAL   =    5.000    mass and valenz
   ENMAX  =  400.000; ENMIN  =  300.000 eV

 Optimization of the real space projectors (new method)

 maximal supplied QI-value         = 15.12
 optimisation between [QCUT,QGAM] = [ 11.34, 22.83] = [ 36.00,145.93] Ry
 Optimized for a Real-space Cutoff    1.39 Angstroem

   l    n(q)    QCUT    max X(q) W(low)/X(q) W(high)/X(q)  e(spline)
   2      9    11.338    60.898    0.39E-03    0.42E-03    0.21E-06
   2      9    11.338    58.894    0.40E-03    0.42E-03    0.22E-06
   0      9    11.338   109.617    0.13E-03    0.20E-04    0.13E-06
   0      9    11.338    75.026    0.13E-03    0.20E-04    0.13E-06
   1      9    11.338    16.344    0.33E-04    0.24E-03    0.18E-06
   1      9    11.338    10.160    0.26E-04    0.19E-03    0.15E-06
 Optimization of the real space projectors (new method)

[...]

   l    n(q)    QCUT    max X(q) W(low)/X(q) W(high)/X(q)  e(spline)
   2     10    11.327   152.873    0.32E-03    0.72E-03    0.11E-05
   2     10    11.327   151.010    0.32E-03    0.72E-03    0.11E-05
   0     11    11.327    72.114    0.43E-04    0.61E-04    0.13E-06
   0     11    11.327    44.596    0.40E-04    0.57E-04    0.12E-06
   1     10    11.327    13.742    0.16E-03    0.10E-03    0.19E-06
   1     10    11.327     8.461    0.12E-03    0.78E-04    0.15E-06
 Optimization of the real space projectors (new method)

 maximal supplied QI-value         = 25.13
 optimisation between [QCUT,QGAM] = [ 11.31, 22.87] = [ 35.82,146.48] Ry
 Optimized for a Real-space Cutoff    1.27 Angstroem

   l    n(q)    QCUT    max X(q) W(low)/X(q) W(high)/X(q)  e(spline)
   0      9    11.310    79.467    0.75E-04    0.16E-03    0.36E-06
   0      9    11.310    66.151    0.74E-04    0.16E-03    0.36E-06
   1      8    11.310    17.416    0.35E-03    0.12E-03    0.95E-06
   1      8    11.310    12.382    0.37E-03    0.13E-03    0.98E-06
  PAW_PBE Au 04Oct2007                  :
  PAW_PBE Os 17Jan2003                  :
  PAW_PBE N 08Apr2002                   :

 POSCAR: Au-Os-N2
  positions in direct lattice
  velocities in cartesian coordinates
 exchange correlation table for  LEXCH =        8
   RHO(1)=    0.500       N(1)  =     2000
   RHO(2)=  100.500       N(2)  =     4000

 VTST: version 3.2, (02/03/18)

 CHAIN: initializing optimizer

 OPT: Using VASP Conjugate-Gradient optimizer
 CHAIN: Read ICHAIN            0

 POSCAR: Au-Os-N2
  positions in direct lattice
  velocities in cartesian coordinates

 ion  position               nearest neighbor table
   1  0.000  0.000  0.224-  16 2.94  12 2.94   6 2.94   8 2.94   7 2.94   3 2.94  10 2.94   4 2.94
                             2 2.94
   2  0.333  0.000  0.224-   9 2.94  11 2.94  17 2.94  10 2.94   8 2.94   4 2.94   5 2.94   1 2.94
                             3 2.94
   3  0.667  0.000  0.224-   7 2.94  18 2.94  12 2.94   1 2.94  11 2.94   5 2.94   6 2.94   9 2.94
                             2 2.94
   4  0.000  0.333  0.224-  10 2.94   6 2.94   5 2.94  13 2.94   2 2.94  15 2.94   9 2.94   1 2.94
                             7 2.94
   5  0.333  0.333  0.224-  13 2.94   7 2.94  11 2.94   4 2.94   2 2.94  14 2.94   3 2.94   8 2.94
                             6 2.94
   6  0.667  0.333  0.224-  15 2.94  14 2.94   1 2.94  12 2.94   4 2.94   9 2.94   8 2.94   3 2.94
                             5 2.94
   7  0.000  0.667  0.224-  18 2.94   3 2.94  16 2.94   5 2.94   1 2.94  13 2.94   8 2.94   4 2.94
                             9 2.94
   8  0.333  0.667  0.224-   9 2.94  17 2.94   1 2.94   2 2.94  14 2.94  16 2.94   6 2.94   7 2.94
                             5 2.94
   9  0.667  0.667  0.224-   2 2.94   8 2.94  17 2.94   6 2.94  15 2.94   4 2.94   3 2.94  18 2.94
                             7 2.94
  10  0.111  0.111  0.326-  20 2.90  11 2.94  17 2.94   2 2.94   4 2.94   1 2.94  12 2.94  16 2.94
                            13 2.94  15 2.94  26 2.95  19 2.95
  11  0.444  0.111  0.326-  20 2.91  21 2.91  27 2.94  13 2.94   2 2.94  10 2.94  17 2.94   5 2.94
                             3 2.94  18 2.94  14 2.94  12 2.94
  12  0.778  0.111  0.326-  21 2.90  16 2.94  18 2.94   1 2.94  14 2.94  15 2.94   3 2.94   6 2.94
                            10 2.94  11 2.94  25 2.95  19 2.95
  13  0.111  0.444  0.326-  23 2.91  20 2.91  22 2.94   5 2.94  18 2.94  11 2.94   7 2.94   4 2.94
                            16 2.94  10 2.94  14 2.94  15 2.94
  14  0.444  0.444  0.326-  21 2.91  23 2.91  24 2.94  15 2.94   6 2.94  12 2.94   8 2.94  17 2.94
                             5 2.94  16 2.94  13 2.94  11 2.94
  15  0.778  0.444  0.326-  24 2.92  22 2.92  14 2.94   6 2.94  17 2.94  12 2.94   9 2.94   4 2.94
                            10 2.94  13 2.94  18 2.94  19 2.95
  16  0.111  0.778  0.326-  23 2.90  18 2.94  12 2.94   7 2.94   1 2.94   8 2.94  13 2.94  10 2.94
                            14 2.94  17 2.94  25 2.95  26 2.95
  17  0.444  0.778  0.326-  27 2.92  24 2.92   9 2.94  15 2.94   2 2.94  10 2.94  11 2.94   8 2.94
                            14 2.94  16 2.94  18 2.94  26 2.95
  18  0.778  0.778  0.326-  22 2.92  27 2.92  16 2.94   7 2.94  13 2.94  12 2.94   3 2.94  11 2.94
                             9 2.94  15 2.94  17 2.94  25 2.95
  19  0.888  0.223  0.429-  24 2.93  22 2.93  21 2.93  20 2.93  28 2.95  15 2.95  26 2.95  25 2.95
                            10 2.95  12 2.95  32 2.98  31 2.98
  20  0.222  0.222  0.426-  36 2.77  10 2.90  11 2.91  13 2.91  26 2.93  19 2.93  23 2.95  21 2.95
                            27 2.96  22 2.96  29 2.96  31 2.96
  21  0.556  0.222  0.426-  36 2.77  12 2.90  14 2.91  11 2.91  25 2.93  19 2.93  20 2.95  23 2.95
                            27 2.96  24 2.96  30 2.96  32 2.96
  22  0.886  0.557  0.427-  24 2.90  27 2.90  18 2.92  15 2.92  25 2.93  19 2.93  13 2.94  35 2.95
                            23 2.96  20 2.96  33 2.98  31 2.98
  23  0.222  0.556  0.426-  36 2.77  16 2.90  13 2.91  14 2.91  25 2.93  26 2.93  20 2.95  21 2.95
                            22 2.96  24 2.96  33 2.96  34 2.96
  24  0.557  0.557  0.427-  27 2.90  22 2.90  15 2.92  17 2.92  26 2.93  19 2.93  14 2.94  35 2.95
                            21 2.96  23 2.96  32 2.98  34 2.98
  25  0.888  0.888  0.429-  22 2.93  27 2.93  23 2.93  21 2.93  28 2.95  18 2.95  19 2.95  26 2.95
                            16 2.95  12 2.95  33 2.98  30 2.98
  26  0.223  0.888  0.429-  27 2.93  24 2.93  20 2.93  23 2.93  28 2.95  17 2.95  19 2.95  25 2.95
                            10 2.95  16 2.95  29 2.98  34 2.98
  27  0.557  0.886  0.427-  24 2.90  22 2.90  17 2.92  18 2.92  26 2.93  25 2.93  11 2.94  35 2.95
                            20 2.96  21 2.96  29 2.98  30 2.98
  28  0.000  0.000  0.531-  25 2.95  19 2.95  26 2.95  34 2.98  32 2.98  33 2.98  30 2.98  31 2.98
                            29 2.98
  29  0.333  0.009  0.531-  31 2.86  30 2.86  36 2.88  20 2.96  28 2.98  35 2.98  27 2.98  26 2.98
                            34 3.09
  30  0.658  0.009  0.531-  32 2.86  29 2.86  36 2.88  21 2.96  28 2.98  35 2.98  27 2.98  25 2.98
                            33 3.09
  31  0.009  0.333  0.531-  29 2.86  33 2.86  36 2.88  20 2.96  28 2.98  35 2.98  22 2.98  19 2.98
                            32 3.09
  32  0.658  0.333  0.531-  30 2.86  34 2.86  36 2.88  21 2.96  28 2.98  35 2.98  24 2.98  19 2.98
                            31 3.09
  33  0.009  0.658  0.531-  34 2.86  31 2.86  36 2.88  23 2.96  28 2.98  35 2.98  22 2.98  25 2.98
                            30 3.09
  34  0.333  0.658  0.531-  33 2.86  32 2.86  36 2.88  23 2.96  28 2.98  35 2.98  24 2.98  26 2.98
                            29 3.09
  35  0.667  0.667  0.530-  24 2.95  27 2.95  22 2.95  29 2.98  34 2.98  32 2.98  31 2.98  30 2.98
                            33 2.98
  36  0.333  0.333  0.519-  38 2.46  37 2.46  20 2.77  23 2.77  21 2.77  33 2.88  31 2.88  29 2.88
                            30 2.88  34 2.88  32 2.88
  37  0.270  0.330  0.620-  38 1.14  36 2.46
  38  0.399  0.330  0.620-  37 1.14  36 2.46

  LATTYP: Found a hexagonal cell.
 ALAT       =     8.8135128021
 C/A-ratio  =     2.6728281508

  Lattice vectors:

 A1 = (  -4.4067569092,  -7.6327256898,   0.0000000000)
 A2 = (   8.8135128021,   0.0000000000,   0.0000000000)
 A3 = (   0.0000000000,   0.0000000000,  23.5570051247)

Analysis of symmetry for initial positions (statically):
 Subroutine PRICEL returns:
 Original cell was already a primitive cell.

 Routine SETGRP: Setting up the symmetry group for a
 hexagonal supercell.

 Subroutine GETGRP returns: Found  2 space group operations
 (whereof  2 operations were pure point group operations)
 out of a pool of 24 trial point group operations.

The static configuration has the point symmetry C_1h.

Analysis of symmetry for dynamics (positions and initial velocities):
 Subroutine PRICEL returns:
 Original cell was already a primitive cell.

[...]

The dynamic configuration has the point symmetry C_1h.

Analysis of constrained symmetry for selective dynamics:
 Subroutine PRICEL returns:
 Original cell was already a primitive cell.

 Routine SETGRP: Setting up the symmetry group for a
 hexagonal supercell.

[...]
     33      -5.0487      2.00000
     34      -4.9847      2.00000
     35      -4.9793      2.00000
     36      -4.9493      2.00000
     37      -4.9339      2.00000
     38      -4.9205      2.00000
     39      -4.8447      2.00000
     40      -4.8290      2.00000
     41      -4.8176      2.00000
     42      -4.7342      2.00000
     43      -4.7136      2.00000
     44      -4.6621      2.00000
     45      -4.5892      2.00000
     46      -4.5670      2.00000
     47      -4.5216      2.00000
     48      -4.5048      2.00000
     49      -4.4808      2.00000
     50      -4.4730      2.00000
     51      -4.3681      2.00000
     52      -4.3437      2.00000
     53      -4.3157      2.00000
     54      -4.3019      2.00000
     55      -4.2947      2.00000
     56      -4.2920      2.00000
     57      -4.2791      2.00000
     58      -4.2391      2.00000
     59      -4.1974      2.00000
     60      -4.1649      2.00000
[...]
    242       6.2500      0.00000
    243       6.3461      0.00000
    244       6.3775      0.00000
    245       6.4595      0.00000
    246       6.5785      0.00000
    247       6.6576      0.00000
    248       6.7105      0.00000
    249       6.8989      0.00000
    250       6.9784      0.00000
    251       7.0312      0.00000
    252       7.0853      0.00000
    253       7.1503      0.00000
    254       7.1934      0.00000
    255       7.2112      0.00000
    256       7.3489      0.00000

 soft charge-density along one line, spin component           1
         0         1         2         3         4         5         6         7         8         9
 total charge-density along one line

------------------------ aborting loop because EDIFF is reached ----------------------------------------

 total charge

# of ion       s       p       d       tot
    1        0.545   0.239   8.766   9.549
    2        0.545   0.241   8.764   9.550
    3        0.545   0.241   8.764   9.550
    4        0.546   0.240   8.764   9.550
    5        0.541   0.242   8.760   9.544
    6        0.546   0.240   8.764   9.550
    7        0.546   0.241   8.764   9.550
    8        0.546   0.241   8.764   9.550
    9        0.541   0.239   8.770   9.550
   10        0.522   0.309   8.765   9.595
   11        0.523   0.306   8.781   9.611
   12        0.522   0.309   8.765   9.595
   13        0.523   0.307   8.781   9.611
   14        0.523   0.307   8.781   9.611
   15        0.514   0.308   8.777   9.598
   16        0.524   0.309   8.763   9.596
   17        0.513   0.308   8.776   9.598
   18        0.513   0.308   8.776   9.598
   19        0.515   0.299   8.775   9.588
   20        0.545   0.338   8.745   9.628
   21        0.545   0.338   8.745   9.628
   22        0.506   0.308   8.778   9.592
   23        0.547   0.340   8.740   9.627
   24        0.506   0.308   8.778   9.592
   25        0.518   0.298   8.774   9.590
   26        0.518   0.298   8.774   9.590
   27        0.507   0.307   8.779   9.593
   28        0.537   0.228   8.767   9.532
   29        0.558   0.248   8.750   9.556
   30        0.558   0.248   8.750   9.556
   31        0.551   0.248   8.753   9.552
   32        0.551   0.248   8.753   9.552
   33        0.558   0.249   8.749   9.556
   34        0.558   0.249   8.749   9.556
   35        0.531   0.228   8.768   9.526
   36        0.488   0.374   5.925   6.787
   37        1.363   2.444   0.000   3.808
   38        1.363   2.444   0.000   3.808
tot         21.903  14.976 312.697 349.576

  FORCE on cell =-STRESS in cart. coord.  units (eV):
  Direction    XX          YY          ZZ          XY          YZ          ZX
  Alpha Z   987.86909   987.86909   987.86909
  Ewald  138354.02984138037.47789************    -0.00031     0.87093    -0.00013
  Hartree146855.39343146743.66503************     0.00001     1.05571    -0.00004
  E(xc)   -1805.22661 -1806.42619 -1812.91914     0.00011    -0.02888    -0.00001
  Local  ************************297323.34381     0.00240    -2.35191     0.00003
  n-local  -109.85394   -97.82483   -76.52124     4.96263     0.14921     0.19810
  augment  2384.21196  2383.55701  2401.08348    -0.00136     0.04219     0.00003
  Kinetic  5642.69425  5658.51188  5709.54621     1.94495     0.44752     0.21842
  Fock        0.00000     0.00000     0.00000     0.00000     0.00000     0.00000
  Total     -21.83336   -22.22795     1.32202    -0.00000     0.18476     0.00000
  in kB     -22.07407   -22.47300     1.33659    -0.00000     0.18680     0.00000

 VOLUME and BASIS-vectors are now :
  energy-cutoff  :      500.00
  volume of cell :     1584.71
      direct lattice vectors                 reciprocal lattice vectors
     8.813512802  0.000000000  0.000000000     0.113462137 -0.065507406  0.000000000
     4.406756909  7.632725690  0.000000000     0.000000000  0.131014796  0.000000000
     0.000000000  0.000000000 23.557005125     0.000000000  0.000000000  0.042450218

  length of vectors
     8.813512802  8.813512802 23.557005125     0.131014796  0.131014796  0.042450218

 FORCES acting on ions
    electron-ion (+dipol)            ewald-force                    non-local-force                 convergence-correction
   -.200E-04 -.145E-01 0.261E+04   0.520E-04 -.117E-01 -.261E+04   0.536E-09 0.806E-02 -.112E+01   -.202E-03 0.136E-01 -.125E+00
   0.716E+00 0.328E+00 0.261E+04   -.775E+00 -.398E+00 -.261E+04   0.417E-01 0.372E-01 -.260E+00   0.179E-01 0.496E-01 -.245E+00
   -.716E+00 0.328E+00 0.261E+04   0.775E+00 -.398E+00 -.261E+04   -.417E-01 0.372E-01 -.260E+00   -.176E-01 0.516E-01 -.244E+00
   0.620E+00 0.472E+00 0.261E+04   -.722E+00 -.474E+00 -.261E+04   0.636E-01 0.116E-01 -.277E+00   0.519E-01 -.181E-01 -.230E+00
   0.752E-05 -.104E-01 0.261E+04   0.951E-04 0.401E-02 -.261E+04   0.847E-09 0.127E-01 -.208E+00   0.430E-02 -.599E-02 -.238E+00
   -.620E+00 0.472E+00 0.261E+04   0.722E+00 -.474E+00 -.261E+04   -.636E-01 0.116E-01 -.277E+00   -.535E-01 -.171E-01 -.229E+00
   -.795E-01 -.787E+00 0.261E+04   0.533E-01 0.872E+00 -.261E+04   0.178E-01 -.554E-01 -.238E+00   0.257E-01 -.360E-01 -.238E+00
   0.794E-01 -.787E+00 0.261E+04   -.534E-01 0.872E+00 -.261E+04   -.178E-01 -.554E-01 -.238E+00   -.238E-01 -.371E-01 -.238E+00
   0.196E-04 -.501E-02 0.261E+04   0.166E-03 0.779E-02 -.261E+04   -.329E-09 -.494E-02 -.625E+00   -.464E-02 0.985E-03 -.222E+00
   0.804E+01 0.470E+01 0.901E+03   -.752E+01 -.441E+01 -.900E+03   -.427E+00 -.226E+00 -.820E+00   -.468E-01 -.289E-01 -.419E-01
   0.138E-04 0.484E+01 0.909E+03   0.148E-03 -.495E+01 -.908E+03   0.403E-08 0.605E-01 -.336E+00   0.380E-02 -.358E-01 -.137E-01
   -.804E+01 0.470E+01 0.901E+03   0.752E+01 -.441E+01 -.900E+03   0.427E+00 -.226E+00 -.820E+00   0.455E-01 -.274E-01 -.422E-01
   0.414E+01 -.243E+01 0.909E+03   -.422E+01 0.251E+01 -.908E+03   0.526E-01 -.466E-01 -.339E+00   -.362E-01 0.565E-02 -.129E-01
   -.414E+01 -.243E+01 0.909E+03   0.422E+01 0.251E+01 -.908E+03   -.526E-01 -.466E-01 -.339E+00   0.440E-01 0.521E-02 -.130E-01
   0.308E-04 0.472E+01 0.904E+03   0.236E-03 -.482E+01 -.904E+03   0.163E-08 0.245E-01 -.516E+00   -.240E-02 0.206E-01 -.102E-01
   -.218E-04 -.934E+01 0.901E+03   0.163E-03 0.868E+01 -.900E+03   0.346E-07 0.520E+00 -.845E+00   0.296E-03 0.749E-01 -.358E-01
   0.416E+01 -.240E+01 0.904E+03   -.424E+01 0.245E+01 -.903E+03   0.933E-02 -.196E-01 -.471E+00   0.122E-01 -.337E-02 -.152E-01
   -.416E+01 -.240E+01 0.904E+03   0.424E+01 0.245E+01 -.903E+03   -.933E-02 -.196E-01 -.471E+00   -.123E-01 -.144E-02 -.155E-01
   -.424E-04 0.493E+01 -.842E+03   0.536E-04 -.508E+01 0.841E+03   0.485E-09 0.729E-02 0.568E+00   -.499E-03 0.850E-01 0.293E+00
   0.121E+02 0.727E+01 -.788E+03   -.113E+02 -.685E+01 0.789E+03   -.848E+00 -.510E+00 -.957E+00   0.164E+00 0.885E-01 0.623E+00
   -.121E+02 0.727E+01 -.788E+03   0.113E+02 -.685E+01 0.789E+03   0.848E+00 -.510E+00 -.957E+00   -.163E+00 0.904E-01 0.623E+00
   -.212E+01 0.699E+00 -.822E+03   0.159E+01 -.357E+00 0.820E+03   0.470E+00 -.300E+00 0.685E+00   0.619E-01 -.418E-01 0.378E+00
   -.114E-04 -.147E+02 -.789E+03   0.142E-03 0.138E+02 0.789E+03   0.688E-07 0.103E+01 -.102E+01   0.172E-02 -.193E+00 0.663E+00
   0.212E+01 0.699E+00 -.822E+03   -.159E+01 -.357E+00 0.820E+03   -.470E+00 -.300E+00 0.685E+00   -.688E-01 -.413E-01 0.378E+00
   -.417E+01 -.201E+01 -.843E+03   0.425E+01 0.206E+01 0.842E+03   0.352E-01 0.272E-01 0.458E+00   -.707E-01 -.448E-01 0.301E+00
   0.417E+01 -.201E+01 -.843E+03   -.425E+01 0.206E+01 0.842E+03   -.352E-01 0.272E-01 0.458E+00   0.726E-01 -.462E-01 0.301E+00
   0.116E-04 -.225E+01 -.822E+03   0.198E-03 0.158E+01 0.821E+03   0.393E-07 0.590E+00 0.667E+00   -.440E-02 0.833E-01 0.378E+00
   -.145E-04 0.273E+01 -.253E+04   0.299E-04 -.268E+01 0.253E+04   -.286E-08 -.430E-01 0.499E+00   0.171E-03 -.149E-01 0.454E+00
   0.304E+02 0.588E+02 -.250E+04   -.299E+02 -.583E+02 0.250E+04   -.777E+00 -.983E+00 0.157E+00   0.181E+00 0.222E+00 0.398E+00
   -.304E+02 0.588E+02 -.250E+04   0.299E+02 -.583E+02 0.250E+04   0.777E+00 -.983E+00 0.157E+00   -.181E+00 0.223E+00 0.399E+00
   0.678E+02 -.100E+01 -.249E+04   -.674E+02 0.111E+01 0.249E+04   -.983E+00 -.128E+00 0.619E+00   0.302E+00 0.428E-01 0.381E+00
   -.678E+02 -.100E+01 -.249E+04   0.674E+02 0.111E+01 0.249E+04   0.983E+00 -.128E+00 0.619E+00   -.303E+00 0.439E-01 0.381E+00
   0.297E+02 -.571E+02 -.250E+04   -.294E+02 0.564E+02 0.250E+04   -.557E+00 0.112E+01 0.138E+00   0.103E+00 -.261E+00 0.379E+00
   -.297E+02 -.571E+02 -.250E+04   0.294E+02 0.564E+02 0.250E+04   0.557E+00 0.112E+01 0.138E+00   -.101E+00 -.261E+00 0.378E+00
   0.321E-04 -.197E+01 -.253E+04   0.142E-03 0.192E+01 0.253E+04   0.316E-08 0.474E-01 0.625E+00   -.471E-02 0.775E-02 0.413E+00
   -.119E-04 -.162E+01 -.160E+04   0.836E-04 0.166E+01 0.160E+04   0.293E-08 0.440E-01 0.355E+01   0.147E-02 0.531E-03 0.271E+00
   0.224E+03 -.318E+00 -.131E+04   -.267E+03 0.307E+00 0.132E+04   0.435E+02 0.197E-01 -.563E+01   0.698E-01 -.840E-02 -.143E+00
   -.224E+03 -.318E+00 -.131E+04   0.267E+03 0.307E+00 0.132E+04   -.435E+02 0.197E-01 -.563E+01   -.695E-01 -.834E-02 -.143E+00
   -.621E-03 -.179E+00 0.775E+01   0.114E-12 -.259E-12 -.455E-11   0.132E-07 0.198E+00 -.126E+02   -.607E-03 -.227E-01 0.490E+01

 POSITION                                       TOTAL-FORCE (eV/Angst)
      0.00000      0.00000      5.28038        -0.000000     -0.004496     -0.084815
      2.93784      0.00000      5.28038         0.000337      0.017913     -0.057662
      5.87568      0.00000      5.28038        -0.000337      0.017913     -0.057662
      1.46892      2.54424      5.28038         0.014613     -0.007954     -0.065227
      4.40676      2.54424      5.28038         0.000000      0.000409     -0.107943
      7.34459      2.54424      5.28038        -0.014613     -0.007954     -0.065227
      2.93784      5.08848      5.28038         0.016454     -0.006315     -0.065002
      5.87568      5.08848      5.28038        -0.016454     -0.006315     -0.065002
      8.81351      5.08848      5.28038        -0.000000     -0.001089     -0.080080
      1.46892      0.84808      7.67911         0.040983      0.028633      0.168493
      4.40676      0.84808      7.67911        -0.000000     -0.079663     -0.009845
      7.34459      0.84808      7.67911        -0.040983      0.028633      0.168493
      2.93784      3.39232      7.67911        -0.062341      0.037968     -0.000279
      5.87568      3.39232      7.67911         0.062341      0.037968     -0.000279
      8.81351      3.39232      7.67911        -0.000000     -0.057952      0.101061
      4.40676      5.93656      7.67911        -0.000000     -0.064884      0.177326
      7.34459      5.93656      7.67911        -0.050969      0.028959      0.105610
     10.28243      5.93656      7.67911         0.050969      0.028959      0.105610
      8.81351      1.70311     10.09495        -0.000000     -0.055792     -0.015287
      2.93286      1.69329     10.03570         0.035611     -0.000207     -0.102462
      5.88065      1.69329     10.03570        -0.035611     -0.000207     -0.102462
     10.26497      4.25049     10.06286         0.010362      0.000259     -0.006443
      4.40676      4.24615     10.03570        -0.000000     -0.065694     -0.079766
      7.36206      4.25049     10.06286        -0.010362      0.000259     -0.006443
     11.74534      6.78117     10.09495         0.040174      0.025372     -0.036307
      5.88169      6.78117     10.09495        -0.040174      0.025372     -0.036307
      8.81351      6.76448     10.06286         0.000000      0.001255     -0.015038
      0.00000      0.00000     12.49897        -0.000000     -0.011116     -0.041753
      2.97514      0.06495     12.50272        -0.079834     -0.213509     -0.134558
      5.83837      0.06495     12.50272         0.079834     -0.213509     -0.134558
      1.54382      2.54408     12.50272        -0.296209      0.025104     -0.193738
      7.26969      2.54408     12.50272         0.296209      0.025104     -0.193738
      2.97543      5.02370     12.50272        -0.099327      0.183935     -0.109360
      5.83808      5.02370     12.50272         0.099327      0.183935     -0.109360
      8.81351      5.08848     12.49601         0.000000      0.006199      0.000638
      4.40676      2.54424     12.21487         0.000000      0.091307      1.197768
      3.83769      2.52048     14.60578        -0.002247      0.000599     -0.024197
      4.97582      2.52048     14.60578         0.002247      0.000599     -0.024197
    total drift:                               -0.001228     -0.003147      0.006229

  FREE ENERGIE OF THE ION-ELECTRON SYSTEM (eV)
  free  energy   TOTEN  =      -131.40780766 eV

  energy  without entropy=     -131.40780766  energy(sigma->0) =     -131.40780766

 stress matrix after NEB project (eV)
    -21.83336     -0.00000      0.00000
     -0.00000    -22.22795      0.18476
      0.00000      0.18476      1.32202
  FORCES: max atom, RMS     0.024308    0.005577
  FORCE total and by dimension    0.034377    0.024197
  Stress total and by dimension   31.186428   22.227946
|           W    W    AA    RRRRR   N    N  II  N    N   GGGG   !!!           |
|           W    W   A  A   R    R  NN   N  II  NN   N  G    G  !!!           |
|           W    W  A    A  R    R  N N  N  II  N N  N  G       !!!           |
|           W WW W  AAAAAA  RRRRR   N  N N  II  N  N N  G  GGG   !            |
|           WW  WW  A    A  R   R   N   NN  II  N   NN  G    G                |
|           W    W  A    A  R    R  N    N  II  N    N   GGGG   !!!           |
|     Tetrahedron method does not include variations of the Fermi             |
|     occupations, so forces and stress will be inaccurate. We suggest        |
|     using a different smearing scheme ISMEAR = 1 or 2 for metals in         |
|     relaxations.                                                            |

 total charge

# of ion       s       p       d       tot
    1        0.545   0.239   8.766   9.549
    2        0.545   0.241   8.764   9.550
    3        0.545   0.241   8.764   9.550
    4        0.546   0.240   8.764   9.550
    5        0.541   0.242   8.760   9.544
    6        0.546   0.240   8.764   9.550
    7        0.546   0.241   8.764   9.550
    8        0.546   0.241   8.764   9.550
    9        0.541   0.239   8.770   9.550
   10        0.522   0.309   8.765   9.595
   11        0.523   0.306   8.781   9.611
   12        0.522   0.309   8.765   9.595
   13        0.523   0.307   8.781   9.611
   14        0.523   0.307   8.781   9.611
   15        0.514   0.308   8.777   9.598
   16        0.524   0.309   8.763   9.596
   17        0.513   0.308   8.776   9.598
   18        0.513   0.308   8.776   9.598
   19        0.515   0.299   8.775   9.588
   20        0.545   0.338   8.745   9.628
   21        0.545   0.338   8.745   9.628
   22        0.506   0.308   8.778   9.592
   23        0.547   0.340   8.740   9.627
   24        0.506   0.308   8.778   9.592
   25        0.518   0.298   8.774   9.590
   26        0.518   0.298   8.774   9.590
   27        0.507   0.307   8.779   9.593
   28        0.537   0.228   8.767   9.532
   29        0.558   0.248   8.750   9.556
   30        0.558   0.248   8.750   9.556
   31        0.551   0.248   8.753   9.552
   32        0.551   0.248   8.753   9.552
   33        0.558   0.249   8.749   9.556
   34        0.558   0.249   8.749   9.556
   35        0.531   0.228   8.768   9.526
   36        0.488   0.374   5.925   6.787
   37        1.363   2.444   0.000   3.808
   38        1.363   2.444   0.000   3.808
tot         21.903  14.976 312.697 349.576

 BZINTS: Fermi energy:    0.485223;  403.000000 electrons
         Band energy:-0.135556E+04;  BLOECHL correction:   -0.072474