 vasp.6.2.0 18Jan21 (build Jun 12 2021 23:27:24) complex

 executed on             LinuxIFC date 2022.05.30  17:20:47

 INCAR:
   ISMEAR = -5
   SIGMA = 0.1
   ISPIN = 1
   EDIFF = 1.d-5
   EDIFFG = -0.01
   NSW = 0
   NELM = 150
   ENCUT = 500
   ISIF = 2
   IBRION = 2
   LREAL = Auto
   ALGO = Fast
   ICHARG = 11
   LORBIT = 10
   LCHARG = .F.
   LWAVE = .F.

 POTCAR:    PAW_PBE Ag 02Apr2005
 POTCAR:    PAW_PBE Ru 04Feb2005
 POTCAR:    PAW_PBE C 08Apr2002
|           W    W    AA    RRRRR   N    N  II  N    N   GGGG   !!!           |
|           W    W   A  A   R    R  NN   N  II  NN   N  G    G  !!!           |
|           W    W  A    A  R    R  N N  N  II  N N  N  G       !!!           |
|           W WW W  AAAAAA  RRRRR   N  N N  II  N  N N  G  GGG   !            |
|           WW  WW  A    A  R   R   N   NN  II  N   NN  G    G                |
|           W    W  A    A  R    R  N    N  II  N    N   GGGG   !!!           |
|     For optimal performance we recommend to set                             |
|       NCORE = 2 up to number-of-cores-per-socket                            |
|     This setting can greatly improve the performance of VASP for DFT.       |
|     The default, NCORE=1 might be grossly inefficient on modern             |
|     multi-core architectures or massively parallel machines. Do your        |
|     Unfortunately you need to use the default for GW and RPA                |
|     calculations (for HF NCORE is supported but not extensively tested      |
|     yet).                                                                   |

 POTCAR:    PAW_PBE Ag 02Apr2005
   VRHFIN =Ag : s1 d10

   TITEL  = PAW_PBE Ag 02Apr2005
   POMASS =  107.868; ZVAL   =   11.000    mass and valenz
   ENMAX  =  249.844; ENMIN  =  187.383 eV

 POTCAR:    PAW_PBE Ru 04Feb2005
   VRHFIN =Ru: s1 d7

   TITEL  = PAW_PBE Ru 04Feb2005
   POMASS =  101.070; ZVAL   =    8.000    mass and valenz
   ENMAX  =  213.271; ENMIN  =  159.953 eV

 POTCAR:    PAW_PBE C 08Apr2002
   VRHFIN =C: s2p2

   TITEL  = PAW_PBE C 08Apr2002
   POMASS =   12.011; ZVAL   =    4.000    mass and valenz
   ENMAX  =  400.000; ENMIN  =  300.000 eV

 Optimization of the real space projectors (new method)

 maximal supplied QI-value         = 15.12
 optimisation between [QCUT,QGAM] = [ 11.34, 22.83] = [ 36.00,145.93] Ry
 Optimized for a Real-space Cutoff    1.43 Angstroem

   l    n(q)    QCUT    max X(q) W(low)/X(q) W(high)/X(q)  e(spline)
   2      9    11.338    53.897    0.16E-03    0.20E-03    0.28E-06
   2      9    11.338    52.416    0.16E-03    0.20E-03    0.29E-06
   0     10    11.338   122.045    0.31E-04    0.76E-04    0.15E-06
   0     10    11.338    73.629    0.30E-04    0.72E-04    0.15E-06
   1      9    11.338    15.255    0.20E-03    0.19E-04    0.17E-06
   1      9    11.338     9.562    0.16E-03    0.15E-04    0.14E-06
 Optimization of the real space projectors (new method)

[...]

   l    n(q)    QCUT    max X(q) W(low)/X(q) W(high)/X(q)  e(spline)
   2      9    11.327    61.733    0.26E-03    0.14E-03    0.16E-06
   2      9    11.327    59.886    0.26E-03    0.14E-03    0.17E-06
   0     10    11.327    23.358    0.19E-03    0.14E-04    0.46E-06
   0     10    11.327    11.320    0.15E-03    0.11E-04    0.37E-06
   1     10    11.327    14.765    0.49E-04    0.26E-03    0.24E-06
   1     10    11.327     8.283    0.37E-04    0.20E-03    0.18E-06
 Optimization of the real space projectors (new method)

 maximal supplied QI-value         = 25.13
 optimisation between [QCUT,QGAM] = [ 11.31, 22.87] = [ 35.82,146.48] Ry
 Optimized for a Real-space Cutoff    1.00 Angstroem

   l    n(q)    QCUT    max X(q) W(low)/X(q) W(high)/X(q)  e(spline)
   0      7    11.310   115.676    0.43E-03    0.13E-02    0.19E-06
   0      7    11.310    87.132    0.43E-03    0.13E-02    0.18E-06
   1      6    11.310     4.429    0.42E-03    0.74E-03    0.11E-06
   1      6    11.310     2.733    0.34E-03    0.55E-03    0.92E-07
  PAW_PBE Ag 02Apr2005                  :
  PAW_PBE Ru 04Feb2005                  :
  PAW_PBE C 08Apr2002                   :

 POSCAR: Ag-Ru-C
  positions in direct lattice
  velocities in cartesian coordinates
 exchange correlation table for  LEXCH =        8
   RHO(1)=    0.500       N(1)  =     2000
   RHO(2)=  100.500       N(2)  =     4000

 VTST: version 3.2, (02/03/18)

 CHAIN: initializing optimizer

 OPT: Using VASP Conjugate-Gradient optimizer
 CHAIN: Read ICHAIN            0

 POSCAR: Ag-Ru-C
  positions in direct lattice
  velocities in cartesian coordinates

 ion  position               nearest neighbor table
   1  0.000  0.000  0.217-   2 2.93   8 2.93   7 2.93   6 2.93   4 2.93  12 2.93  16 2.93  10 2.93
                             3 2.93
   2  0.333  0.000  0.217-   1 2.93   8 2.93   9 2.93   3 2.93   4 2.93   5 2.93  10 2.93  17 2.93
                            11 2.93
   3  0.667  0.000  0.217-   9 2.93   2 2.93   5 2.93  11 2.93   7 2.93  18 2.93   1 2.93   6 2.93
                            12 2.93
   4  0.000  0.333  0.217-   5 2.93   6 2.93   2 2.93   1 2.93   7 2.93  13 2.93  15 2.93   9 2.93
                            10 2.93
   5  0.333  0.333  0.217-   4 2.93   3 2.93   7 2.93   2 2.93   8 2.93  14 2.93  13 2.93  11 2.93
                             6 2.93
   6  0.667  0.333  0.217-   4 2.93   9 2.93   1 2.93  15 2.93   8 2.93  12 2.93   3 2.93   5 2.93
                            14 2.93
   7  0.000  0.667  0.217-   8 2.93   1 2.93   5 2.93   3 2.93   4 2.93  16 2.93  18 2.93  13 2.93
                             9 2.93
   8  0.333  0.667  0.217-   7 2.93   1 2.93   2 2.93   9 2.93   5 2.93  16 2.93   6 2.93  17 2.93
                            14 2.93
   9  0.667  0.667  0.217-   3 2.93   2 2.93   8 2.93   6 2.93  17 2.93   4 2.93  15 2.93   7 2.93
                            18 2.93
  10  0.111  0.111  0.315-  20 2.90  19 2.93  26 2.93  12 2.93  16 2.93  15 2.93  17 2.93  13 2.93
                            11 2.93   2 2.93   1 2.93   4 2.93
  11  0.444  0.111  0.315-  21 2.90  20 2.90  27 2.92  14 2.93  17 2.93  18 2.93   3 2.93  12 2.93
                            13 2.93  10 2.93   5 2.93   2 2.93
  12  0.778  0.111  0.315-  21 2.90  25 2.93  19 2.93  10 2.93  16 2.93  18 2.93  15 2.93  11 2.93
                             1 2.93  14 2.93   6 2.93   3 2.93
  13  0.111  0.444  0.315-  20 2.90  23 2.90  22 2.92  15 2.93  14 2.93  18 2.93  10 2.93  11 2.93
                            16 2.93   4 2.93   5 2.93   7 2.93
  14  0.444  0.444  0.315-  23 2.90  21 2.90  24 2.92  13 2.93  11 2.93  16 2.93   5 2.93  12 2.93
                            17 2.93   8 2.93  15 2.93   6 2.93
  15  0.778  0.444  0.315-  24 2.92  22 2.92  19 2.93  13 2.93  10 2.93  12 2.93  17 2.93  18 2.93
                             4 2.93   6 2.93   9 2.93  14 2.93
  16  0.111  0.778  0.315-  23 2.90  26 2.93  25 2.93  18 2.93  12 2.93  10 2.93  14 2.93  17 2.93
                            13 2.93   7 2.93   8 2.93   1 2.93
  17  0.444  0.778  0.315-  27 2.92  24 2.92  26 2.93  11 2.93  10 2.93   9 2.93  18 2.93  15 2.93
                            16 2.93   2 2.93  14 2.93   8 2.93
  18  0.778  0.778  0.315-  22 2.92  27 2.92  25 2.93  16 2.93  12 2.93  13 2.93  11 2.93  17 2.93
                            15 2.93   7 2.93   3 2.93   9 2.93
  19  0.889  0.223  0.413-  28 2.91  15 2.93  10 2.93  12 2.93  24 2.93  22 2.93  26 2.93  25 2.93
                            20 2.94  21 2.94  32 2.94  31 2.94
  20  0.223  0.223  0.412-  36 2.77  13 2.90  11 2.90  10 2.90  21 2.92  23 2.92  31 2.92  29 2.92
                            27 2.93  22 2.93  19 2.94  26 2.94
  21  0.555  0.223  0.412-  36 2.77  11 2.90  14 2.90  12 2.90  20 2.92  23 2.92  30 2.92  32 2.92
                            27 2.93  24 2.93  25 2.94  19 2.94
  22  0.888  0.556  0.413-  35 2.91  18 2.92  15 2.92  13 2.92  33 2.92  31 2.92  24 2.92  27 2.92
                            25 2.93  19 2.93  23 2.93  20 2.93
  23  0.223  0.555  0.412-  36 2.77  14 2.90  13 2.90  16 2.90  21 2.92  20 2.92  34 2.92  33 2.92
                            22 2.93  24 2.93  26 2.94  25 2.94
  24  0.556  0.556  0.413-  35 2.91  15 2.92  17 2.92  14 2.92  32 2.92  34 2.92  27 2.92  22 2.92
                            19 2.93  26 2.93  23 2.93  21 2.93
  25  0.889  0.889  0.413-  28 2.91  18 2.93  16 2.93  12 2.93  22 2.93  27 2.93  26 2.93  19 2.93
                            23 2.94  21 2.94  33 2.94  30 2.94
  26  0.223  0.889  0.413-  28 2.91  17 2.93  16 2.93  10 2.93  27 2.93  24 2.93  25 2.93  19 2.93
                            23 2.94  20 2.94  34 2.94  29 2.94
  27  0.556  0.888  0.413-  35 2.91  17 2.92  18 2.92  11 2.92  29 2.92  30 2.92  24 2.92  22 2.92
                            26 2.93  25 2.93  20 2.93  21 2.93
  28  0.000  0.000  0.510-  26 2.91  25 2.91  19 2.91  29 2.95  34 2.95  33 2.95  32 2.95  31 2.95
                            30 2.95
  29  0.333  0.006  0.511-  31 2.88  30 2.88  36 2.89  20 2.92  27 2.92  26 2.94  28 2.95  35 2.96
                            34 3.03
  30  0.661  0.006  0.511-  32 2.88  29 2.88  36 2.89  21 2.92  27 2.92  25 2.94  28 2.95  35 2.96
                            33 3.03
  31  0.006  0.333  0.511-  29 2.88  33 2.88  36 2.89  20 2.92  22 2.92  19 2.94  28 2.95  35 2.96
                            32 3.03
  32  0.661  0.333  0.511-  30 2.88  34 2.88  36 2.89  21 2.92  24 2.92  19 2.94  28 2.95  35 2.96
                            31 3.03
  33  0.006  0.661  0.511-  34 2.88  31 2.88  36 2.89  23 2.92  22 2.92  25 2.94  28 2.95  35 2.96
                            30 3.03
  34  0.333  0.661  0.511-  33 2.88  32 2.88  36 2.89  23 2.92  24 2.92  26 2.94  28 2.95  35 2.96
                            29 3.03
  35  0.667  0.667  0.510-  24 2.91  27 2.91  22 2.91  30 2.96  32 2.96  29 2.96  34 2.96  31 2.96
                            33 2.96
  36  0.333  0.333  0.502-  37 1.68  21 2.77  20 2.77  23 2.77  31 2.89  30 2.89  33 2.89  29 2.89
                            34 2.89  32 2.89
  37  0.333  0.333  0.571-  36 1.68

  LATTYP: Found a hexagonal cell.
 ALAT       =     8.7913665772
 C/A-ratio  =     2.7711238095

  Lattice vectors:

 A1 = (  -4.3956832886,  -7.6135467898,   0.0000000000)
 A2 = (   8.7913665771,   0.0000000000,   0.0000000000)
 A3 = (   0.0000000000,   0.0000000000,  24.3619652401)

Analysis of symmetry for initial positions (statically):
 Subroutine PRICEL returns:
 Original cell was already a primitive cell.

 Routine SETGRP: Setting up the symmetry group for a
 hexagonal supercell.

 Subroutine GETGRP returns: Found  6 space group operations
 (whereof  6 operations were pure point group operations)
 out of a pool of 24 trial point group operations.

The static configuration has the point symmetry C_3v.

Analysis of symmetry for dynamics (positions and initial velocities):
 Subroutine PRICEL returns:
 Original cell was already a primitive cell.

[...]

The dynamic configuration has the point symmetry C_3v.

Analysis of constrained symmetry for selective dynamics:
 Subroutine PRICEL returns:
 Original cell was already a primitive cell.

 Routine SETGRP: Setting up the symmetry group for a
 hexagonal supercell.

 Subroutine GETGRP returns: Found  6 space group operations
[...]
     24      -5.0913      2.00000
     25      -5.0737      2.00000
     26      -5.0575      2.00000
     27      -5.0456      2.00000
     28      -5.0266      2.00000
     29      -5.0233      2.00000
     30      -4.9971      2.00000
     31      -4.9859      2.00000
     32      -4.9832      2.00000
     33      -4.9454      2.00000
     34      -4.9137      2.00000
     35      -4.8835      2.00000
     36      -4.8572      2.00000
     37      -4.8470      2.00000
     38      -4.8348      2.00000
     39      -4.8053      2.00000
     40      -4.7975      2.00000
     41      -4.7848      2.00000
     42      -4.7671      2.00000
     43      -4.7583      2.00000
     44      -4.6773      2.00000
     45      -4.6419      2.00000
     46      -4.6399      2.00000
     47      -4.6315      2.00000
     48      -4.6236      2.00000
     49      -4.6221      2.00000
     50      -4.6034      2.00000
     51      -4.6010      2.00000
     52      -4.5958      2.00000
     53      -4.5874      2.00000
     54      -4.5181      2.00000
     55      -4.5033      2.00000
     56      -4.5020      2.00000
     57      -4.4943      2.00000
     58      -4.4744      2.00000
     59      -4.4647      2.00000
     60      -4.4377      2.00000
[...]
    238       5.8576      0.00000
    239       5.9532      0.00000
    240       6.0126      0.00000
    241       6.4691      0.00000
    242       6.4879      0.00000
    243       6.6547      0.00000
    244       6.6958      0.00000
    245       6.7654      0.00000
    246       6.7931      0.00000
    247       6.8418      0.00000
    248       6.9106      0.00000
    249       6.9938      0.00000
    250       7.1511      0.00000
    251       7.2331      0.00000
    252       7.2687      0.00000

 soft charge-density along one line, spin component           1
         0         1         2         3         4         5         6         7         8         9
 total charge-density along one line

------------------------ aborting loop because EDIFF is reached ----------------------------------------

 total charge

# of ion       s       p       d       tot
    1        0.416   0.204   9.177   9.797
    2        0.417   0.203   9.177   9.797
    3        0.417   0.203   9.177   9.797
    4        0.417   0.203   9.177   9.797
    5        0.419   0.201   9.178   9.799
    6        0.417   0.203   9.177   9.797
    7        0.417   0.203   9.177   9.797
    8        0.417   0.203   9.177   9.797
    9        0.412   0.205   9.176   9.793
   10        0.406   0.269   9.166   9.840
   11        0.405   0.272   9.165   9.841
   12        0.406   0.269   9.166   9.840
   13        0.405   0.272   9.165   9.841
   14        0.405   0.272   9.165   9.841
   15        0.402   0.270   9.165   9.837
   16        0.406   0.269   9.166   9.840
   17        0.402   0.270   9.165   9.837
   18        0.402   0.270   9.165   9.837
   19        0.405   0.264   9.169   9.838
   20        0.424   0.292   9.155   9.870
   21        0.424   0.292   9.155   9.870
   22        0.395   0.276   9.164   9.836
   23        0.424   0.292   9.155   9.870
   24        0.395   0.276   9.164   9.836
   25        0.405   0.264   9.169   9.838
   26        0.405   0.264   9.169   9.838
   27        0.395   0.276   9.164   9.836
   28        0.419   0.195   9.181   9.795
   29        0.410   0.211   9.179   9.800
   30        0.410   0.211   9.179   9.800
   31        0.410   0.211   9.179   9.800
   32        0.410   0.211   9.179   9.800
   33        0.410   0.211   9.179   9.800
   34        0.410   0.211   9.179   9.800
   35        0.414   0.196   9.182   9.793
   36        0.583   0.594   7.039   8.216
   37        1.017   1.237   0.000   2.254
tot         15.953  10.247 328.019 354.219

  FORCE on cell =-STRESS in cart. coord.  units (eV):
  Direction    XX          YY          ZZ          XY          YZ          ZX
  Alpha Z   677.87047   677.87047   677.87047
  Ewald  153503.07276153503.07278************     0.00002    -0.00000     0.00002
  Hartree163429.40686163429.40687************     0.00001    -0.00000     0.00001
  E(xc)   -2081.25389 -2081.25388 -2086.94164    -0.00001     0.00000     0.00000
  Local  ************************328409.06231     0.00028    -0.00004    -0.00011
  n-local  -320.77542  -301.24555  -305.60307    12.08071    -0.47667     0.60830
  augment  3268.56392  3268.56411  3268.53971    -0.00016    -0.00001     0.00003
  Kinetic  4922.37739  4926.19668  4927.14039     5.14678     0.84388    -0.28806
  Fock        0.00000     0.00000     0.00000     0.00000     0.00000     0.00000
  Total      -6.20282    -6.20282     0.29369    -0.00000     0.00000     0.00000
  in kB      -6.09459    -6.09459     0.28857    -0.00000     0.00000     0.00000

 VOLUME and BASIS-vectors are now :
  energy-cutoff  :      500.00
  volume of cell :     1630.63
      direct lattice vectors                 reciprocal lattice vectors
     8.791366577  0.000000000  0.000000000     0.113747958 -0.065672414  0.000000000
     4.395683289  7.613546790  0.000000000     0.000000000  0.131344829  0.000000000
     0.000000000  0.000000000 24.361965240     0.000000000  0.000000000  0.041047592

  length of vectors
     8.791366577  8.791366577 24.361965240     0.131344829  0.131344829  0.041047592

 FORCES acting on ions
    electron-ion (+dipol)            ewald-force                    non-local-force                 convergence-correction
   0.462E-04 -.281E-04 0.268E+04   -.954E-04 0.593E-04 -.268E+04   0.407E-18 0.728E-18 -.187E+01   -.106E-03 -.168E-03 -.195E+00
   0.356E+00 0.443E+00 0.268E+04   -.376E+00 -.456E+00 -.268E+04   -.168E-01 0.234E-01 -.171E+01   0.381E-01 -.101E-01 -.165E+00
   -.356E+00 0.443E+00 0.268E+04   0.376E+00 -.456E+00 -.268E+04   0.168E-01 0.234E-01 -.171E+01   -.387E-01 -.818E-02 -.165E+00
   0.562E+00 0.869E-01 0.268E+04   -.583E+00 -.973E-01 -.268E+04   0.118E-01 -.262E-01 -.171E+01   0.105E-01 0.382E-01 -.165E+00
   -.729E-05 -.196E-04 0.268E+04   0.981E-04 -.198E-05 -.268E+04   0.101E-17 -.193E-17 -.175E+01   0.624E-02 0.381E-02 -.130E+00
   -.562E+00 0.869E-01 0.268E+04   0.583E+00 -.973E-01 -.268E+04   -.118E-01 -.262E-01 -.171E+01   -.119E-01 0.392E-01 -.164E+00
   0.206E+00 -.530E+00 0.268E+04   -.207E+00 0.554E+00 -.268E+04   0.286E-01 0.287E-02 -.171E+01   -.260E-01 -.289E-01 -.165E+00
   -.206E+00 -.530E+00 0.268E+04   0.207E+00 0.554E+00 -.268E+04   -.286E-01 0.287E-02 -.171E+01   0.276E-01 -.299E-01 -.164E+00
   0.363E-04 -.130E-04 0.268E+04   0.792E-04 -.643E-04 -.268E+04   -.303E-18 -.207E-17 -.182E+01   -.666E-02 -.344E-02 -.195E+00
   0.407E+01 0.235E+01 0.901E+03   -.400E+01 -.231E+01 -.900E+03   -.177E+00 -.102E+00 -.543E+00   0.909E-01 0.525E-01 -.125E-01
   -.286E-04 0.476E+01 0.907E+03   0.412E-04 -.486E+01 -.906E+03   0.238E-12 0.363E-01 -.736E+00   0.629E-02 0.373E-01 0.511E-03
   -.407E+01 0.235E+01 0.901E+03   0.400E+01 -.231E+01 -.900E+03   0.177E+00 -.102E+00 -.543E+00   -.925E-01 0.536E-01 -.127E-01
   0.412E+01 -.238E+01 0.907E+03   -.421E+01 0.243E+01 -.906E+03   0.315E-01 -.182E-01 -.736E+00   0.353E-01 -.132E-01 0.501E-03
   -.412E+01 -.238E+01 0.907E+03   0.421E+01 0.243E+01 -.906E+03   -.315E-01 -.182E-01 -.736E+00   -.247E-01 -.140E-01 -.255E-03
   0.163E-04 0.563E+00 0.901E+03   -.108E-03 -.747E+00 -.900E+03   0.165E-12 0.251E-01 -.562E+00   -.165E-02 0.136E+00 -.440E-01
   -.783E-05 -.470E+01 0.901E+03   0.206E-04 0.462E+01 -.900E+03   0.134E-11 0.204E+00 -.543E+00   0.121E-03 -.107E+00 -.126E-01
   0.487E+00 -.281E+00 0.901E+03   -.647E+00 0.373E+00 -.900E+03   0.217E-01 -.125E-01 -.562E+00   0.117E+00 -.696E-01 -.440E-01
   -.488E+00 -.281E+00 0.901E+03   0.647E+00 0.373E+00 -.900E+03   -.217E-01 -.125E-01 -.562E+00   -.117E+00 -.677E-01 -.434E-01
   0.397E-04 0.282E+00 -.902E+03   -.128E-03 -.226E+00 0.901E+03   -.259E-12 -.395E-01 0.662E+00   -.399E-03 0.387E-03 0.133E+00
   0.846E+01 0.489E+01 -.876E+03   -.815E+01 -.471E+01 0.876E+03   -.625E+00 -.361E+00 -.488E+00   0.900E-01 0.520E-01 0.124E+00
   -.846E+01 0.489E+01 -.876E+03   0.815E+01 -.471E+01 0.876E+03   0.625E+00 -.361E+00 -.488E+00   -.901E-01 0.524E-01 0.123E+00
   0.199E+01 -.115E+01 -.894E+03   -.229E+01 0.132E+01 0.893E+03   0.320E+00 -.185E+00 0.690E+00   0.649E-03 -.660E-04 0.551E-01
   -.552E-04 -.977E+01 -.876E+03   0.426E-04 0.941E+01 0.876E+03   0.474E-11 0.721E+00 -.488E+00   0.643E-03 -.104E+00 0.123E+00
   -.199E+01 -.115E+01 -.894E+03   0.229E+01 0.132E+01 0.893E+03   -.320E+00 -.185E+00 0.690E+00   -.611E-03 -.254E-03 0.552E-01
   -.244E+00 -.141E+00 -.902E+03   0.196E+00 0.113E+00 0.901E+03   0.342E-01 0.198E-01 0.662E+00   0.153E-03 -.642E-04 0.132E+00
   0.244E+00 -.141E+00 -.902E+03   -.196E+00 0.113E+00 0.901E+03   -.342E-01 0.198E-01 0.662E+00   -.171E-03 -.662E-03 0.133E+00
   0.199E-04 0.230E+01 -.894E+03   0.110E-03 -.264E+01 0.893E+03   0.243E-11 0.369E+00 0.690E+00   -.397E-03 0.567E-03 0.551E-01
   0.539E-04 -.371E-04 -.266E+04   -.115E-03 0.778E-04 0.266E+04   -.522E-17 0.113E-16 0.198E+01   0.718E-04 -.947E-04 0.188E+00
   0.135E+02 0.237E+02 -.266E+04   -.131E+02 -.233E+02 0.265E+04   -.494E+00 -.687E+00 0.236E+01   0.421E-01 0.109E+00 0.948E-01
   -.135E+02 0.237E+02 -.266E+04   0.131E+02 -.233E+02 0.265E+04   0.494E+00 -.687E+00 0.236E+01   -.427E-01 0.111E+00 0.948E-01
   0.273E+02 -.203E+00 -.266E+04   -.268E+02 0.313E+00 0.265E+04   -.842E+00 -.842E-01 0.236E+01   0.116E+00 -.179E-01 0.948E-01
   -.273E+02 -.203E+00 -.266E+04   0.268E+02 0.312E+00 0.265E+04   0.842E+00 -.842E-01 0.236E+01   -.117E+00 -.170E-01 0.948E-01
   0.138E+02 -.235E+02 -.266E+04   -.136E+02 0.230E+02 0.265E+04   -.348E+00 0.771E+00 0.236E+01   0.749E-01 -.917E-01 0.948E-01
   -.138E+02 -.235E+02 -.266E+04   0.136E+02 0.230E+02 0.265E+04   0.348E+00 0.771E+00 0.236E+01   -.734E-01 -.924E-01 0.948E-01
   0.233E-04 -.122E-04 -.266E+04   0.106E-03 -.659E-04 0.266E+04   0.263E-17 -.327E-19 0.214E+01   -.655E-02 -.335E-02 0.225E+00
   -.849E-05 -.148E-04 -.172E+04   0.767E-04 0.950E-05 0.173E+04   0.263E-17 0.783E-18 -.726E+01   0.203E-02 0.124E-02 -.194E-03
   0.471E-04 -.278E-04 -.121E+04   0.198E-04 0.305E-06 0.122E+04   0.335E-19 -.826E-19 -.992E+01   0.755E-03 0.462E-03 -.249E-01
   0.402E-03 -.726E-03 0.173E+02   0.783E-13 -.158E-12 -.159E-11   -.217E-15 -.221E-15 -.175E+02   0.908E-02 0.848E-02 0.213E+00

 POSITION                                       TOTAL-FORCE (eV/Angst)
      0.00000      0.00000      5.28219        -0.000000     -0.000000      0.027878
      2.93046      0.00000      5.28219         0.002523      0.001411      0.028501
      5.86091      0.00000      5.28219        -0.002523      0.001411      0.028501
      1.46523      2.53785      5.28219         0.002483      0.001480      0.028501
      4.39568      2.53785      5.28219         0.000000     -0.000000     -0.005970
      7.32614      2.53785      5.28219        -0.002483      0.001480      0.028501
      2.93046      5.07570      5.28219        -0.000040     -0.002890      0.028501
      5.86091      5.07570      5.28219         0.000040     -0.002890      0.028501
      8.79137      5.07570      5.28219        -0.000000     -0.000000      0.040636
      1.46523      0.84595      7.67490        -0.012148     -0.007014     -0.009208
      4.39568      0.84595      7.67490        -0.000000     -0.035207     -0.072780
      7.32614      0.84595      7.67490         0.012148     -0.007014     -0.009208
      2.93046      3.38380      7.67490        -0.030490      0.017604     -0.072780
      5.86091      3.38380      7.67490         0.030490      0.017604     -0.072780
      8.79137      3.38380      7.67490        -0.000000     -0.022823      0.012068
      4.39568      5.92165      7.67490         0.000000      0.014027     -0.009208
      7.32614      5.92165      7.67490        -0.019765      0.011411      0.012068
     10.25659      5.92165      7.67490         0.019765      0.011411      0.012068
      8.79137      1.69450     10.06282         0.000000      0.016320      0.014649
      2.93652      1.69540     10.03056        -0.225143     -0.129986     -0.196164
      5.85484      1.69540     10.03056         0.225143     -0.129986     -0.196164
     10.25378      4.23137     10.05553         0.025702     -0.014839      0.016635
      4.39568      4.22274     10.03056         0.000000      0.259973     -0.196164
      7.32895      4.23137     10.05553        -0.025702     -0.014839      0.016635
     11.71957      6.76630     10.06282        -0.014133     -0.008160      0.014649
      5.86316      6.76630     10.06282         0.014133     -0.008160      0.014649
      8.79137      6.76435     10.05553         0.000000      0.029678      0.016635
      0.00000      0.00000     12.42400        -0.000000     -0.000000      0.008741
      2.95387      0.04433     12.43748        -0.087329     -0.165856     -0.078334
      5.83749      0.04433     12.43748         0.087329     -0.165856     -0.078334
      1.51533      2.53597     12.43748        -0.187300      0.007299     -0.078334
      7.27604      2.53597     12.43748         0.187300      0.007299     -0.078334
      2.95713      5.03325     12.43748        -0.099971      0.158557     -0.078334
      5.83423      5.03325     12.43748         0.099971      0.158557     -0.078334
      8.79137      5.07570     12.42069        -0.000000     -0.000000     -0.007673
      4.39568      2.53785     12.23056        -0.000000     -0.000000      0.912972
      4.39568      2.53785     13.91178        -0.000000     -0.000000      0.026813
    total drift:                                0.009479      0.007757     -0.056189

  FREE ENERGIE OF THE ION-ELECTRON SYSTEM (eV)
  free  energy   TOTEN  =      -103.78012118 eV

  energy  without entropy=     -103.78012118  energy(sigma->0) =     -103.78012118

 stress matrix after NEB project (eV)
     -6.20282     -0.00000      0.00000
     -0.00000     -6.20282     -0.00000
      0.00000      0.00000      0.29369
  FORCES: max atom, RMS     0.026813    0.004408
  FORCE total and by dimension    0.026813    0.026813
  Stress total and by dimension    8.777033    6.202824
|           W    W    AA    RRRRR   N    N  II  N    N   GGGG   !!!           |
|           W    W   A  A   R    R  NN   N  II  NN   N  G    G  !!!           |
|           W    W  A    A  R    R  N N  N  II  N N  N  G       !!!           |
|           W WW W  AAAAAA  RRRRR   N  N N  II  N  N N  G  GGG   !            |
|           WW  WW  A    A  R   R   N   NN  II  N   NN  G    G                |
|           W    W  A    A  R    R  N    N  II  N    N   GGGG   !!!           |
|     Tetrahedron method does not include variations of the Fermi             |
|     occupations, so forces and stress will be inaccurate. We suggest        |
|     using a different smearing scheme ISMEAR = 1 or 2 for metals in         |
|     relaxations.                                                            |

 total charge

# of ion       s       p       d       tot
    1        0.416   0.204   9.177   9.797
    2        0.417   0.203   9.177   9.797
    3        0.417   0.203   9.177   9.797
    4        0.417   0.203   9.177   9.797
    5        0.419   0.201   9.178   9.799
    6        0.417   0.203   9.177   9.797
    7        0.417   0.203   9.177   9.797
    8        0.417   0.203   9.177   9.797
    9        0.412   0.205   9.176   9.793
   10        0.406   0.269   9.166   9.840
   11        0.405   0.272   9.165   9.841
   12        0.406   0.269   9.166   9.840
   13        0.405   0.272   9.165   9.841
   14        0.405   0.272   9.165   9.841
   15        0.402   0.270   9.165   9.837
   16        0.406   0.269   9.166   9.840
   17        0.402   0.270   9.165   9.837
   18        0.402   0.270   9.165   9.837
   19        0.405   0.264   9.169   9.838
   20        0.424   0.292   9.155   9.870
   21        0.424   0.292   9.155   9.870
   22        0.395   0.276   9.164   9.836
   23        0.424   0.292   9.155   9.870
   24        0.395   0.276   9.164   9.836
   25        0.405   0.264   9.169   9.838
   26        0.405   0.264   9.169   9.838
   27        0.395   0.276   9.164   9.836
   28        0.419   0.195   9.181   9.795
   29        0.410   0.211   9.179   9.800
   30        0.410   0.211   9.179   9.800
   31        0.410   0.211   9.179   9.800
   32        0.410   0.211   9.179   9.800
   33        0.410   0.211   9.179   9.800
   34        0.410   0.211   9.179   9.800
   35        0.414   0.196   9.182   9.793
   36        0.583   0.594   7.039   8.216
   37        1.017   1.237   0.000   2.254
tot         15.953  10.247 328.019 354.219

 BZINTS: Fermi energy:    0.353493;  397.000000 electrons
         Band energy:-0.147391E+04;  BLOECHL correction:   -0.079211