 vasp.6.2.0 18Jan21 (build Jun 12 2021 23:27:24) complex

 executed on             LinuxIFC date 2022.05.27  06:06:49

 INCAR:
   ISMEAR = -5
   SIGMA = 0.1
   ISPIN = 1
   EDIFF = 1.d-5
   EDIFFG = -0.01
   NSW = 0
   NELM = 150
   ENCUT = 500
   ISIF = 2
   IBRION = 2
   LREAL = Auto
   ALGO = Fast
   ICHARG = 11
   LORBIT = 10
   LCHARG = .F.
   LWAVE = .F.

 POTCAR:    PAW_PBE Cu 22Jun2005
 POTCAR:    PAW_PBE Mo 08Apr2002
 POTCAR:    PAW_PBE N 08Apr2002
|           W    W    AA    RRRRR   N    N  II  N    N   GGGG   !!!           |
|           W    W   A  A   R    R  NN   N  II  NN   N  G    G  !!!           |
|           W    W  A    A  R    R  N N  N  II  N N  N  G       !!!           |
|           W WW W  AAAAAA  RRRRR   N  N N  II  N  N N  G  GGG   !            |
|           WW  WW  A    A  R   R   N   NN  II  N   NN  G    G                |
|           W    W  A    A  R    R  N    N  II  N    N   GGGG   !!!           |
|     For optimal performance we recommend to set                             |
|       NCORE = 2 up to number-of-cores-per-socket                            |
|     This setting can greatly improve the performance of VASP for DFT.       |
|     The default, NCORE=1 might be grossly inefficient on modern             |
|     multi-core architectures or massively parallel machines. Do your        |
|     Unfortunately you need to use the default for GW and RPA                |
|     calculations (for HF NCORE is supported but not extensively tested      |
|     yet).                                                                   |

 POTCAR:    PAW_PBE Cu 22Jun2005
   VRHFIN =Cu: d10 p1

   TITEL  = PAW_PBE Cu 22Jun2005
   POMASS =   63.546; ZVAL   =   11.000    mass and valenz
   ENMAX  =  295.446; ENMIN  =  221.585 eV

 POTCAR:    PAW_PBE Mo 08Apr2002
   VRHFIN =Mo: 4p5s4d

   TITEL  = PAW_PBE Mo 08Apr2002
   POMASS =   95.940; ZVAL   =    6.000    mass and valenz
   ENMAX  =  224.584; ENMIN  =  168.438 eV

 POTCAR:    PAW_PBE N 08Apr2002
   VRHFIN =N: s2p3

   TITEL  = PAW_PBE N 08Apr2002
   POMASS =   14.001; ZVAL   =    5.000    mass and valenz
   ENMAX  =  400.000; ENMIN  =  300.000 eV

 Optimization of the real space projectors (new method)

 maximal supplied QI-value         = 16.25
 optimisation between [QCUT,QGAM] = [ 11.38, 22.75] = [ 36.24,144.96] Ry
 Optimized for a Real-space Cutoff    1.52 Angstroem

   l    n(q)    QCUT    max X(q) W(low)/X(q) W(high)/X(q)  e(spline)
   2      9    11.376     4.610    0.21E-03    0.10E-03    0.26E-06
   2      9    11.376     8.522    0.33E-03    0.16E-03    0.37E-06
   0     10    11.376    51.609    0.62E-04    0.20E-04    0.13E-06
   0     10    11.376    27.747    0.54E-04    0.20E-04    0.13E-06
   1     10    11.376    20.408    0.13E-04    0.99E-04    0.19E-06
   1     10    11.376    13.425    0.12E-04    0.87E-04    0.17E-06
 Optimization of the real space projectors (new method)

[...]

   l    n(q)    QCUT    max X(q) W(low)/X(q) W(high)/X(q)  e(spline)
   2     10    11.429    80.908    0.27E-03    0.78E-03    0.13E-05
   2     10    11.429    79.000    0.27E-03    0.78E-03    0.13E-05
   0     11    11.429    52.066    0.33E-04    0.97E-04    0.72E-06
   0     11    11.429    24.514    0.27E-04    0.80E-04    0.60E-06
   1     10    11.429    16.033    0.31E-04    0.17E-03    0.36E-06
   1     10    11.429    11.179    0.22E-04    0.13E-03    0.29E-06
 Optimization of the real space projectors (new method)

 maximal supplied QI-value         = 25.13
 optimisation between [QCUT,QGAM] = [ 11.31, 22.87] = [ 35.82,146.48] Ry
 Optimized for a Real-space Cutoff    1.27 Angstroem

   l    n(q)    QCUT    max X(q) W(low)/X(q) W(high)/X(q)  e(spline)
   0      9    11.310    79.467    0.75E-04    0.16E-03    0.36E-06
   0      9    11.310    66.151    0.74E-04    0.16E-03    0.36E-06
   1      8    11.310    17.416    0.35E-03    0.12E-03    0.95E-06
   1      8    11.310    12.382    0.37E-03    0.13E-03    0.98E-06
  PAW_PBE Cu 22Jun2005                  :
  PAW_PBE Mo 08Apr2002                  :
  PAW_PBE N 08Apr2002                   :

 POSCAR: Cu-Mo-N2
  positions in direct lattice
  velocities in cartesian coordinates
 exchange correlation table for  LEXCH =        8
   RHO(1)=    0.500       N(1)  =     2000
   RHO(2)=  100.500       N(2)  =     4000

 VTST: version 3.2, (02/03/18)

 CHAIN: initializing optimizer

 OPT: Using VASP Conjugate-Gradient optimizer
 CHAIN: Read ICHAIN            0

 POSCAR: Cu-Mo-N2
  positions in direct lattice
  velocities in cartesian coordinates

 ion  position               nearest neighbor table
   1  0.000  0.000  0.252-   7 2.57   3 2.57   4 2.57   2 2.57   6 2.57   8 2.57  12 2.57  10 2.57
                            16 2.57
   2  0.333  0.000  0.252-   8 2.57   9 2.57   5 2.57   1 2.57   3 2.57  11 2.57   4 2.57  10 2.57
                            17 2.57
   3  0.667  0.000  0.252-   1 2.57   7 2.57   6 2.57   9 2.57   2 2.57  12 2.57   5 2.57  18 2.57
                            11 2.57
   4  0.000  0.333  0.252-   5 2.57   6 2.57   1 2.57   7 2.57   2 2.57  13 2.57   9 2.57  10 2.57
                            15 2.57
   5  0.333  0.333  0.252-   4 2.57   2 2.57   7 2.57  13 2.57   8 2.57   6 2.57   3 2.57  11 2.57
                            14 2.57
   6  0.667  0.333  0.252-   4 2.57   9 2.57  15 2.57   3 2.57   1 2.57   8 2.57  14 2.57   5 2.57
                            12 2.57
   7  0.000  0.667  0.252-   1 2.57   3 2.57  16 2.57  18 2.57   4 2.57   5 2.57   8 2.57   9 2.57
                            13 2.57
   8  0.333  0.667  0.252-   9 2.57   2 2.57  17 2.57   6 2.57   1 2.57   7 2.57   5 2.57  14 2.57
                            16 2.57
   9  0.667  0.667  0.252-   8 2.57   6 2.57   2 2.57  17 2.57   3 2.57   7 2.57   4 2.57  15 2.57
                            18 2.57
  10  0.111  0.111  0.351-  20 2.55  26 2.56  19 2.56  11 2.57  12 2.57  13 2.57   1 2.57   2 2.57
                             4 2.57  15 2.57  16 2.57  17 2.57
  11  0.444  0.111  0.351-  20 2.56  21 2.56  10 2.57  13 2.57   2 2.57  17 2.57  14 2.57  12 2.57
                             5 2.57   3 2.57  18 2.57  27 2.57
  12  0.778  0.111  0.351-  21 2.55  19 2.56  25 2.56  15 2.57  10 2.57  14 2.57  18 2.57   3 2.57
                             1 2.57  16 2.57  11 2.57   6 2.57
  13  0.111  0.444  0.351-  23 2.56  20 2.56  16 2.57  18 2.57  10 2.57  11 2.57  14 2.57   5 2.57
                             4 2.57   7 2.57  15 2.57  22 2.57
  14  0.444  0.444  0.351-  21 2.56  23 2.56  15 2.57  17 2.57  12 2.57  16 2.57  13 2.57  11 2.57
                             6 2.57   8 2.57   5 2.57  24 2.57
  15  0.778  0.444  0.351-  19 2.56  14 2.57  17 2.57  12 2.57   6 2.57  18 2.57  10 2.57   9 2.57
                            13 2.57   4 2.57  24 2.57  22 2.57
  16  0.111  0.778  0.351-  23 2.55  25 2.56  26 2.56  18 2.57  13 2.57   7 2.57  14 2.57  17 2.57
                            12 2.57  10 2.57   8 2.57   1 2.57
  17  0.444  0.778  0.351-  26 2.56  14 2.57  15 2.57   8 2.57   9 2.57  11 2.57  16 2.57  18 2.57
                            10 2.57   2 2.57  27 2.57  24 2.57
  18  0.778  0.778  0.351-  25 2.56  16 2.57  13 2.57   7 2.57  15 2.57  12 2.57  17 2.57   9 2.57
                             3 2.57  11 2.57  22 2.57  27 2.57
  19  0.889  0.222  0.449-  15 2.56  12 2.56  10 2.56  21 2.56  20 2.56  22 2.57  24 2.57  25 2.57
                            26 2.57  28 2.57  32 2.58  31 2.58
  20  0.222  0.222  0.449-  10 2.55  11 2.56  13 2.56  26 2.56  19 2.56  27 2.57  22 2.57  23 2.57
                            21 2.57  36 2.58  29 2.60  31 2.60
  21  0.556  0.222  0.449-  12 2.55  14 2.56  11 2.56  19 2.56  25 2.56  24 2.57  27 2.57  20 2.57
                            23 2.57  36 2.58  32 2.60  30 2.60
  22  0.888  0.556  0.450-  24 2.56  27 2.56  35 2.56  19 2.57  25 2.57  23 2.57  20 2.57  18 2.57
                            15 2.57  13 2.57  31 2.58  33 2.58
  23  0.222  0.556  0.449-  16 2.55  13 2.56  14 2.56  25 2.56  26 2.56  22 2.57  24 2.57  20 2.57
                            21 2.57  36 2.58  33 2.60  34 2.60
  24  0.556  0.556  0.450-  22 2.56  27 2.56  35 2.56  19 2.57  26 2.57  21 2.57  23 2.57  15 2.57
                            17 2.57  14 2.57  32 2.58  34 2.58
  25  0.889  0.889  0.449-  18 2.56  12 2.56  16 2.56  21 2.56  23 2.56  22 2.57  27 2.57  19 2.57
                            26 2.57  28 2.57  33 2.58  30 2.58
  26  0.222  0.889  0.449-  17 2.56  10 2.56  16 2.56  20 2.56  23 2.56  27 2.57  24 2.57  25 2.57
                            19 2.57  28 2.57  29 2.58  34 2.58
  27  0.556  0.888  0.450-  24 2.56  22 2.56  35 2.56  26 2.57  25 2.57  20 2.57  21 2.57  17 2.57
                            18 2.57  11 2.57  29 2.58  30 2.58
  28  0.000  0.000  0.547-  33 2.56  30 2.56  31 2.56  29 2.56  32 2.56  34 2.56  25 2.57  19 2.57
                            26 2.57
  29  0.333  0.998  0.548-  34 2.54  28 2.56  35 2.56  27 2.58  31 2.58  26 2.58  36 2.58  30 2.58
                            20 2.60
  30  0.669  0.998  0.548-  33 2.54  28 2.56  35 2.56  27 2.58  32 2.58  25 2.58  36 2.58  29 2.58
                            21 2.60
  31  0.998  0.333  0.548-  32 2.54  28 2.56  35 2.56  22 2.58  29 2.58  19 2.58  36 2.58  33 2.58
                            20 2.60
  32  0.669  0.333  0.548-  31 2.54  28 2.56  35 2.56  24 2.58  30 2.58  19 2.58  36 2.58  34 2.58
                            21 2.60
  33  0.998  0.669  0.548-  30 2.54  28 2.56  35 2.56  22 2.58  34 2.58  25 2.58  36 2.58  31 2.58
                            23 2.60
  34  0.333  0.669  0.548-  29 2.54  28 2.56  35 2.56  24 2.58  33 2.58  26 2.58  36 2.58  32 2.58
                            23 2.60
  35  0.667  0.667  0.548-  34 2.56  32 2.56  29 2.56  30 2.56  33 2.56  31 2.56  24 2.56  27 2.56
                            22 2.56
  36  0.333  0.333  0.547-  38 2.35  37 2.35  23 2.58  20 2.58  21 2.58  31 2.58  29 2.58  33 2.58
                            34 2.58  32 2.58  30 2.58
  37  0.258  0.334  0.654-  38 1.15  36 2.35
  38  0.408  0.334  0.654-  37 1.15  36 2.35

  LATTYP: Found a hexagonal cell.
 ALAT       =     7.6967864036
 C/A-ratio  =     2.7653617908

  Lattice vectors:

 A1 = (  -3.8483927580,  -6.6656128093,   0.0000000000)
 A2 = (   7.6967864037,   0.0000000000,   0.0000000000)
 A3 = (   0.0000000000,   0.0000000000,  21.2843990326)

Analysis of symmetry for initial positions (statically):
 Subroutine PRICEL returns:
 Original cell was already a primitive cell.

 Routine SETGRP: Setting up the symmetry group for a
 hexagonal supercell.

 Subroutine GETGRP returns: Found  2 space group operations
 (whereof  2 operations were pure point group operations)
 out of a pool of 24 trial point group operations.

The static configuration has the point symmetry C_1h.

Analysis of symmetry for dynamics (positions and initial velocities):
 Subroutine PRICEL returns:
 Original cell was already a primitive cell.

[...]

The dynamic configuration has the point symmetry C_1h.

Analysis of constrained symmetry for selective dynamics:
 Subroutine PRICEL returns:
 Original cell was already a primitive cell.

 Routine SETGRP: Setting up the symmetry group for a
 hexagonal supercell.

[...]
     33      -3.9244      2.00000
     34      -3.9150      2.00000
     35      -3.9083      2.00000
     36      -3.9036      2.00000
     37      -3.8907      2.00000
     38      -3.8696      2.00000
     39      -3.8077      2.00000
     40      -3.7782      2.00000
     41      -3.7310      2.00000
     42      -3.6005      2.00000
     43      -3.5951      2.00000
     44      -3.5386      2.00000
     45      -3.5221      2.00000
     46      -3.5121      2.00000
     47      -3.4912      2.00000
     48      -3.4827      2.00000
     49      -3.4794      2.00000
     50      -3.4732      2.00000
     51      -3.2927      2.00000
     52      -3.2718      2.00000
     53      -3.2646      2.00000
     54      -3.2548      2.00000
     55      -3.2001      2.00000
     56      -3.1977      2.00000
     57      -3.1843      2.00000
     58      -3.1797      2.00000
     59      -3.1717      2.00000
     60      -3.1651      2.00000
[...]
    238       6.0582      0.00000
    239       6.1596      0.00000
    240       6.3330      0.00000
    241       6.3420      0.00000
    242       6.6078      0.00000
    243       6.7257      0.00000
    244       7.0273      0.00000
    245       7.0304      0.00000
    246       7.1052      0.00000
    247       7.2267      0.00000
    248       7.3333      0.00000
    249       7.4631      0.00000
    250       7.5290      0.00000
    251       7.5471      0.00000
    252       7.6443      0.00000

 soft charge-density along one line, spin component           1
         0         1         2         3         4         5         6         7         8         9
 total charge-density along one line

------------------------ aborting loop because EDIFF is reached ----------------------------------------

 total charge

# of ion       s       p       d       tot
    1        0.449   0.283   9.189   9.921
    2        0.448   0.286   9.185   9.919
    3        0.448   0.286   9.185   9.919
    4        0.450   0.285   9.186   9.921
    5        0.448   0.285   9.181   9.914
    6        0.450   0.285   9.186   9.921
    7        0.447   0.285   9.186   9.918
    8        0.447   0.285   9.186   9.918
    9        0.447   0.282   9.190   9.920
   10        0.443   0.372   9.176   9.991
   11        0.443   0.364   9.185   9.992
   12        0.443   0.372   9.176   9.991
   13        0.443   0.365   9.184   9.992
   14        0.443   0.365   9.184   9.992
   15        0.438   0.369   9.177   9.985
   16        0.445   0.372   9.173   9.990
   17        0.437   0.370   9.178   9.985
   18        0.437   0.370   9.178   9.985
   19        0.441   0.368   9.181   9.990
   20        0.464   0.397   9.157  10.018
   21        0.464   0.397   9.157  10.018
   22        0.428   0.372   9.182   9.981
   23        0.468   0.395   9.159  10.022
   24        0.428   0.372   9.182   9.981
   25        0.443   0.367   9.183   9.993
   26        0.443   0.367   9.183   9.993
   27        0.430   0.370   9.183   9.983
   28        0.449   0.292   9.182   9.923
   29        0.473   0.312   9.167   9.952
   30        0.473   0.312   9.167   9.952
   31        0.469   0.305   9.173   9.948
   32        0.469   0.305   9.173   9.948
   33        0.473   0.312   9.169   9.953
   34        0.473   0.312   9.169   9.953
   35        0.440   0.295   9.185   9.920
   36        0.450   0.414   4.324   5.188
   37        1.354   2.447   0.000   3.801
   38        1.354   2.447   0.000   3.801
tot         18.893  17.038 325.560 361.491

  FORCE on cell =-STRESS in cart. coord.  units (eV):
  Direction    XX          YY          ZZ          XY          YZ          ZX
  Alpha Z   912.35630   912.35630   912.35630
  Ewald  169515.98008169210.94662************     0.00038    -0.30255     0.00017
  Hartree182474.13468182366.92922************     0.00003    -0.02146     0.00006
  E(xc)   -2316.12826 -2316.89017 -2320.93699    -0.00027     0.08955    -0.00004
  Local  ************************364662.33357     0.02018     0.61419    -0.00073
  n-local  -799.51830  -786.41461  -804.53090     1.68683     0.28005     0.08254
  augment  3317.90269  3316.73200  3341.12270    -0.01844    -0.13596     0.00031
  Kinetic  3386.27438  3396.93074  3428.39782     1.11779    -0.66078    -0.17964
  Fock        0.00000     0.00000     0.00000     0.00000     0.00000     0.00000
  Total      -4.32597    -4.55786     0.87663     0.00000    -0.13697     0.00000
  in kB      -6.34722    -6.68745     1.28623     0.00000    -0.20097     0.00000

 VOLUME and BASIS-vectors are now :
  energy-cutoff  :      500.00
  volume of cell :     1091.97
      direct lattice vectors                 reciprocal lattice vectors
     7.696786404  0.000000000  0.000000000     0.129924354 -0.075011849  0.000000000
     3.848392758  6.665612809  0.000000000     0.000000000  0.150023716  0.000000000
     0.000000000  0.000000000 21.284399033     0.000000000  0.000000000  0.046982769

  length of vectors
     7.696786404  7.696786404 21.284399033     0.150023716  0.150023716  0.046982769

 FORCES acting on ions
    electron-ion (+dipol)            ewald-force                    non-local-force                 convergence-correction
   -.407E-04 0.114E+00 0.348E+04   0.580E-04 -.113E-01 -.348E+04   -.139E-08 0.208E-01 -.270E+01   -.354E-03 -.117E+00 -.316E+00
   -.102E+01 -.419E+00 0.348E+04   0.639E+00 0.338E+00 -.348E+04   0.231E+00 0.138E+00 -.178E+01   0.146E+00 -.428E-01 -.313E+00
   0.102E+01 -.419E+00 0.348E+04   -.639E+00 0.338E+00 -.348E+04   -.231E+00 0.138E+00 -.178E+01   -.145E+00 -.403E-01 -.312E+00
   -.768E+00 -.522E+00 0.348E+04   0.622E+00 0.378E+00 -.348E+04   0.110E+00 0.140E-01 -.178E+01   0.615E-01 0.121E+00 -.261E+00
   -.622E-04 -.194E+00 0.348E+04   0.116E-03 -.784E-03 -.347E+04   -.387E-08 0.581E-01 -.153E+01   0.121E-01 0.132E+00 -.199E+00
   0.768E+00 -.522E+00 0.348E+04   -.622E+00 0.377E+00 -.348E+04   -.110E+00 0.140E-01 -.178E+01   -.631E-01 0.122E+00 -.260E+00
   -.300E+00 0.987E+00 0.348E+04   -.168E-01 -.716E+00 -.348E+04   0.197E+00 -.185E+00 -.183E+01   0.113E+00 -.907E-01 -.380E+00
   0.300E+00 0.987E+00 0.348E+04   0.165E-01 -.716E+00 -.348E+04   -.197E+00 -.185E+00 -.183E+01   -.109E+00 -.921E-01 -.380E+00
   -.143E-03 -.148E-01 0.348E+04   0.263E-03 0.121E-01 -.348E+04   0.778E-09 -.117E-01 -.234E+01   -.131E-01 0.114E-01 -.322E+00
   -.346E+01 -.189E+01 0.119E+04   0.398E+01 0.220E+01 -.119E+04   -.560E+00 -.307E+00 -.119E+01   0.407E-01 0.108E-01 -.354E+00
   -.914E-04 -.386E+01 0.117E+04   0.190E-03 0.336E+01 -.117E+04   -.222E-07 0.333E+00 -.912E-01   0.120E-01 0.106E+00 -.317E+00
   0.346E+01 -.189E+01 0.119E+04   -.398E+01 0.220E+01 -.119E+04   0.560E+00 -.307E+00 -.119E+01   -.424E-01 0.119E-01 -.354E+00
   -.352E+01 0.193E+01 0.118E+04   0.300E+01 -.167E+01 -.117E+04   0.359E+00 -.213E+00 -.289E+00   0.126E+00 -.206E-01 -.403E+00
   0.352E+01 0.193E+01 0.118E+04   -.300E+01 -.167E+01 -.117E+04   -.359E+00 -.213E+00 -.289E+00   -.102E+00 -.222E-01 -.405E+00
   -.141E-03 -.263E+01 0.118E+04   0.297E-03 0.226E+01 -.118E+04   -.126E-07 0.189E+00 -.983E+00   -.337E-02 0.164E+00 -.321E+00
   -.926E-04 0.395E+01 0.119E+04   0.186E-03 -.456E+01 -.119E+04   -.455E-07 0.684E+00 -.108E+01   -.836E-03 -.737E-01 -.432E+00
   -.213E+01 0.124E+01 0.118E+04   0.191E+01 -.106E+01 -.118E+04   0.143E+00 -.974E-01 -.947E+00   0.656E-01 -.799E-01 -.375E+00
   0.213E+01 0.124E+01 0.118E+04   -.191E+01 -.106E+01 -.118E+04   -.143E+00 -.974E-01 -.947E+00   -.640E-01 -.772E-01 -.373E+00
   -.662E-04 -.588E+01 -.111E+04   0.708E-04 0.574E+01 0.111E+04   -.446E-08 0.670E-01 0.112E+01   -.108E-01 0.617E-01 -.271E-01
   -.458E+02 -.261E+02 -.116E+04   0.473E+02 0.268E+02 0.116E+04   -.159E+01 -.681E+00 -.101E+01   0.394E-01 0.814E-02 -.106E+00
   0.458E+02 -.261E+02 -.116E+04   -.473E+02 0.268E+02 0.116E+04   0.159E+01 -.681E+00 -.101E+01   -.582E-01 0.653E-02 -.106E+00
   -.239E+02 0.133E+02 -.113E+04   0.234E+02 -.129E+02 0.113E+04   0.552E+00 -.415E+00 0.816E+00   -.316E-01 -.361E-01 -.196E+00
   -.845E-04 0.521E+02 -.116E+04   0.150E-03 -.539E+02 0.116E+04   -.128E-06 0.193E+01 -.137E+01   -.121E-01 -.689E-01 -.243E+00
   0.239E+02 0.133E+02 -.113E+04   -.234E+02 -.129E+02 0.113E+04   -.552E+00 -.415E+00 0.816E+00   0.332E-01 -.373E-01 -.196E+00
   0.545E+01 0.326E+01 -.111E+04   -.533E+01 -.330E+01 0.111E+04   -.397E-01 0.408E-01 0.103E+01   -.833E-01 -.185E-02 -.828E-01
   -.545E+01 0.326E+01 -.111E+04   0.533E+01 -.330E+01 0.111E+04   0.397E-01 0.408E-01 0.103E+01   0.620E-01 -.164E-02 -.823E-01
   -.121E-03 -.277E+02 -.113E+04   0.240E-03 0.270E+02 0.113E+04   -.486E-07 0.729E+00 0.761E+00   0.109E-02 0.630E-01 -.206E+00
   -.382E-04 0.271E+01 -.336E+04   0.402E-04 -.299E+01 0.335E+04   -.895E-08 0.134E+00 0.190E+01   -.187E-03 0.124E+00 0.286E+00
   -.280E+02 -.443E+02 -.334E+04   0.286E+02 0.446E+02 0.334E+04   -.679E+00 -.497E+00 0.111E+01   0.219E-01 0.642E-01 0.233E+00
   0.280E+02 -.443E+02 -.334E+04   -.286E+02 0.446E+02 0.334E+04   0.679E+00 -.497E+00 0.111E+01   -.209E-01 0.654E-01 0.232E+00
   -.505E+02 0.105E+01 -.333E+04   0.512E+02 -.887E+00 0.333E+04   -.753E+00 -.176E+00 0.209E+01   -.676E-01 0.186E-01 0.285E+00
   0.505E+02 0.105E+01 -.333E+04   -.512E+02 -.888E+00 0.333E+04   0.753E+00 -.176E+00 0.209E+01   0.678E-01 0.193E-01 0.285E+00
   -.294E+02 0.431E+02 -.334E+04   0.297E+02 -.436E+02 0.334E+04   -.277E+00 0.728E+00 0.127E+01   -.172E-01 -.597E-01 0.319E+00
   0.294E+02 0.431E+02 -.334E+04   -.297E+02 -.436E+02 0.334E+04   0.277E+00 0.728E+00 0.127E+01   0.199E-01 -.601E-01 0.320E+00
   -.147E-03 -.300E+01 -.337E+04   0.253E-03 0.319E+01 0.337E+04   0.254E-08 -.382E-01 0.248E+01   -.125E-01 -.112E+00 0.376E+00
   -.407E-04 0.188E+00 -.171E+04   0.738E-04 -.265E+00 0.171E+04   0.250E-08 -.376E-01 0.287E+01   0.493E-03 -.132E-01 0.103E+00
   0.213E+03 0.642E-01 -.164E+04   -.255E+03 -.763E-01 0.164E+04   0.419E+02 -.689E-02 -.730E+01   -.220E-01 0.195E-01 0.484E-01
   -.213E+03 0.642E-01 -.164E+04   0.255E+03 -.763E-01 0.164E+04   -.419E+02 -.689E-02 -.730E+01   0.221E-01 0.195E-01 0.482E-01
   -.144E-03 -.845E+00 0.253E+02   0.568E-13 0.127E-12 0.682E-12   -.495E-07 0.744E+00 -.206E+02   -.358E-01 0.101E+00 -.479E+01

 POSITION                                       TOTAL-FORCE (eV/Angst)
      0.00000      0.00000      5.37156        -0.000000      0.006121     -0.037928
      2.56560      0.00000      5.37156        -0.009715      0.015103      0.065775
      5.13119      0.00000      5.37156         0.009715      0.015103      0.065775
      1.28280      2.22187      5.37156         0.026010     -0.008733      0.047898
      3.84839      2.22187      5.37156         0.000000     -0.005336      0.028861
      6.41399      2.22187      5.37156        -0.026010     -0.008733      0.047898
      2.56560      4.44374      5.37156        -0.008707     -0.004828      0.075481
      5.13119      4.44374      5.37156         0.008707     -0.004828      0.075481
      7.69679      4.44374      5.37156         0.000000     -0.002949      0.012263
      1.28280      0.74062      7.46636         0.002686      0.013278     -0.077566
      3.84839      0.74062      7.46636         0.000000     -0.061342     -0.042695
      6.41399      0.74062      7.46636        -0.002686      0.013278     -0.077566
      2.56560      2.96249      7.46636        -0.049008      0.023099     -0.053267
      5.13119      2.96249      7.46636         0.049008      0.023099     -0.053267
      7.69679      2.96249      7.46636         0.000000     -0.023011      0.003636
      3.84839      5.18437      7.46636        -0.000000      0.002978     -0.074030
      6.41399      5.18437      7.46636        -0.013112      0.002136      0.014133
      8.97958      5.18437      7.46636         0.013112      0.002136      0.014133
      7.69679      1.48128      9.55134         0.000000     -0.009269      0.043943
      2.56091      1.47854      9.54628        -0.058474     -0.013656     -0.139209
      5.13587      1.47854      9.54628         0.058474     -0.013656     -0.139209
      8.97673      3.70477      9.56818         0.040396     -0.026858      0.006672
      3.84839      3.70853      9.54628        -0.000000      0.103478     -0.152258
      6.41684      3.70477      9.56818        -0.040396     -0.026858      0.006672
     10.26235      5.92497      9.55134         0.009788      0.002307      0.014641
      5.13122      5.92497      9.55134        -0.009788      0.002307      0.014641
      7.69679      5.92169      9.56818        -0.000000      0.058671     -0.002815
      0.00000      0.00000     11.64671         0.000000     -0.024425     -0.039005
      6.40484      6.65345     11.67351        -0.065686     -0.106926     -0.152043
      8.98873      6.65345     11.67351         0.065686     -0.106926     -0.152043
      8.96447      2.22003     11.67351        -0.116642      0.008772     -0.079951
      6.42910      2.22003     11.67351         0.116642      0.008772     -0.079951
     10.25642      4.45775     11.67351        -0.077589      0.118328     -0.177191
      5.13715      4.45775     11.67351         0.077589      0.118328     -0.177191
      7.69679      4.44374     11.65978        -0.000000      0.037984     -0.033828
      3.84839      2.22187     11.64991         0.000000     -0.128125      1.231573
      3.27154      2.22642     13.92720         0.005763      0.000591     -0.014232
      4.42525      2.22642     13.92720        -0.005763      0.000591     -0.014232
    total drift:                               -0.035907     -0.000258     -0.032528

  FREE ENERGIE OF THE ION-ELECTRON SYSTEM (eV)
  free  energy   TOTEN  =      -147.60147366 eV

  energy  without entropy=     -147.60147366  energy(sigma->0) =     -147.60147366

 stress matrix after NEB project (eV)
     -4.32597      0.00000      0.00000
      0.00000     -4.55786     -0.13697
      0.00000     -0.13697      0.87663
  FORCES: max atom, RMS     0.015366    0.003525
  FORCE total and by dimension    0.021731    0.014232
  Stress total and by dimension    6.347768    4.557862
|           W    W    AA    RRRRR   N    N  II  N    N   GGGG   !!!           |
|           W    W   A  A   R    R  NN   N  II  NN   N  G    G  !!!           |
|           W    W  A    A  R    R  N N  N  II  N N  N  G       !!!           |
|           W WW W  AAAAAA  RRRRR   N  N N  II  N  N N  G  GGG   !            |
|           WW  WW  A    A  R   R   N   NN  II  N   NN  G    G                |
|           W    W  A    A  R    R  N    N  II  N    N   GGGG   !!!           |
|     Tetrahedron method does not include variations of the Fermi             |
|     occupations, so forces and stress will be inaccurate. We suggest        |
|     using a different smearing scheme ISMEAR = 1 or 2 for metals in         |
|     relaxations.                                                            |

 total charge

# of ion       s       p       d       tot
    1        0.449   0.283   9.189   9.921
    2        0.448   0.286   9.185   9.919
    3        0.448   0.286   9.185   9.919
    4        0.450   0.285   9.186   9.921
    5        0.448   0.285   9.181   9.914
    6        0.450   0.285   9.186   9.921
    7        0.447   0.285   9.186   9.918
    8        0.447   0.285   9.186   9.918
    9        0.447   0.282   9.190   9.920
   10        0.443   0.372   9.176   9.991
   11        0.443   0.364   9.185   9.992
   12        0.443   0.372   9.176   9.991
   13        0.443   0.365   9.184   9.992
   14        0.443   0.365   9.184   9.992
   15        0.438   0.369   9.177   9.985
   16        0.445   0.372   9.173   9.990
   17        0.437   0.370   9.178   9.985
   18        0.437   0.370   9.178   9.985
   19        0.441   0.368   9.181   9.990
   20        0.464   0.397   9.157  10.018
   21        0.464   0.397   9.157  10.018
   22        0.428   0.372   9.182   9.981
   23        0.468   0.395   9.159  10.022
   24        0.428   0.372   9.182   9.981
   25        0.443   0.367   9.183   9.993
   26        0.443   0.367   9.183   9.993
   27        0.430   0.370   9.183   9.983
   28        0.449   0.292   9.182   9.923
   29        0.473   0.312   9.167   9.952
   30        0.473   0.312   9.167   9.952
   31        0.469   0.305   9.173   9.948
   32        0.469   0.305   9.173   9.948
   33        0.473   0.312   9.169   9.953
   34        0.473   0.312   9.169   9.953
   35        0.440   0.295   9.185   9.920
   36        0.450   0.414   4.324   5.188
   37        1.354   2.447   0.000   3.801
   38        1.354   2.447   0.000   3.801
tot         18.893  17.038 325.560 361.491

 BZINTS: Fermi energy:    0.191934;  401.000000 electrons
         Band energy:-0.112874E+04;  BLOECHL correction:   -0.023546