 vasp.6.2.0 18Jan21 (build Jun 12 2021 23:27:24) complex

 executed on             LinuxIFC date 2022.05.28  01:58:27

 INCAR:
   ISMEAR = -5
   SIGMA = 0.1
   ISPIN = 1
   EDIFF = 1.d-5
   EDIFFG = -0.01
   NSW = 0
   NELM = 150
   ENCUT = 500
   ISIF = 2
   IBRION = 2
   LREAL = Auto
   ALGO = Fast
   ICHARG = 11
   LORBIT = 10
   LCHARG = .F.
   LWAVE = .F.

 POTCAR:    PAW_PBE Ag 02Apr2005
 POTCAR:    PAW_PBE Hf 20Jan2003
 POTCAR:    PAW_PBE O 08Apr2002
 POTCAR:    PAW_PBE H 15Jun2001
|           W    W    AA    RRRRR   N    N  II  N    N   GGGG   !!!           |
|           W    W   A  A   R    R  NN   N  II  NN   N  G    G  !!!           |
|           W    W  A    A  R    R  N N  N  II  N N  N  G       !!!           |
|           W WW W  AAAAAA  RRRRR   N  N N  II  N  N N  G  GGG   !            |
|           WW  WW  A    A  R   R   N   NN  II  N   NN  G    G                |
|           W    W  A    A  R    R  N    N  II  N    N   GGGG   !!!           |
|     For optimal performance we recommend to set                             |
|       NCORE = 2 up to number-of-cores-per-socket                            |
|     This setting can greatly improve the performance of VASP for DFT.       |
|     The default, NCORE=1 might be grossly inefficient on modern             |
|     multi-core architectures or massively parallel machines. Do your        |
|     Unfortunately you need to use the default for GW and RPA                |
|     calculations (for HF NCORE is supported but not extensively tested      |
|     yet).                                                                   |

 POTCAR:    PAW_PBE Ag 02Apr2005
   VRHFIN =Ag : s1 d10

   TITEL  = PAW_PBE Ag 02Apr2005
   POMASS =  107.868; ZVAL   =   11.000    mass and valenz
   ENMAX  =  249.844; ENMIN  =  187.383 eV

 POTCAR:    PAW_PBE Hf 20Jan2003
   VRHFIN =Hf: 6s5d

   TITEL  = PAW_PBE Hf 20Jan2003
   POMASS =  178.490; ZVAL   =    4.000    mass and valenz
   ENMAX  =  220.334; ENMIN  =  165.250 eV

 POTCAR:    PAW_PBE O 08Apr2002
   VRHFIN =O: s2p4

   TITEL  = PAW_PBE O 08Apr2002
   POMASS =   16.000; ZVAL   =    6.000    mass and valenz
   ENMAX  =  400.000; ENMIN  =  300.000 eV

 POTCAR:    PAW_PBE H 15Jun2001
   VRHFIN =H: ultrasoft test

   TITEL  = PAW_PBE H 15Jun2001
   POMASS =    1.000; ZVAL   =    1.000    mass and valenz
   ENMAX  =  250.000; ENMIN  =  200.000 eV

 Optimization of the real space projectors (new method)

 maximal supplied QI-value         = 15.12
 optimisation between [QCUT,QGAM] = [ 11.34, 22.83] = [ 36.00,145.93] Ry
 Optimized for a Real-space Cutoff    1.43 Angstroem

   l    n(q)    QCUT    max X(q) W(low)/X(q) W(high)/X(q)  e(spline)
   2      9    11.338    53.897    0.16E-03    0.20E-03    0.28E-06
   2      9    11.338    52.416    0.16E-03    0.20E-03    0.29E-06
   0     10    11.338   122.045    0.31E-04    0.76E-04    0.15E-06
   0     10    11.338    73.629    0.30E-04    0.72E-04    0.15E-06
   1      9    11.338    15.255    0.20E-03    0.19E-04    0.17E-06
   1      9    11.338     9.562    0.16E-03    0.15E-04    0.14E-06
 Optimization of the real space projectors (new method)

[...]

   l    n(q)    QCUT    max X(q) W(low)/X(q) W(high)/X(q)  e(spline)
   0      7    11.387    20.381    0.39E-03    0.13E-02    0.15E-06
   0      7    11.387    15.268    0.42E-03    0.14E-02    0.17E-06
   1      6    11.387     5.964    0.41E-03    0.11E-02    0.17E-06
   1      6    11.387     5.382    0.39E-03    0.87E-03    0.15E-06
 Optimization of the real space projectors (new method)

 maximal supplied QI-value         = 34.20
 optimisation between [QCUT,QGAM] = [ 11.29, 22.57] = [ 35.68,142.71] Ry
 Optimized for a Real-space Cutoff    1.16 Angstroem

   l    n(q)    QCUT    max X(q) W(low)/X(q) W(high)/X(q)  e(spline)
   0      8    11.287    19.460    0.40E-03    0.73E-03    0.16E-06
   0      8    11.287    12.209    0.38E-03    0.70E-03    0.15E-06
   1      7    11.287     4.655    0.22E-03    0.25E-04    0.22E-06
  PAW_PBE Ag 02Apr2005                  :
  PAW_PBE Hf 20Jan2003                  :
  PAW_PBE O 08Apr2002                   :
  PAW_PBE H 15Jun2001                   :

 POSCAR: Ag-Hf-OOH
  positions in direct lattice
  velocities in cartesian coordinates
 exchange correlation table for  LEXCH =        8
   RHO(1)=    0.500       N(1)  =     2000
   RHO(2)=  100.500       N(2)  =     4000

 VTST: version 3.2, (02/03/18)

 CHAIN: initializing optimizer

 OPT: Using VASP Conjugate-Gradient optimizer
 CHAIN: Read ICHAIN            0

 POSCAR: Ag-Hf-OOH
  positions in direct lattice
  velocities in cartesian coordinates

 ion  position               nearest neighbor table
   1  0.000  0.000  0.204-   2 2.93   8 2.93   7 2.93   6 2.93   4 2.93  12 2.93  16 2.93  10 2.93
                             3 2.93
   2  0.333  0.000  0.204-   1 2.93   8 2.93   9 2.93   3 2.93   4 2.93   5 2.93  10 2.93  17 2.93
                            11 2.93
   3  0.667  0.000  0.204-   9 2.93   2 2.93   5 2.93  11 2.93   7 2.93  18 2.93   1 2.93   6 2.93
                            12 2.93
   4  0.000  0.333  0.204-   5 2.93   6 2.93   2 2.93   1 2.93   7 2.93  13 2.93  15 2.93   9 2.93
                            10 2.93
   5  0.333  0.333  0.204-   4 2.93   3 2.93   7 2.93   2 2.93   8 2.93  14 2.93  13 2.93  11 2.93
                             6 2.93
   6  0.667  0.333  0.204-   4 2.93   9 2.93   1 2.93  15 2.93   8 2.93  12 2.93   3 2.93   5 2.93
                            14 2.93
   7  0.000  0.667  0.204-   8 2.93   1 2.93   5 2.93   3 2.93   4 2.93  16 2.93  18 2.93  13 2.93
                             9 2.93
   8  0.333  0.667  0.204-   7 2.93   1 2.93   2 2.93   9 2.93   5 2.93  16 2.93   6 2.93  17 2.93
                            14 2.93
   9  0.667  0.667  0.204-   3 2.93   2 2.93   8 2.93   6 2.93  17 2.93   4 2.93  15 2.93   7 2.93
                            18 2.93
  10  0.111  0.111  0.296-  20 2.90  19 2.92  26 2.92  12 2.93  16 2.93  15 2.93  17 2.93  13 2.93
                            11 2.93   2 2.93   1 2.93   4 2.93
  11  0.444  0.111  0.296-  21 2.90  20 2.90  14 2.93  17 2.93  18 2.93   3 2.93  12 2.93  13 2.93
                            10 2.93   5 2.93   2 2.93  27 2.93
  12  0.778  0.111  0.296-  21 2.90  25 2.92  19 2.92  10 2.93  16 2.93  18 2.93  15 2.93  11 2.93
                             1 2.93  14 2.93   6 2.93   3 2.93
  13  0.111  0.444  0.296-  20 2.90  23 2.90  15 2.93  14 2.93  18 2.93  10 2.93  11 2.93  16 2.93
                             4 2.93   5 2.93   7 2.93  22 2.93
  14  0.444  0.444  0.296-  23 2.90  21 2.90  13 2.93  11 2.93  16 2.93   5 2.93  12 2.93  17 2.93
                             8 2.93  15 2.93   6 2.93  24 2.93
  15  0.778  0.444  0.296-  19 2.92  24 2.93  22 2.93  13 2.93  10 2.93  12 2.93  17 2.93  18 2.93
                             4 2.93   6 2.93   9 2.93  14 2.93
  16  0.111  0.778  0.296-  23 2.90  26 2.92  25 2.92  18 2.93  12 2.93  10 2.93  14 2.93  17 2.93
                            13 2.93   7 2.93   8 2.93   1 2.93
  17  0.444  0.778  0.296-  26 2.92  27 2.93  24 2.93  11 2.93  10 2.93   9 2.93  18 2.93  15 2.93
                            16 2.93   2 2.93  14 2.93   8 2.93
  18  0.778  0.778  0.296-  25 2.92  22 2.93  27 2.93  16 2.93  12 2.93  13 2.93  11 2.93  17 2.93
                            15 2.93   7 2.93   3 2.93   9 2.93
  19  0.889  0.222  0.388-  10 2.92  12 2.92  15 2.92  20 2.93  21 2.93  26 2.93  25 2.93  24 2.93
                            22 2.93  28 2.94  32 2.98  31 2.98
  20  0.222  0.222  0.387-  36 2.86  10 2.90  13 2.90  11 2.90  19 2.93  26 2.93  27 2.93  22 2.93
                            21 2.94  23 2.94  31 2.97  29 2.97
  21  0.556  0.222  0.387-  36 2.86  12 2.90  11 2.90  14 2.90  25 2.93  19 2.93  27 2.93  24 2.93
                            20 2.94  23 2.94  30 2.97  32 2.97
  22  0.889  0.556  0.389-  24 2.93  27 2.93  18 2.93  15 2.93  25 2.93  19 2.93  13 2.93  23 2.93
                            20 2.93  35 2.94  33 2.96  31 2.96
  23  0.222  0.556  0.387-  36 2.86  16 2.90  14 2.90  13 2.90  26 2.93  25 2.93  22 2.93  24 2.93
                            21 2.94  20 2.94  34 2.97  33 2.97
  24  0.556  0.556  0.389-  27 2.93  22 2.93  15 2.93  17 2.93  19 2.93  26 2.93  14 2.93  23 2.93
                            21 2.93  35 2.94  32 2.96  34 2.96
  25  0.889  0.889  0.388-  16 2.92  12 2.92  18 2.92  23 2.93  21 2.93  26 2.93  19 2.93  22 2.93
                            27 2.93  28 2.94  33 2.98  30 2.98
  26  0.222  0.889  0.388-  16 2.92  10 2.92  17 2.92  23 2.93  20 2.93  25 2.93  19 2.93  27 2.93
                            24 2.93  28 2.94  34 2.98  29 2.98
  27  0.556  0.889  0.389-  24 2.93  22 2.93  17 2.93  18 2.93  26 2.93  25 2.93  11 2.93  20 2.93
                            21 2.93  35 2.94  29 2.96  30 2.96
  28  0.000  0.000  0.481-  26 2.94  25 2.94  19 2.94  29 2.94  34 2.94  33 2.94  32 2.94  31 2.94
                            30 2.94
  29  0.333  0.003  0.482-  30 2.90  31 2.91  36 2.91  35 2.94  28 2.94  27 2.96  20 2.97  26 2.98
                            34 2.98
  30  0.664  0.003  0.482-  29 2.90  32 2.91  36 2.91  35 2.94  28 2.94  27 2.96  21 2.97  25 2.98
                            33 2.98
  31  0.003  0.333  0.482-  33 2.90  29 2.91  36 2.91  35 2.94  28 2.94  22 2.96  20 2.97  19 2.98
                            32 2.98
  32  0.664  0.333  0.482-  34 2.90  30 2.91  36 2.91  35 2.94  28 2.94  24 2.96  21 2.97  19 2.98
                            31 2.98
  33  0.003  0.664  0.482-  31 2.90  34 2.91  36 2.91  35 2.94  28 2.94  22 2.96  23 2.97  25 2.98
                            30 2.98
  34  0.333  0.664  0.482-  32 2.90  33 2.91  36 2.91  35 2.94  28 2.94  24 2.96  23 2.97  26 2.98
                            29 2.98
  35  0.667  0.667  0.482-  30 2.94  29 2.94  32 2.94  34 2.94  31 2.94  33 2.94  24 2.94  27 2.94
                            22 2.94
  36  0.333  0.333  0.476-  37 1.90  21 2.86  20 2.86  23 2.86  31 2.91  33 2.91  30 2.91  29 2.91
                            34 2.91  32 2.91
  37  0.334  0.334  0.549-  38 1.42  36 1.90
  38  0.323  0.334  0.604-  39 0.98  37 1.42
  39  0.431  0.334  0.613-  38 0.98

  LATTYP: Found a hexagonal cell.
 ALAT       =     8.7913665772
 C/A-ratio  =     2.9469639759

  Lattice vectors:

 A1 = (  -4.3956832886,  -7.6135467898,   0.0000000000)
 A2 = (   8.7913665771,   0.0000000000,   0.0000000000)
 A3 = (   0.0000000000,   0.0000000000,  25.9078406020)

Analysis of symmetry for initial positions (statically):
 Subroutine PRICEL returns:
 Original cell was already a primitive cell.

 Routine SETGRP: Setting up the symmetry group for a
 hexagonal supercell.

 Subroutine GETGRP returns: Found  1 space group operations
 (whereof  1 operations were pure point group operations)
 out of a pool of 24 trial point group operations.

The static configuration has the point symmetry C_1 .

Analysis of symmetry for dynamics (positions and initial velocities):
 Subroutine PRICEL returns:
 Original cell was already a primitive cell.

[...]

The dynamic configuration has the point symmetry C_1 .

Analysis of constrained symmetry for selective dynamics:
 Subroutine PRICEL returns:
[...]
     41      -5.0032      2.00000
     42      -4.9635      2.00000
     43      -4.9421      2.00000
     44      -4.9316      2.00000
     45      -4.9252      2.00000
     46      -4.9099      2.00000
     47      -4.8984      2.00000
     48      -4.8147      2.00000
     49      -4.7970      2.00000
     50      -4.7873      2.00000
     51      -4.7663      2.00000
     52      -4.7629      2.00000
     53      -4.7597      2.00000
     54      -4.7462      2.00000
     55      -4.7411      2.00000
     56      -4.7275      2.00000
     57      -4.7218      2.00000
     58      -4.6725      2.00000
     59      -4.6631      2.00000
     60      -4.6489      2.00000
[...]
    238       5.2908      0.00000
    239       5.4215      0.00000
    240       5.5180      0.00000
    241       5.5812      0.00000
    242       5.6248      0.00000
    243       5.7087      0.00000
    244       5.8257      0.00000
    245       5.8499      0.00000
    246       5.9813      0.00000
    247       6.1326      0.00000
    248       6.1377      0.00000
    249       6.2654      0.00000
    250       6.4151      0.00000
    251       6.6532      0.00000
    252       6.7360      0.00000

 soft charge-density along one line, spin component           1
         0         1         2         3         4         5         6         7         8         9
 total charge-density along one line

------------------------ aborting loop because EDIFF is reached ----------------------------------------

 total charge

# of ion       s       p       d       tot
    1        0.421   0.202   9.177   9.799
    2        0.416   0.204   9.177   9.797
    3        0.416   0.204   9.177   9.797
    4        0.416   0.204   9.177   9.797
    5        0.418   0.203   9.176   9.797
    6        0.416   0.204   9.177   9.797
    7        0.416   0.204   9.177   9.797
    8        0.416   0.204   9.177   9.797
    9        0.415   0.203   9.178   9.796
   10        0.410   0.269   9.163   9.842
   11        0.406   0.269   9.168   9.843
   12        0.410   0.269   9.163   9.842
   13        0.406   0.269   9.168   9.843
   14        0.406   0.269   9.168   9.843
   15        0.402   0.269   9.164   9.835
   16        0.410   0.269   9.163   9.842
   17        0.401   0.270   9.164   9.835
   18        0.401   0.270   9.164   9.835
   19        0.404   0.264   9.166   9.833
   20        0.438   0.301   9.135   9.873
   21        0.438   0.301   9.135   9.873
   22        0.396   0.271   9.164   9.830
   23        0.437   0.301   9.135   9.873
   24        0.396   0.271   9.164   9.831
   25        0.403   0.264   9.166   9.833
   26        0.403   0.264   9.166   9.833
   27        0.396   0.271   9.163   9.830
   28        0.412   0.207   9.170   9.788
   29        0.447   0.219   9.153   9.819
   30        0.448   0.221   9.152   9.820
   31        0.448   0.220   9.152   9.819
   32        0.450   0.222   9.150   9.822
   33        0.447   0.220   9.153   9.819
   34        0.448   0.221   9.152   9.820
   35        0.411   0.209   9.169   9.789
   36        0.582   0.571   2.018   3.171
   37        1.570   3.386   0.000   4.956
   38        1.589   3.394   0.000   4.983
   39        0.615   0.113   0.000   0.728
tot         18.979  15.965 322.736 357.679

  FORCE on cell =-STRESS in cart. coord.  units (eV):
  Direction    XX          YY          ZZ          XY          YZ          ZX
  Alpha Z   657.83051   657.83051   657.83051
  Ewald  171425.49227171333.53445************    -0.16106     0.27272    14.06807
  Hartree181415.21693181396.73611************    -0.02058    -0.01790    -1.70080
  E(xc)   -2107.22181 -2107.68172 -2113.99224     0.00045    -0.00370     0.06179
  Local  ************************363341.15700     0.13349    -0.18894    -7.76756
  n-local  -358.23952  -358.62944  -350.77677    -0.00437     0.01719    -0.18051
  augment  3232.38129  3234.22656  3242.47220    -0.00010    -0.01280    -0.16825
  Kinetic  5072.09063  5097.40399  5062.73246     0.04423    -0.06352    -4.32942
  Fock        0.00000     0.00000     0.00000     0.00000     0.00000     0.00000
  Total      -6.40147    -6.42270     0.05959    -0.00794     0.00305    -0.01666
  in kB      -5.91447    -5.93408     0.05506    -0.00734     0.00281    -0.01540

 VOLUME and BASIS-vectors are now :
  energy-cutoff  :      500.00
  volume of cell :     1734.10
      direct lattice vectors                 reciprocal lattice vectors
     8.791366577  0.000000000  0.000000000     0.113747958 -0.065672414  0.000000000
     4.395683289  7.613546790  0.000000000     0.000000000  0.131344829  0.000000000
     0.000000000  0.000000000 25.907840602     0.000000000  0.000000000  0.038598354

  length of vectors
     8.791366577  8.791366577 25.907840602     0.131344829  0.131344829  0.038598354

 FORCES acting on ions
    electron-ion (+dipol)            ewald-force                    non-local-force                 convergence-correction
   -.427E-02 -.126E-01 0.278E+04   0.725E-03 -.597E-03 -.277E+04   -.165E-02 0.169E-02 -.177E+01   0.444E-02 0.120E-01 0.704E-01
   -.350E+00 -.182E-01 0.278E+04   0.278E+00 0.367E-01 -.277E+04   0.208E-01 0.582E-01 -.162E+01   0.470E-01 -.657E-01 0.106E-01
   0.357E+00 -.201E-01 0.278E+04   -.279E+00 0.353E-01 -.277E+04   -.204E-01 0.591E-01 -.160E+01   -.530E-01 -.616E-01 0.142E-01
   -.186E+00 -.322E+00 0.278E+04   0.172E+00 0.223E+00 -.277E+04   0.638E-01 -.325E-02 -.160E+01   -.442E-01 0.923E-01 0.656E-02
   -.668E-02 -.208E-02 0.278E+04   -.155E-02 -.341E-03 -.277E+04   -.356E-02 -.158E-02 -.143E+01   0.134E-01 0.443E-02 0.954E-01
   0.191E+00 -.334E+00 0.278E+04   -.170E+00 0.223E+00 -.277E+04   -.645E-01 -.254E-02 -.158E+01   0.368E-01 0.103E+00 0.110E-01
   0.199E+00 0.333E+00 0.278E+04   -.108E+00 -.259E+00 -.277E+04   0.279E-01 -.518E-01 -.161E+01   -.105E+00 -.225E-01 0.193E-01
   -.208E+00 0.338E+00 0.278E+04   0.107E+00 -.258E+00 -.277E+04   -.249E-01 -.531E-01 -.160E+01   0.112E+00 -.289E-01 0.169E-01
   0.727E-02 0.311E-01 0.278E+04   0.896E-03 0.926E-03 -.277E+04   0.442E-02 -.230E-02 -.174E+01   -.132E-01 -.297E-01 -.111E-01
   -.400E+00 -.230E+00 0.948E+03   0.776E+00 0.442E+00 -.948E+03   -.334E+00 -.200E+00 -.649E+00   -.531E-01 -.202E-01 0.305E+00
   -.519E-03 -.998E+00 0.943E+03   -.885E-02 0.653E+00 -.943E+03   -.747E-02 0.171E+00 -.380E+00   0.163E-01 0.986E-01 0.202E+00
   0.402E+00 -.226E+00 0.948E+03   -.768E+00 0.435E+00 -.948E+03   0.334E+00 -.198E+00 -.621E+00   0.431E-01 -.181E-01 0.302E+00
   -.851E+00 0.492E+00 0.943E+03   0.566E+00 -.330E+00 -.943E+03   0.147E+00 -.894E-01 -.376E+00   0.728E-01 -.347E-01 0.201E+00
   0.837E+00 0.482E+00 0.943E+03   -.577E+00 -.325E+00 -.943E+03   -.141E+00 -.814E-01 -.362E+00   -.532E-01 -.373E-01 0.195E+00
   -.192E-02 -.113E+01 0.946E+03   0.107E-01 0.115E+01 -.946E+03   -.278E-02 0.164E-01 -.585E+00   -.479E-02 -.297E-01 0.238E+00
   0.461E-02 0.450E+00 0.948E+03   -.199E-02 -.887E+00 -.948E+03   -.254E-02 0.395E+00 -.652E+00   0.499E-04 0.544E-01 0.303E+00
   -.974E+00 0.577E+00 0.946E+03   0.990E+00 -.561E+00 -.946E+03   0.117E-01 -.929E-02 -.598E+00   -.286E-01 -.501E-02 0.236E+00
   0.974E+00 0.577E+00 0.946E+03   -.989E+00 -.572E+00 -.946E+03   -.133E-01 -.873E-02 -.600E+00   0.273E-01 0.436E-02 0.240E+00
   -.978E-01 -.598E+01 -.889E+03   0.749E-01 0.594E+01 0.888E+03   0.185E-01 0.947E-01 0.870E+00   0.414E-02 -.787E-01 0.269E-01
   -.339E+02 -.196E+02 -.914E+03   0.348E+02 0.201E+02 0.914E+03   -.867E+00 -.516E+00 -.338E+00   -.747E-01 -.357E-01 0.467E-01
   0.341E+02 -.196E+02 -.914E+03   -.348E+02 0.200E+02 0.914E+03   0.829E+00 -.501E+00 -.348E+00   0.544E-01 -.354E-01 0.438E-01
   -.139E+02 0.802E+01 -.895E+03   0.139E+02 -.798E+01 0.894E+03   0.167E+00 -.926E-01 0.610E+00   -.821E-01 0.361E-01 0.652E-02
   0.660E-01 0.392E+02 -.914E+03   -.632E-01 -.401E+02 0.914E+03   0.654E-03 0.992E+00 -.334E+00   -.496E-02 0.648E-01 0.454E-01
   0.139E+02 0.795E+01 -.894E+03   -.138E+02 -.793E+01 0.894E+03   -.163E+00 -.823E-01 0.601E+00   0.817E-01 0.389E-01 0.997E-02
   0.520E+01 0.306E+01 -.889E+03   -.517E+01 -.303E+01 0.888E+03   -.829E-01 -.603E-01 0.891E+00   0.787E-01 0.445E-01 0.229E-01
   -.521E+01 0.297E+01 -.889E+03   0.519E+01 -.295E+01 0.888E+03   0.861E-01 -.448E-01 0.892E+00   -.788E-01 0.449E-01 0.261E-01
   0.177E-01 -.161E+02 -.895E+03   -.143E-01 0.160E+02 0.894E+03   -.349E-02 0.191E+00 0.617E+00   0.266E-03 -.924E-01 0.129E-01
   -.228E+00 0.211E+00 -.266E+04   0.222E+00 -.217E+00 0.266E+04   0.958E-03 -.116E-02 0.132E+01   0.311E-02 0.963E-02 -.138E+00
   -.605E+01 -.157E+02 -.264E+04   0.684E+01 0.164E+02 0.264E+04   -.757E+00 -.988E+00 0.156E+01   -.127E+00 0.296E-01 -.145E+00
   0.630E+01 -.151E+02 -.264E+04   -.707E+01 0.159E+02 0.263E+04   0.754E+00 -.993E+00 0.148E+01   0.122E+00 0.377E-01 -.142E+00
   -.168E+02 0.264E+01 -.264E+04   0.178E+02 -.234E+01 0.263E+04   -.123E+01 -.165E+00 0.154E+01   -.450E-01 -.113E+00 -.150E+00
   0.160E+02 0.263E+01 -.264E+04   -.171E+02 -.234E+01 0.263E+04   0.126E+01 -.168E+00 0.132E+01   0.410E-01 -.106E+00 -.148E+00
   -.104E+02 0.130E+02 -.264E+04   0.107E+02 -.140E+02 0.264E+04   -.476E+00 0.115E+01 0.156E+01   0.735E-01 0.845E-01 -.149E+00
   0.106E+02 0.124E+02 -.264E+04   -.109E+02 -.135E+02 0.263E+04   0.471E+00 0.116E+01 0.148E+01   -.658E-01 0.825E-01 -.146E+00
   -.214E+00 -.265E+00 -.267E+04   0.224E+00 0.290E+00 0.267E+04   0.250E-02 -.399E-02 0.145E+01   -.153E-01 -.244E-01 -.151E+00
   0.271E+00 0.987E-01 -.834E+03   -.321E+00 -.900E-01 0.836E+03   0.482E-01 0.129E-02 -.606E+00   0.137E-02 -.310E-03 -.495E-01
   -.483E+01 0.400E+00 -.146E+04   0.578E+01 -.442E+00 0.144E+04   -.936E+00 0.463E-01 0.205E+02   0.188E-02 -.177E-02 -.293E-01
   0.595E+02 -.373E+00 -.167E+04   -.101E+03 0.497E+00 0.170E+04   0.419E+02 -.124E+00 -.266E+02   0.277E-02 0.273E-02 0.155E-01
   -.873E+02 0.146E+00 -.279E+03   0.952E+02 -.159E+00 0.281E+03   -.792E+01 0.145E-01 -.222E+01   0.255E-02 -.751E-04 0.101E-02
   -.331E+02 0.923E-01 0.118E+02   0.568E-13 0.919E-13 -.489E-11   0.331E+02 -.874E-01 -.132E+02   -.742E-02 0.382E-02 0.147E+01

 POSITION                                       TOTAL-FORCE (eV/Angst)
      0.00000      0.00000      5.28219        -0.001274      0.000321     -0.030055
      2.93046      0.00000      5.28219        -0.004623      0.010867      0.018673
      5.86091      0.00000      5.28219         0.004336      0.012437      0.019005
      1.46523      2.53785      5.28219         0.005117     -0.010599      0.020614
      4.39568      2.53785      5.28219         0.001122      0.000211     -0.001549
      7.32614      2.53785      5.28219        -0.007690     -0.011015      0.019949
      2.93046      5.07570      5.28219         0.013511     -0.001243      0.019232
      5.86091      5.07570      5.28219        -0.013816     -0.002293      0.019109
      8.79137      5.07570      5.28219        -0.001157     -0.000203      0.007949
      1.46523      0.84595      7.67490        -0.011698     -0.007359     -0.063529
      4.39568      0.84595      7.67490        -0.001029     -0.076429     -0.073586
      7.32614      0.84595      7.67490         0.010868     -0.006926     -0.062160
      2.93046      3.38380      7.67490        -0.065524      0.037760     -0.072064
      5.86091      3.38380      7.67490         0.064805      0.037987     -0.072142
      8.79137      3.38380      7.67490         0.000638     -0.001479      0.039588
      4.39568      5.92165      7.67490        -0.000386      0.012422     -0.063183
      7.32614      5.92165      7.67490        -0.000653      0.001404      0.040562
     10.25659      5.92165      7.67490        -0.000835     -0.000378      0.040351
      8.79137      1.69178     10.05827        -0.000807     -0.022457      0.009215
      2.92613      1.68940     10.03306        -0.116153     -0.065885     -0.122001
      5.86523      1.68940     10.03306         0.116473     -0.069800     -0.134357
     10.25456      4.23092     10.06776         0.028875     -0.017901      0.037971
      4.39568      4.23474     10.03306        -0.001985      0.130858     -0.125834
      7.32817      4.23092     10.06776        -0.029656     -0.017760      0.030945
     11.72193      6.76766     10.05827         0.019088      0.011124      0.013645
      5.86080      6.76766     10.05827        -0.020502      0.010842      0.015103
      8.79137      6.76525     10.06776        -0.000412      0.032991      0.038095
      0.00000      0.00000     12.45716        -0.002426      0.002397     -0.010557
      2.94326      0.02074     12.49530        -0.100559     -0.201770     -0.178341
      5.84810      0.02074     12.49530         0.103312     -0.200582     -0.182753
      1.48959      2.53857     12.49530        -0.229954      0.012639     -0.181532
      7.30177      2.53857     12.49530         0.230302      0.013146     -0.190743
      2.94201      5.05424     12.49530        -0.123340      0.189159     -0.177357
      5.84935      5.05424     12.49530         0.125552      0.186153     -0.180744
      8.79137      5.07570     12.47846        -0.002711     -0.003516     -0.010445
      4.39568      2.53785     12.33403        -0.000776      0.009460      1.516979
      4.40082      2.53914     14.23050         0.008913      0.002232      0.023112
      4.30667      2.54133     15.64542        -0.002611      0.001769     -0.002304
      5.25798      2.53959     15.89216         0.007665      0.001414      0.005139
    total drift:                                0.020367      0.008721      0.082746

  FREE ENERGIE OF THE ION-ELECTRON SYSTEM (eV)
  free  energy   TOTEN  =      -114.31796160 eV

  energy  without entropy=     -114.31796160  energy(sigma->0) =     -114.31796160

 stress matrix after NEB project (eV)
     -6.40147     -0.00794     -0.01666
     -0.00794     -6.42270      0.00305
     -0.01667      0.00305      0.05959
  FORCES: max atom, RMS     0.024872    0.004300
  FORCE total and by dimension    0.026852    0.023112
  Stress total and by dimension    9.068303    6.422697
|           W    W    AA    RRRRR   N    N  II  N    N   GGGG   !!!           |
|           W    W   A  A   R    R  NN   N  II  NN   N  G    G  !!!           |
|           W    W  A    A  R    R  N N  N  II  N N  N  G       !!!           |
|           W WW W  AAAAAA  RRRRR   N  N N  II  N  N N  G  GGG   !            |
|           WW  WW  A    A  R   R   N   NN  II  N   NN  G    G                |
|           W    W  A    A  R    R  N    N  II  N    N   GGGG   !!!           |
|     Tetrahedron method does not include variations of the Fermi             |
|     occupations, so forces and stress will be inaccurate. We suggest        |
|     using a different smearing scheme ISMEAR = 1 or 2 for metals in         |
|     relaxations.                                                            |

 total charge

# of ion       s       p       d       tot
    1        0.421   0.202   9.177   9.799
    2        0.416   0.204   9.177   9.797
    3        0.416   0.204   9.177   9.797
    4        0.416   0.204   9.177   9.797
    5        0.418   0.203   9.176   9.797
    6        0.416   0.204   9.177   9.797
    7        0.416   0.204   9.177   9.797
    8        0.416   0.204   9.177   9.797
    9        0.415   0.203   9.178   9.796
   10        0.410   0.269   9.163   9.842
   11        0.406   0.269   9.168   9.843
   12        0.410   0.269   9.163   9.842
   13        0.406   0.269   9.168   9.843
   14        0.406   0.269   9.168   9.843
   15        0.402   0.269   9.164   9.835
   16        0.410   0.269   9.163   9.842
   17        0.401   0.270   9.164   9.835
   18        0.401   0.270   9.164   9.835
   19        0.404   0.264   9.166   9.833
   20        0.438   0.301   9.135   9.873
   21        0.438   0.301   9.135   9.873
   22        0.396   0.271   9.164   9.830
   23        0.437   0.301   9.135   9.873
   24        0.396   0.271   9.164   9.831
   25        0.403   0.264   9.166   9.833
   26        0.403   0.264   9.166   9.833
   27        0.396   0.271   9.163   9.830
   28        0.412   0.207   9.170   9.788
   29        0.447   0.219   9.153   9.819
   30        0.448   0.221   9.152   9.820
   31        0.448   0.220   9.152   9.819
   32        0.450   0.222   9.150   9.822
   33        0.447   0.220   9.153   9.819
   34        0.448   0.221   9.152   9.820
   35        0.411   0.209   9.169   9.789
   36        0.582   0.571   2.018   3.171
   37        1.570   3.386   0.000   4.956
   38        1.589   3.394   0.000   4.983
   39        0.615   0.113   0.000   0.728
tot         18.979  15.965 322.736 357.679

 BZINTS: Fermi energy:    0.301311;  402.000000 electrons
         Band energy:-0.164088E+04;  BLOECHL correction:   -0.055445