 vasp.6.2.0 18Jan21 (build Jun 12 2021 23:27:24) complex

 executed on             LinuxIFC date 2022.05.27  05:38:49

 INCAR:
   ISMEAR = -5
   SIGMA = 0.1
   ISPIN = 1
   EDIFF = 1.d-5
   EDIFFG = -0.01
   NSW = 0
   NELM = 150
   ENCUT = 500
   ISIF = 2
   IBRION = 2
   LREAL = Auto
   ALGO = Fast
   ICHARG = 11
   LORBIT = 10
   LCHARG = .F.
   LWAVE = .F.

 POTCAR:    PAW_PBE Ag 02Apr2005
 POTCAR:    PAW_PBE Zr_sv 04Jan2005
 POTCAR:    PAW_PBE N 08Apr2002
|           W    W    AA    RRRRR   N    N  II  N    N   GGGG   !!!           |
|           W    W   A  A   R    R  NN   N  II  NN   N  G    G  !!!           |
|           W    W  A    A  R    R  N N  N  II  N N  N  G       !!!           |
|           W WW W  AAAAAA  RRRRR   N  N N  II  N  N N  G  GGG   !            |
|           WW  WW  A    A  R   R   N   NN  II  N   NN  G    G                |
|           W    W  A    A  R    R  N    N  II  N    N   GGGG   !!!           |
|     For optimal performance we recommend to set                             |
|       NCORE = 2 up to number-of-cores-per-socket                            |
|     This setting can greatly improve the performance of VASP for DFT.       |
|     The default, NCORE=1 might be grossly inefficient on modern             |
|     multi-core architectures or massively parallel machines. Do your        |
|     Unfortunately you need to use the default for GW and RPA                |
|     calculations (for HF NCORE is supported but not extensively tested      |
|     yet).                                                                   |

 POTCAR:    PAW_PBE Ag 02Apr2005
   VRHFIN =Ag : s1 d10

   TITEL  = PAW_PBE Ag 02Apr2005
   POMASS =  107.868; ZVAL   =   11.000    mass and valenz
   ENMAX  =  249.844; ENMIN  =  187.383 eV

 POTCAR:    PAW_PBE Zr_sv 04Jan2005
   VRHFIN =Zr: 4s4p5s4d

   TITEL  = PAW_PBE Zr_sv 04Jan2005
   POMASS =   91.224; ZVAL   =   12.000    mass and valenz
   ENMAX  =  229.898; ENMIN  =  172.424 eV

 POTCAR:    PAW_PBE N 08Apr2002
   VRHFIN =N: s2p3

   TITEL  = PAW_PBE N 08Apr2002
   POMASS =   14.001; ZVAL   =    5.000    mass and valenz
   ENMAX  =  400.000; ENMIN  =  300.000 eV

 Optimization of the real space projectors (new method)

 maximal supplied QI-value         = 15.12
 optimisation between [QCUT,QGAM] = [ 11.34, 22.83] = [ 36.00,145.93] Ry
 Optimized for a Real-space Cutoff    1.43 Angstroem

   l    n(q)    QCUT    max X(q) W(low)/X(q) W(high)/X(q)  e(spline)
   2      9    11.338    53.897    0.16E-03    0.20E-03    0.28E-06
   2      9    11.338    52.416    0.16E-03    0.20E-03    0.29E-06
   0     10    11.338   122.045    0.31E-04    0.76E-04    0.15E-06
   0     10    11.338    73.629    0.30E-04    0.72E-04    0.15E-06
   1      9    11.338    15.255    0.20E-03    0.19E-04    0.17E-06
   1      9    11.338     9.562    0.16E-03    0.15E-04    0.14E-06
 Optimization of the real space projectors (new method)

[...]

   l    n(q)    QCUT    max X(q) W(low)/X(q) W(high)/X(q)  e(spline)
   0     10    11.338    12.107    0.38E-04    0.13E-04    0.27E-07
   0     10    11.338     9.948    0.69E-04    0.30E-04    0.38E-07
   1     10    11.338     3.563    0.26E-04    0.18E-04    0.40E-07
   1     10    11.338     4.524    0.25E-03    0.39E-04    0.44E-06
   2      9    11.338    87.261    0.26E-03    0.91E-05    0.26E-06
   2      9    11.338    70.950    0.25E-03    0.91E-05    0.25E-06
 Optimization of the real space projectors (new method)

 maximal supplied QI-value         = 25.13
 optimisation between [QCUT,QGAM] = [ 11.31, 22.87] = [ 35.82,146.48] Ry
 Optimized for a Real-space Cutoff    1.27 Angstroem

   l    n(q)    QCUT    max X(q) W(low)/X(q) W(high)/X(q)  e(spline)
   0      9    11.310    79.467    0.75E-04    0.16E-03    0.36E-06
   0      9    11.310    66.151    0.74E-04    0.16E-03    0.36E-06
   1      8    11.310    17.416    0.35E-03    0.12E-03    0.95E-06
   1      8    11.310    12.382    0.37E-03    0.13E-03    0.98E-06
  PAW_PBE Ag 02Apr2005                  :
  PAW_PBE Zr_sv 04Jan2005               :
  PAW_PBE N 08Apr2002                   :

 POSCAR: Ag-Zr-N2
  positions in direct lattice
  velocities in cartesian coordinates
 exchange correlation table for  LEXCH =        8
   RHO(1)=    0.500       N(1)  =     2000
   RHO(2)=  100.500       N(2)  =     4000

 VTST: version 3.2, (02/03/18)

 CHAIN: initializing optimizer

 OPT: Using VASP Conjugate-Gradient optimizer
 CHAIN: Read ICHAIN            0

 POSCAR: Ag-Zr-N2
  positions in direct lattice
  velocities in cartesian coordinates

 ion  position               nearest neighbor table
   1  0.000  0.000  0.238-   2 2.93   8 2.93   7 2.93   6 2.93   4 2.93  12 2.93  16 2.93  10 2.93
                             3 2.93
   2  0.333  0.000  0.238-   1 2.93   8 2.93   9 2.93   3 2.93   4 2.93   5 2.93  10 2.93  17 2.93
                            11 2.93
   3  0.667  0.000  0.238-   9 2.93   2 2.93   5 2.93  11 2.93   7 2.93  18 2.93   1 2.93   6 2.93
                            12 2.93
   4  0.000  0.333  0.238-   5 2.93   6 2.93   2 2.93   1 2.93   7 2.93  13 2.93  15 2.93   9 2.93
                            10 2.93
   5  0.333  0.333  0.238-   4 2.93   3 2.93   7 2.93   2 2.93   8 2.93  14 2.93  13 2.93  11 2.93
                             6 2.93
   6  0.667  0.333  0.238-   4 2.93   9 2.93   1 2.93  15 2.93   8 2.93  12 2.93   3 2.93   5 2.93
                            14 2.93
   7  0.000  0.667  0.238-   8 2.93   1 2.93   5 2.93   3 2.93   4 2.93  16 2.93  18 2.93  13 2.93
                             9 2.93
   8  0.333  0.667  0.238-   7 2.93   1 2.93   2 2.93   9 2.93   5 2.93  16 2.93   6 2.93  17 2.93
                            14 2.93
   9  0.667  0.667  0.238-   3 2.93   2 2.93   8 2.93   6 2.93  17 2.93   4 2.93  15 2.93   7 2.93
                            18 2.93
  10  0.111  0.111  0.346-  20 2.91  19 2.92  26 2.92  12 2.93  16 2.93  15 2.93  17 2.93  13 2.93
                            11 2.93   2 2.93   1 2.93   4 2.93
  11  0.444  0.111  0.346-  21 2.91  20 2.91  14 2.93  17 2.93  18 2.93   3 2.93  12 2.93  13 2.93
                            10 2.93   5 2.93   2 2.93  27 2.93
  12  0.778  0.111  0.346-  21 2.91  25 2.92  19 2.92  10 2.93  16 2.93  18 2.93  15 2.93  11 2.93
                             1 2.93  14 2.93   6 2.93   3 2.93
  13  0.111  0.444  0.346-  20 2.91  23 2.91  15 2.93  14 2.93  18 2.93  10 2.93  11 2.93  16 2.93
                             4 2.93   5 2.93   7 2.93  22 2.93
  14  0.444  0.444  0.346-  23 2.91  21 2.91  13 2.93  11 2.93  16 2.93   5 2.93  12 2.93  17 2.93
                             8 2.93  15 2.93   6 2.93  24 2.93
  15  0.778  0.444  0.346-  19 2.92  13 2.93  10 2.93  12 2.93  17 2.93  18 2.93   4 2.93   6 2.93
                             9 2.93  14 2.93  24 2.93  22 2.93
  16  0.111  0.778  0.346-  23 2.91  26 2.92  25 2.92  18 2.93  12 2.93  10 2.93  14 2.93  17 2.93
                            13 2.93   7 2.93   8 2.93   1 2.93
  17  0.444  0.778  0.346-  26 2.92  11 2.93  10 2.93   9 2.93  18 2.93  15 2.93  16 2.93   2 2.93
                            14 2.93   8 2.93  27 2.93  24 2.93
  18  0.778  0.778  0.346-  25 2.92  16 2.93  12 2.93  13 2.93  11 2.93  17 2.93  15 2.93   7 2.93
                             3 2.93   9 2.93  22 2.93  27 2.93
  19  0.889  0.222  0.453-  10 2.92  12 2.92  15 2.92  26 2.93  25 2.93  20 2.93  21 2.93  24 2.93
                            22 2.93  28 2.93  32 2.97  31 2.97
  20  0.222  0.222  0.453-  13 2.91  11 2.91  10 2.91  36 2.92  21 2.93  23 2.93  27 2.93  22 2.93
                            19 2.93  26 2.93  31 2.97  29 2.97
  21  0.555  0.222  0.453-  11 2.91  14 2.91  12 2.91  36 2.92  20 2.93  23 2.93  27 2.93  24 2.93
                            25 2.93  19 2.93  30 2.97  32 2.97
  22  0.889  0.556  0.454-  24 2.93  27 2.93  23 2.93  20 2.93  18 2.93  15 2.93  13 2.93  25 2.93
                            19 2.93  35 2.94  33 2.95  31 2.95
  23  0.222  0.555  0.453-  14 2.91  13 2.91  16 2.91  36 2.92  21 2.93  20 2.93  22 2.93  24 2.93
                            26 2.93  25 2.93  34 2.97  33 2.97
  24  0.556  0.556  0.454-  27 2.93  22 2.93  23 2.93  21 2.93  15 2.93  17 2.93  14 2.93  19 2.93
                            26 2.93  35 2.94  32 2.95  34 2.95
  25  0.889  0.889  0.453-  16 2.92  12 2.92  18 2.92  26 2.93  19 2.93  23 2.93  21 2.93  22 2.93
                            27 2.93  28 2.93  33 2.97  30 2.97
  26  0.222  0.889  0.453-  16 2.92  10 2.92  17 2.92  25 2.93  19 2.93  23 2.93  20 2.93  27 2.93
                            24 2.93  28 2.93  34 2.97  29 2.97
  27  0.556  0.889  0.454-  24 2.93  22 2.93  20 2.93  21 2.93  17 2.93  18 2.93  11 2.93  26 2.93
                            25 2.93  35 2.94  29 2.95  30 2.95
  28  0.000  0.000  0.561-  29 2.93  34 2.93  33 2.93  32 2.93  31 2.93  30 2.93  26 2.93  25 2.93
                            19 2.93
  29  0.334  0.000  0.563-  30 2.93  36 2.93  35 2.93  31 2.93  28 2.93  34 2.94  27 2.95  26 2.97
                            20 2.97
  30  0.666  0.000  0.563-  29 2.93  36 2.93  35 2.93  32 2.93  28 2.93  33 2.94  27 2.95  25 2.97
                            21 2.97
  31  0.000  0.334  0.563-  33 2.93  36 2.93  35 2.93  29 2.93  28 2.93  32 2.94  22 2.95  19 2.97
                            20 2.97
  32  0.666  0.334  0.563-  34 2.93  36 2.93  35 2.93  30 2.93  28 2.93  31 2.94  24 2.95  19 2.97
                            21 2.97
  33  0.000  0.666  0.563-  31 2.93  36 2.93  35 2.93  34 2.93  28 2.93  30 2.94  22 2.95  25 2.97
                            23 2.97
  34  0.334  0.666  0.563-  32 2.93  36 2.93  35 2.93  33 2.93  28 2.93  29 2.94  24 2.95  26 2.97
                            23 2.97
  35  0.667  0.667  0.563-  30 2.93  29 2.93  32 2.93  34 2.93  31 2.93  33 2.93  24 2.94  27 2.94
                            22 2.94
  36  0.333  0.333  0.560-  37 2.46  38 2.46  21 2.92  20 2.92  23 2.92  31 2.93  33 2.93  30 2.93
                            29 2.93  34 2.93  32 2.93
  37  0.267  0.335  0.668-  38 1.15  36 2.46
  38  0.398  0.335  0.668-  37 1.15  36 2.46

  LATTYP: Found a hexagonal cell.
 ALAT       =     8.7913665772
 C/A-ratio  =     2.5227160501

  Lattice vectors:

 A1 = (  -4.3956832886,  -7.6135467898,   0.0000000000)
 A2 = (   8.7913665771,   0.0000000000,   0.0000000000)
 A3 = (   0.0000000000,   0.0000000000,  22.1781215668)

Analysis of symmetry for initial positions (statically):
 Subroutine PRICEL returns:
 Original cell was already a primitive cell.

 Routine SETGRP: Setting up the symmetry group for a
 hexagonal supercell.

 Subroutine GETGRP returns: Found  2 space group operations
 (whereof  2 operations were pure point group operations)
 out of a pool of 24 trial point group operations.

The static configuration has the point symmetry C_1h.

Analysis of symmetry for dynamics (positions and initial velocities):
 Subroutine PRICEL returns:
 Original cell was already a primitive cell.

[...]

The dynamic configuration has the point symmetry C_1h.

Analysis of constrained symmetry for selective dynamics:
 Subroutine PRICEL returns:
 Original cell was already a primitive cell.

 Routine SETGRP: Setting up the symmetry group for a
 hexagonal supercell.

[...]
     33      -4.4682      2.00000
     34      -4.4620      2.00000
     35      -4.4508      2.00000
     36      -4.4126      2.00000
     37      -4.4030      2.00000
     38      -4.4015      2.00000
     39      -4.3663      2.00000
     40      -4.3651      2.00000
     41      -4.3496      2.00000
     42      -4.3143      2.00000
     43      -4.3081      2.00000
     44      -4.3016      2.00000
     45      -4.2561      2.00000
     46      -4.2214      2.00000
     47      -4.1904      2.00000
     48      -4.1859      2.00000
     49      -4.1765      2.00000
     50      -4.1727      2.00000
     51      -4.1555      2.00000
     52      -4.0587      2.00000
     53      -4.0479      2.00000
     54      -4.0334      2.00000
     55      -4.0193      2.00000
     56      -4.0141      2.00000
     57      -4.0095      2.00000
     58      -4.0037      2.00000
     59      -3.9922      2.00000
     60      -3.9855      2.00000
[...]
    238       6.0071      0.00000
    239       6.0405      0.00000
    240       6.0542      0.00000
    241       6.0658      0.00000
    242       6.1885      0.00000
    243       6.3789      0.00000
    244       6.4318      0.00000
    245       6.5014      0.00000
    246       6.5357      0.00000
    247       6.6010      0.00000
    248       7.1894      0.00000
    249       7.3988      0.00000
    250       7.4165      0.00000
    251       7.4562      0.00000
    252       7.4662      0.00000

 soft charge-density along one line, spin component           1
         0         1         2         3         4         5         6         7         8         9
 total charge-density along one line

------------------------ aborting loop because EDIFF is reached ----------------------------------------

 total charge

# of ion       s       p       d       tot
    1        0.421   0.200   9.178   9.799
    2        0.415   0.204   9.177   9.796
    3        0.415   0.204   9.177   9.796
    4        0.414   0.203   9.179   9.796
    5        0.420   0.202   9.176   9.797
    6        0.414   0.203   9.179   9.796
    7        0.415   0.204   9.177   9.796
    8        0.415   0.204   9.177   9.796
    9        0.417   0.202   9.178   9.796
   10        0.411   0.269   9.162   9.842
   11        0.408   0.267   9.167   9.842
   12        0.411   0.269   9.162   9.842
   13        0.406   0.266   9.169   9.841
   14        0.406   0.266   9.169   9.841
   15        0.402   0.269   9.164   9.835
   16        0.410   0.269   9.162   9.842
   17        0.402   0.269   9.165   9.836
   18        0.402   0.269   9.165   9.836
   19        0.402   0.266   9.166   9.834
   20        0.438   0.294   9.134   9.867
   21        0.438   0.294   9.134   9.867
   22        0.394   0.272   9.165   9.830
   23        0.438   0.291   9.137   9.867
   24        0.394   0.272   9.165   9.830
   25        0.406   0.264   9.166   9.836
   26        0.406   0.264   9.166   9.836
   27        0.396   0.271   9.164   9.832
   28        0.410   0.208   9.171   9.789
   29        0.455   0.221   9.148   9.823
   30        0.455   0.221   9.148   9.823
   31        0.450   0.216   9.154   9.820
   32        0.450   0.216   9.154   9.820
   33        0.455   0.220   9.149   9.823
   34        0.455   0.220   9.149   9.823
   35        0.407   0.210   9.173   9.790
   36        2.186   5.963   1.541   9.690
   37        1.353   2.452   0.000   3.805
   38        1.353   2.452   0.000   3.805
tot         19.544  19.329 322.266 361.139

  FORCE on cell =-STRESS in cart. coord.  units (eV):
  Direction    XX          YY          ZZ          XY          YZ          ZX
  Alpha Z   784.19385   784.19385   784.19385
  Ewald  119820.89675119493.42835************     0.00004     0.88441     0.00006
  Hartree130219.39433130087.86051************     0.00002     0.43546     0.00002
  E(xc)   -2121.38273 -2122.65105 -2128.03498     0.00006     0.00832    -0.00001
  Local  ************************261000.72015     0.00085    -1.55147    -0.00017
  n-local  -349.24824  -339.40923  -338.77288     2.34163    -0.03345    -0.00802
  augment  3223.25806  3222.08206  3236.02151    -0.00020     0.09071    -0.00004
  Kinetic  5171.64341  5180.78197  5213.61969     0.56815    -0.00858     0.10915
  Fock        0.00000     0.00000     0.00000     0.00000     0.00000     0.00000
  Total      -6.96051    -6.56161    -0.48117    -0.00000    -0.17460    -0.00000
  in kB      -7.51248    -7.08195    -0.51933    -0.00000    -0.18844    -0.00000

 VOLUME and BASIS-vectors are now :
  energy-cutoff  :      500.00
  volume of cell :     1484.46
      direct lattice vectors                 reciprocal lattice vectors
     8.791366577  0.000000000  0.000000000     0.113747958 -0.065672414  0.000000000
     4.395683289  7.613546790  0.000000000     0.000000000  0.131344829  0.000000000
     0.000000000  0.000000000 22.178121567     0.000000000  0.000000000  0.045089481

  length of vectors
     8.791366577  8.791366577 22.178121567     0.131344829  0.131344829  0.045089481

 FORCES acting on ions
    electron-ion (+dipol)            ewald-force                    non-local-force                 convergence-correction
   0.459E-04 0.118E+00 0.253E+04   -.953E-04 -.772E-02 -.253E+04   -.474E-12 -.722E-01 -.184E+01   -.914E-04 -.433E-01 0.198E-01
   -.793E-01 0.571E+00 0.253E+04   0.833E-02 -.610E+00 -.253E+04   0.623E-01 0.122E+00 -.155E+01   0.124E-01 -.840E-01 0.490E-01
   0.794E-01 0.571E+00 0.253E+04   -.821E-02 -.610E+00 -.253E+04   -.623E-01 0.122E+00 -.155E+01   -.130E-01 -.822E-01 0.497E-01
   0.373E+00 -.363E+00 0.253E+04   -.518E+00 0.306E+00 -.253E+04   0.186E+00 -.250E-01 -.168E+01   -.404E-01 0.765E-01 0.924E-01
   -.717E-05 -.914E-02 0.253E+04   0.981E-04 -.220E-02 -.253E+04   -.188E-12 -.287E-01 -.128E+01   0.616E-02 0.407E-01 0.182E+00
   -.373E+00 -.362E+00 0.253E+04   0.517E+00 0.306E+00 -.253E+04   -.186E+00 -.250E-01 -.168E+01   0.391E-01 0.774E-01 0.931E-01
   0.546E+00 -.228E+00 0.253E+04   -.526E+00 0.304E+00 -.253E+04   0.596E-01 -.831E-01 -.160E+01   -.733E-01 0.886E-02 0.386E-01
   -.546E+00 -.228E+00 0.253E+04   0.526E+00 0.304E+00 -.253E+04   -.596E-01 -.831E-01 -.160E+01   0.749E-01 0.793E-02 0.386E-01
   0.364E-04 -.392E-01 0.253E+04   0.792E-04 0.988E-02 -.252E+04   0.300E-12 0.456E-01 -.171E+01   -.660E-02 -.996E-02 0.828E-01
   0.193E+01 0.111E+01 0.899E+03   -.160E+01 -.995E+00 -.899E+03   -.308E+00 -.184E+00 -.729E+00   -.230E-01 0.592E-01 0.146E+00
   -.286E-04 0.553E+01 0.901E+03   0.410E-04 -.570E+01 -.901E+03   0.893E-12 0.136E+00 -.232E+00   0.619E-02 -.158E-01 0.828E-01
   -.193E+01 0.111E+01 0.899E+03   0.160E+01 -.995E+00 -.899E+03   0.308E+00 -.184E+00 -.729E+00   0.218E-01 0.597E-01 0.145E+00
   0.474E+01 -.279E+01 0.901E+03   -.487E+01 0.285E+01 -.901E+03   0.167E+00 -.616E-01 -.209E+00   -.738E-01 0.435E-01 0.966E-01
   -.474E+01 -.279E+01 0.901E+03   0.487E+01 0.285E+01 -.901E+03   -.167E+00 -.616E-01 -.209E+00   0.839E-01 0.424E-01 0.943E-01
   0.158E-04 -.311E+01 0.895E+03   -.109E-03 0.308E+01 -.894E+03   0.468E-13 0.713E-02 -.767E+00   -.122E-02 0.142E-01 0.101E+00
   -.815E-05 -.223E+01 0.899E+03   0.208E-04 0.189E+01 -.899E+03   0.241E-11 0.366E+00 -.597E+00   -.387E-03 -.943E-02 0.157E+00
   -.277E+01 0.160E+01 0.895E+03   0.264E+01 -.149E+01 -.894E+03   0.762E-01 -.154E-01 -.604E+00   0.467E-01 -.974E-01 0.102E+00
   0.277E+01 0.160E+01 0.895E+03   -.264E+01 -.149E+01 -.894E+03   -.762E-01 -.154E-01 -.604E+00   -.465E-01 -.960E-01 0.103E+00
   0.404E-04 -.151E+01 -.756E+03   -.130E-03 0.148E+01 0.755E+03   0.631E-12 0.960E-01 0.955E+00   0.924E-03 -.695E-01 -.360E-01
   0.213E+02 0.128E+02 -.725E+03   -.201E+02 -.120E+02 0.725E+03   -.118E+01 -.679E+00 -.841E+00   -.136E+00 -.115E+00 -.723E-01
   -.213E+02 0.128E+02 -.725E+03   0.201E+02 -.120E+02 0.725E+03   0.118E+01 -.679E+00 -.841E+00   0.125E+00 -.116E+00 -.725E-01
   0.103E+02 -.644E+01 -.759E+03   -.105E+02 0.648E+01 0.758E+03   0.183E+00 -.116E+00 0.479E+00   -.411E-01 0.595E-01 -.120E+00
   -.562E-04 -.252E+02 -.725E+03   0.459E-04 0.237E+02 0.726E+03   0.854E-11 0.130E+01 -.546E+00   -.676E-02 0.203E+00 -.396E-01
   -.103E+02 -.644E+01 -.759E+03   0.105E+02 0.648E+01 0.758E+03   -.183E+00 -.116E+00 0.479E+00   0.532E-01 0.600E-01 -.120E+00
   0.154E+01 0.104E+01 -.757E+03   -.158E+01 -.100E+01 0.756E+03   -.231E-01 -.303E-01 0.854E+00   0.710E-01 0.817E-02 0.540E-01
   -.154E+01 0.104E+01 -.757E+03   0.158E+01 -.100E+01 0.756E+03   0.231E-01 -.303E-01 0.854E+00   -.617E-01 0.984E-02 0.543E-01
   0.209E-04 0.120E+02 -.760E+03   0.109E-03 -.120E+02 0.759E+03   0.107E-11 0.163E+00 0.507E+00   0.449E-02 -.546E-01 -.285E-01
   0.555E-04 0.182E+01 -.241E+04   -.119E-03 -.186E+01 0.241E+04   0.522E-12 0.795E-01 0.153E+01   0.347E-04 -.380E-01 -.123E+00
   0.353E+02 0.590E+02 -.240E+04   -.345E+02 -.579E+02 0.240E+04   -.848E+00 -.120E+01 0.935E+00   -.151E-01 -.729E-01 -.639E-01
   -.353E+02 0.590E+02 -.240E+04   0.345E+02 -.579E+02 0.240E+04   0.848E+00 -.120E+01 0.935E+00   0.142E-01 -.716E-01 -.637E-01
   0.708E+02 0.393E+01 -.239E+04   -.696E+02 -.375E+01 0.239E+04   -.123E+01 -.128E+00 0.129E+01   -.693E-01 -.441E-01 -.624E-01
   -.708E+02 0.393E+01 -.239E+04   0.696E+02 -.376E+01 0.239E+04   0.123E+01 -.128E+00 0.129E+01   0.687E-01 -.433E-01 -.611E-01
   0.297E+02 -.633E+02 -.240E+04   -.292E+02 0.620E+02 0.239E+04   -.608E+00 0.132E+01 0.102E+01   0.284E-01 0.109E+00 -.882E-01
   -.297E+02 -.633E+02 -.240E+04   0.292E+02 0.620E+02 0.239E+04   0.608E+00 0.132E+01 0.102E+01   -.272E-01 0.109E+00 -.868E-01
   0.183E-04 -.227E+01 -.242E+04   0.106E-03 0.232E+01 0.242E+04   -.600E-12 -.914E-01 0.172E+01   -.632E-02 0.567E-01 -.316E-01
   0.214E-03 0.147E+01 -.239E+04   0.112E-03 -.155E+01 0.239E+04   -.316E-13 -.481E-02 0.198E+01   0.507E-02 -.514E-02 -.309E-01
   0.233E+03 -.209E+00 -.125E+04   -.274E+03 0.158E+00 0.126E+04   0.418E+02 0.621E-01 -.623E+01   -.324E-01 -.292E-02 -.304E-01
   -.233E+03 -.209E+00 -.125E+04   0.274E+03 0.158E+00 0.126E+04   -.418E+02 0.621E-01 -.623E+01   0.348E-01 -.289E-02 -.307E-01
   0.688E-03 0.559E-01 0.174E+02   -.568E-13 0.799E-13 0.523E-11   -.199E-12 -.298E-01 -.180E+02   0.226E-01 -.281E-01 0.620E+00

 POSITION                                       TOTAL-FORCE (eV/Angst)
      0.00000      0.00000      5.28219        -0.000000     -0.005158     -0.025597
      2.93046      0.00000      5.28219         0.003975      0.000098      0.035180
      5.86091      0.00000      5.28219        -0.003975      0.000098      0.035180
      1.46523      2.53785      5.28219         0.001849     -0.004444      0.027951
      4.39568      2.53785      5.28219         0.000000      0.000753      0.007919
      7.32614      2.53785      5.28219        -0.001849     -0.004444      0.027951
      2.93046      5.07570      5.28219         0.005586      0.001181      0.032241
      5.86091      5.07570      5.28219        -0.005586      0.001181      0.032241
      8.79137      5.07570      5.28219         0.000000      0.006462      0.009063
      1.46523      0.84595      7.67490        -0.003871     -0.005997     -0.065640
      4.39568      0.84595      7.67490        -0.000000     -0.049259     -0.040549
      7.32614      0.84595      7.67490         0.003871     -0.005997     -0.065640
      2.93046      3.38380      7.67490        -0.039202      0.034225     -0.062303
      5.86091      3.38380      7.67490         0.039202      0.034225     -0.062303
      8.79137      3.38380      7.67490        -0.000000     -0.000896      0.013154
      4.39568      5.92165      7.67490         0.000000      0.010801     -0.065752
      7.32614      5.92165      7.67490        -0.004807     -0.003493      0.030465
     10.25659      5.92165      7.67490         0.004807     -0.003493      0.030465
      8.79137      1.69022     10.04930        -0.000000     -0.002660      0.046940
      2.93117      1.69231     10.04246        -0.049640      0.002615     -0.039924
      5.86019      1.69231     10.04246         0.049640      0.002615     -0.039924
     10.25641      4.22985     10.06824         0.009543     -0.012192      0.026163
      4.39568      4.22892     10.04246         0.000000      0.049503     -0.060088
      7.32632      4.22985     10.06824        -0.009543     -0.012192      0.026163
     11.72328      6.76844     10.04930         0.005563      0.013699     -0.002696
      5.85946      6.76844     10.04930        -0.005563      0.013699     -0.002696
      8.79137      6.76739     10.06824         0.000000      0.019638      0.008417
      0.00000      0.00000     12.44689        -0.000000     -0.002465      0.018993
      2.93311      0.00118     12.48352        -0.065385     -0.107233     -0.109691
      5.85826      0.00118     12.48352         0.065385     -0.107233     -0.109691
      1.46758      2.53956     12.48352        -0.088874     -0.000780     -0.068836
      7.32379      2.53956     12.48352         0.088874     -0.000780     -0.068836
      2.93015      5.07281     12.48352        -0.071493      0.099258     -0.117454
      5.86121      5.07281     12.48352         0.071493      0.099258     -0.117454
      8.79137      5.07570     12.47551         0.000000      0.009093     -0.008026
      4.39568      2.53785     12.42634        -0.000000     -0.087259      0.750062
      3.81879      2.55268     14.81800        -0.021270      0.008786     -0.012724
      4.97258      2.55268     14.81800         0.021270      0.008786     -0.012724
    total drift:                                0.023315     -0.002035      0.052198

  FREE ENERGIE OF THE ION-ELECTRON SYSTEM (eV)
  free  energy   TOTEN  =      -113.32462377 eV

  energy  without entropy=     -113.32462377  energy(sigma->0) =     -113.32462377

 stress matrix after NEB project (eV)
     -6.96051     -0.00000     -0.00000
     -0.00000     -6.56161     -0.17460
     -0.00000     -0.17460     -0.48117
  FORCES: max atom, RMS     0.026297    0.006033
  FORCE total and by dimension    0.037189    0.021270
  Stress total and by dimension    9.581018    6.960511
|           W    W    AA    RRRRR   N    N  II  N    N   GGGG   !!!           |
|           W    W   A  A   R    R  NN   N  II  NN   N  G    G  !!!           |
|           W    W  A    A  R    R  N N  N  II  N N  N  G       !!!           |
|           W WW W  AAAAAA  RRRRR   N  N N  II  N  N N  G  GGG   !            |
|           WW  WW  A    A  R   R   N   NN  II  N   NN  G    G                |
|           W    W  A    A  R    R  N    N  II  N    N   GGGG   !!!           |
|     Tetrahedron method does not include variations of the Fermi             |
|     occupations, so forces and stress will be inaccurate. We suggest        |
|     using a different smearing scheme ISMEAR = 1 or 2 for metals in         |
|     relaxations.                                                            |

 total charge

# of ion       s       p       d       tot
    1        0.421   0.200   9.178   9.799
    2        0.415   0.204   9.177   9.796
    3        0.415   0.204   9.177   9.796
    4        0.414   0.203   9.179   9.796
    5        0.420   0.202   9.176   9.797
    6        0.414   0.203   9.179   9.796
    7        0.415   0.204   9.177   9.796
    8        0.415   0.204   9.177   9.796
    9        0.417   0.202   9.178   9.796
   10        0.411   0.269   9.162   9.842
   11        0.408   0.267   9.167   9.842
   12        0.411   0.269   9.162   9.842
   13        0.406   0.266   9.169   9.841
   14        0.406   0.266   9.169   9.841
   15        0.402   0.269   9.164   9.835
   16        0.410   0.269   9.162   9.842
   17        0.402   0.269   9.165   9.836
   18        0.402   0.269   9.165   9.836
   19        0.402   0.266   9.166   9.834
   20        0.438   0.294   9.134   9.867
   21        0.438   0.294   9.134   9.867
   22        0.394   0.272   9.165   9.830
   23        0.438   0.291   9.137   9.867
   24        0.394   0.272   9.165   9.830
   25        0.406   0.264   9.166   9.836
   26        0.406   0.264   9.166   9.836
   27        0.396   0.271   9.164   9.832
   28        0.410   0.208   9.171   9.789
   29        0.455   0.221   9.148   9.823
   30        0.455   0.221   9.148   9.823
   31        0.450   0.216   9.154   9.820
   32        0.450   0.216   9.154   9.820
   33        0.455   0.220   9.149   9.823
   34        0.455   0.220   9.149   9.823
   35        0.407   0.210   9.173   9.790
   36        2.186   5.963   1.541   9.690
   37        1.353   2.452   0.000   3.805
   38        1.353   2.452   0.000   3.805
tot         19.544  19.329 322.266 361.139

 BZINTS: Fermi energy:    1.022428;  407.000000 electrons
         Band energy:-0.156239E+04;  BLOECHL correction:   -0.023774