 vasp.6.2.0 18Jan21 (build Jun 12 2021 23:27:24) complex

 executed on             LinuxIFC date 2022.05.30  18:08:11

 INCAR:
   ISMEAR = -5
   SIGMA = 0.1
   ISPIN = 1
   EDIFF = 1.d-5
   EDIFFG = -0.01
   NSW = 0
   NELM = 150
   ENCUT = 500
   ISIF = 2
   IBRION = 2
   LREAL = Auto
   ALGO = Fast
   ICHARG = 11
   LORBIT = 10
   LCHARG = .F.
   LWAVE = .F.

 POTCAR:    PAW_PBE Cu 22Jun2005
 POTCAR:    PAW_PBE Ni 02Aug2007
 POTCAR:    PAW_PBE C 08Apr2002
|           W    W    AA    RRRRR   N    N  II  N    N   GGGG   !!!           |
|           W    W   A  A   R    R  NN   N  II  NN   N  G    G  !!!           |
|           W    W  A    A  R    R  N N  N  II  N N  N  G       !!!           |
|           W WW W  AAAAAA  RRRRR   N  N N  II  N  N N  G  GGG   !            |
|           WW  WW  A    A  R   R   N   NN  II  N   NN  G    G                |
|           W    W  A    A  R    R  N    N  II  N    N   GGGG   !!!           |
|     For optimal performance we recommend to set                             |
|       NCORE = 2 up to number-of-cores-per-socket                            |
|     This setting can greatly improve the performance of VASP for DFT.       |
|     The default, NCORE=1 might be grossly inefficient on modern             |
|     multi-core architectures or massively parallel machines. Do your        |
|     Unfortunately you need to use the default for GW and RPA                |
|     calculations (for HF NCORE is supported but not extensively tested      |
|     yet).                                                                   |

 POTCAR:    PAW_PBE Cu 22Jun2005
   VRHFIN =Cu: d10 p1

   TITEL  = PAW_PBE Cu 22Jun2005
   POMASS =   63.546; ZVAL   =   11.000    mass and valenz
   ENMAX  =  295.446; ENMIN  =  221.585 eV

 POTCAR:    PAW_PBE Ni 02Aug2007
   VRHFIN =Ni:

   TITEL  = PAW_PBE Ni 02Aug2007
   POMASS =   58.690; ZVAL   =   10.000    mass and valenz
   ENMAX  =  269.532; ENMIN  =  202.149 eV

 POTCAR:    PAW_PBE C 08Apr2002
   VRHFIN =C: s2p2

   TITEL  = PAW_PBE C 08Apr2002
   POMASS =   12.011; ZVAL   =    4.000    mass and valenz
   ENMAX  =  400.000; ENMIN  =  300.000 eV

 Optimization of the real space projectors (new method)

 maximal supplied QI-value         = 16.25
 optimisation between [QCUT,QGAM] = [ 11.38, 22.75] = [ 36.24,144.96] Ry
 Optimized for a Real-space Cutoff    1.52 Angstroem

   l    n(q)    QCUT    max X(q) W(low)/X(q) W(high)/X(q)  e(spline)
   2      9    11.376     4.610    0.21E-03    0.10E-03    0.26E-06
   2      9    11.376     8.522    0.33E-03    0.16E-03    0.37E-06
   0     10    11.376    51.609    0.62E-04    0.20E-04    0.13E-06
   0     10    11.376    27.747    0.54E-04    0.20E-04    0.13E-06
   1     10    11.376    20.408    0.13E-04    0.99E-04    0.19E-06
   1     10    11.376    13.425    0.12E-04    0.87E-04    0.17E-06
 Optimization of the real space projectors (new method)

[...]

   l    n(q)    QCUT    max X(q) W(low)/X(q) W(high)/X(q)  e(spline)
   2      8    11.376    60.317    0.19E-03    0.33E-04    0.13E-06
   2      8    11.376    55.921    0.20E-03    0.34E-04    0.14E-06
   0      9    11.376    51.690    0.82E-04    0.12E-03    0.20E-06
   0      9    11.376    30.015    0.74E-04    0.11E-03    0.18E-06
   1      9    11.376    18.849    0.39E-03    0.12E-03    0.13E-06
   1      9    11.376    14.624    0.33E-03    0.10E-03    0.11E-06
 Optimization of the real space projectors (new method)

 maximal supplied QI-value         = 25.13
 optimisation between [QCUT,QGAM] = [ 11.31, 22.87] = [ 35.82,146.48] Ry
 Optimized for a Real-space Cutoff    1.00 Angstroem

   l    n(q)    QCUT    max X(q) W(low)/X(q) W(high)/X(q)  e(spline)
   0      7    11.310   115.676    0.43E-03    0.13E-02    0.19E-06
   0      7    11.310    87.132    0.43E-03    0.13E-02    0.18E-06
   1      6    11.310     4.429    0.42E-03    0.74E-03    0.11E-06
   1      6    11.310     2.733    0.34E-03    0.55E-03    0.92E-07
  PAW_PBE Cu 22Jun2005                  :
  PAW_PBE Ni 02Aug2007                  :
  PAW_PBE C 08Apr2002                   :

 POSCAR: Cu-Ni-C
  positions in direct lattice
  velocities in cartesian coordinates
 exchange correlation table for  LEXCH =        8
   RHO(1)=    0.500       N(1)  =     2000
   RHO(2)=  100.500       N(2)  =     4000

 VTST: version 3.2, (02/03/18)

 CHAIN: initializing optimizer

 OPT: Using VASP Conjugate-Gradient optimizer
 CHAIN: Read ICHAIN            0

 POSCAR: Cu-Ni-C
  positions in direct lattice
  velocities in cartesian coordinates

 ion  position               nearest neighbor table
   1  0.000  0.000  0.226-   7 2.57   3 2.57   4 2.57   2 2.57   6 2.57   8 2.57  12 2.57  10 2.57
                            16 2.57
   2  0.333  0.000  0.226-   8 2.57   9 2.57   5 2.57   1 2.57   3 2.57  11 2.57   4 2.57  10 2.57
                            17 2.57
   3  0.667  0.000  0.226-   1 2.57   7 2.57   6 2.57   9 2.57   2 2.57  12 2.57   5 2.57  18 2.57
                            11 2.57
   4  0.000  0.333  0.226-   5 2.57   6 2.57   1 2.57   7 2.57   2 2.57  13 2.57   9 2.57  10 2.57
                            15 2.57
   5  0.333  0.333  0.226-   4 2.57   2 2.57   7 2.57  13 2.57   8 2.57   6 2.57   3 2.57  11 2.57
                            14 2.57
   6  0.667  0.333  0.226-   4 2.57   9 2.57  15 2.57   3 2.57   1 2.57   8 2.57  14 2.57   5 2.57
                            12 2.57
   7  0.000  0.667  0.226-   1 2.57   3 2.57  16 2.57  18 2.57   4 2.57   5 2.57   8 2.57   9 2.57
                            13 2.57
   8  0.333  0.667  0.226-   9 2.57   2 2.57  17 2.57   6 2.57   1 2.57   7 2.57   5 2.57  14 2.57
                            16 2.57
   9  0.667  0.667  0.226-   8 2.57   6 2.57   2 2.57  17 2.57   3 2.57   7 2.57   4 2.57  15 2.57
                            18 2.57
  10  0.111  0.111  0.314-  20 2.55  26 2.56  19 2.56  11 2.57  12 2.57  13 2.57   1 2.57   2 2.57
                             4 2.57  15 2.57  16 2.57  17 2.57
  11  0.444  0.111  0.314-  20 2.55  21 2.55  27 2.56  10 2.57  13 2.57   2 2.57  17 2.57  14 2.57
                            12 2.57   5 2.57   3 2.57  18 2.57
  12  0.778  0.111  0.314-  21 2.55  19 2.56  25 2.56  15 2.57  10 2.57  14 2.57  18 2.57   3 2.57
                             1 2.57  16 2.57  11 2.57   6 2.57
  13  0.111  0.444  0.314-  23 2.55  20 2.55  22 2.56  16 2.57  18 2.57  10 2.57  11 2.57  14 2.57
                             5 2.57   4 2.57   7 2.57  15 2.57
  14  0.444  0.444  0.314-  21 2.55  23 2.55  24 2.56  15 2.57  17 2.57  12 2.57  16 2.57  13 2.57
                            11 2.57   6 2.57   8 2.57   5 2.57
  15  0.778  0.444  0.314-  24 2.55  22 2.55  19 2.56  14 2.57  17 2.57  12 2.57   6 2.57  18 2.57
                            10 2.57   9 2.57  13 2.57   4 2.57
  16  0.111  0.778  0.314-  23 2.55  25 2.56  26 2.56  18 2.57  13 2.57   7 2.57  14 2.57  17 2.57
                            12 2.57  10 2.57   8 2.57   1 2.57
  17  0.444  0.778  0.314-  27 2.55  24 2.55  26 2.56  14 2.57  15 2.57   8 2.57   9 2.57  11 2.57
                            16 2.57  18 2.57  10 2.57   2 2.57
  18  0.778  0.778  0.314-  22 2.55  27 2.55  25 2.56  16 2.57  13 2.57   7 2.57  15 2.57  12 2.57
                            17 2.57   9 2.57   3 2.57  11 2.57
  19  0.889  0.223  0.401-  28 2.54  32 2.55  31 2.55  15 2.56  12 2.56  10 2.56  22 2.56  24 2.56
                            21 2.57  20 2.57  25 2.57  26 2.57
  20  0.222  0.222  0.401-  36 2.48  29 2.54  31 2.54  10 2.55  11 2.55  13 2.55  26 2.57  19 2.57
                            27 2.57  22 2.57  23 2.57  21 2.57
  21  0.556  0.222  0.401-  36 2.48  32 2.54  30 2.54  12 2.55  14 2.55  11 2.55  19 2.57  25 2.57
                            24 2.57  27 2.57  20 2.57  23 2.57
  22  0.889  0.556  0.401-  35 2.54  31 2.55  33 2.55  18 2.55  15 2.55  13 2.56  19 2.56  25 2.56
                            24 2.57  27 2.57  23 2.57  20 2.57
  23  0.222  0.556  0.401-  36 2.48  33 2.54  34 2.54  16 2.55  13 2.55  14 2.55  25 2.57  26 2.57
                            22 2.57  24 2.57  20 2.57  21 2.57
  24  0.556  0.556  0.401-  35 2.54  32 2.55  34 2.55  15 2.55  17 2.55  14 2.56  19 2.56  26 2.56
                            22 2.57  27 2.57  21 2.57  23 2.57
  25  0.889  0.889  0.401-  28 2.54  33 2.55  30 2.55  18 2.56  16 2.56  12 2.56  22 2.56  27 2.56
                            21 2.57  23 2.57  19 2.57  26 2.57
  26  0.223  0.889  0.401-  28 2.54  29 2.55  34 2.55  17 2.56  10 2.56  16 2.56  27 2.56  24 2.56
                            20 2.57  23 2.57  25 2.57  19 2.57
  27  0.556  0.889  0.401-  35 2.54  29 2.55  30 2.55  17 2.55  18 2.55  11 2.56  26 2.56  25 2.56
                            24 2.57  22 2.57  20 2.57  21 2.57
  28  0.000  0.000  0.488-  25 2.54  19 2.54  26 2.54  33 2.57  30 2.57  31 2.57  29 2.57  32 2.57
                            34 2.57
  29  0.333  0.002  0.488-  20 2.54  27 2.55  31 2.55  36 2.55  30 2.55  26 2.55  28 2.57  35 2.57
                            34 2.60
  30  0.665  0.002  0.488-  21 2.54  27 2.55  32 2.55  36 2.55  29 2.55  25 2.55  28 2.57  35 2.57
                            33 2.60
  31  0.002  0.333  0.488-  20 2.54  22 2.55  29 2.55  36 2.55  33 2.55  19 2.55  28 2.57  35 2.57
                            32 2.60
  32  0.665  0.333  0.488-  21 2.54  24 2.55  30 2.55  36 2.55  34 2.55  19 2.55  28 2.57  35 2.57
                            31 2.60
  33  0.002  0.665  0.488-  23 2.54  22 2.55  34 2.55  36 2.55  31 2.55  25 2.55  28 2.57  35 2.57
                            30 2.60
  34  0.333  0.665  0.488-  23 2.54  24 2.55  33 2.55  36 2.55  32 2.55  26 2.55  28 2.57  35 2.57
                            29 2.60
  35  0.667  0.667  0.488-  24 2.54  27 2.54  22 2.54  34 2.57  32 2.57  29 2.57  30 2.57  33 2.57
                            31 2.57
  36  0.333  0.333  0.485-  37 1.64  23 2.48  20 2.48  21 2.48  31 2.55  29 2.55  33 2.55  34 2.55
                            32 2.55  30 2.55
  37  0.333  0.333  0.554-  36 1.64

  LATTYP: Found a hexagonal cell.
 ALAT       =     7.6967864036
 C/A-ratio  =     3.0908716217

  Lattice vectors:

 A1 = (  -3.8483927580,  -6.6656128093,   0.0000000000)
 A2 = (   7.6967864037,   0.0000000000,   0.0000000000)
 A3 = (   0.0000000000,   0.0000000000,  23.7897786731)

Analysis of symmetry for initial positions (statically):
 Subroutine PRICEL returns:
 Original cell was already a primitive cell.

 Routine SETGRP: Setting up the symmetry group for a
 hexagonal supercell.

 Subroutine GETGRP returns: Found  6 space group operations
 (whereof  6 operations were pure point group operations)
 out of a pool of 24 trial point group operations.

The static configuration has the point symmetry C_3v.

Analysis of symmetry for dynamics (positions and initial velocities):
 Subroutine PRICEL returns:
 Original cell was already a primitive cell.

[...]

The dynamic configuration has the point symmetry C_3v.

Analysis of constrained symmetry for selective dynamics:
 Subroutine PRICEL returns:
 Original cell was already a primitive cell.

 Routine SETGRP: Setting up the symmetry group for a
 hexagonal supercell.

 Subroutine GETGRP returns: Found  6 space group operations
[...]
     24      -4.8568      2.00000
     25      -4.6920      2.00000
     26      -4.6479      2.00000
     27      -4.5961      2.00000
     28      -4.5890      2.00000
     29      -4.5801      2.00000
     30      -4.5698      2.00000
     31      -4.5618      2.00000
     32      -4.5604      2.00000
     33      -4.5188      2.00000
     34      -4.4887      2.00000
     35      -4.4769      2.00000
     36      -4.4066      2.00000
     37      -4.3758      2.00000
     38      -4.3129      2.00000
     39      -4.3048      2.00000
     40      -4.2781      2.00000
     41      -4.2466      2.00000
     42      -4.1936      2.00000
     43      -4.1645      2.00000
     44      -4.1521      2.00000
     45      -4.1255      2.00000
     46      -4.1200      2.00000
     47      -4.0472      2.00000
     48      -3.9984      2.00000
     49      -3.9824      2.00000
     50      -3.9105      2.00000
     51      -3.8939      2.00000
     52      -3.8845      2.00000
     53      -3.8547      2.00000
     54      -3.8321      2.00000
     55      -3.8297      2.00000
     56      -3.7955      2.00000
     57      -3.7812      2.00000
     58      -3.7786      2.00000
     59      -3.7683      2.00000
     60      -3.7522      2.00000
[...]
    238       5.7168      0.00000
    239       5.8125      0.00000
    240       5.9237      0.00000
    241       5.9992      0.00000
    242       6.0637      0.00000
    243       6.2911      0.00000
    244       6.2998      0.00000
    245       6.4899      0.00000
    246       6.6749      0.00000
    247       6.6916      0.00000
    248       6.7540      0.00000
    249       6.9812      0.00000
    250       7.1779      0.00000
    251       7.3329      0.00000
    252       7.5232      0.00000

 soft charge-density along one line, spin component           1
         0         1         2         3         4         5         6         7         8         9
 total charge-density along one line

------------------------ aborting loop because EDIFF is reached ----------------------------------------

 total charge

# of ion       s       p       d       tot
    1        0.450   0.284   9.187   9.921
    2        0.448   0.285   9.187   9.920
    3        0.448   0.285   9.187   9.920
    4        0.448   0.285   9.187   9.920
    5        0.448   0.284   9.188   9.920
    6        0.448   0.285   9.187   9.920
    7        0.448   0.285   9.187   9.920
    8        0.448   0.285   9.187   9.920
    9        0.448   0.285   9.186   9.919
   10        0.442   0.370   9.180   9.991
   11        0.439   0.372   9.179   9.991
   12        0.442   0.370   9.180   9.991
   13        0.439   0.372   9.179   9.991
   14        0.439   0.372   9.179   9.991
   15        0.442   0.369   9.181   9.991
   16        0.442   0.370   9.180   9.991
   17        0.442   0.369   9.181   9.991
   18        0.442   0.369   9.181   9.991
   19        0.443   0.374   9.178   9.995
   20        0.451   0.383   9.177  10.011
   21        0.451   0.383   9.177  10.011
   22        0.441   0.373   9.181   9.995
   23        0.451   0.383   9.177  10.011
   24        0.441   0.373   9.181   9.995
   25        0.443   0.374   9.178   9.995
   26        0.443   0.374   9.178   9.995
   27        0.441   0.373   9.181   9.995
   28        0.452   0.282   9.195   9.929
   29        0.437   0.293   9.189   9.919
   30        0.437   0.293   9.189   9.919
   31        0.437   0.293   9.189   9.919
   32        0.437   0.293   9.189   9.919
   33        0.437   0.293   9.189   9.919
   34        0.437   0.293   9.189   9.919
   35        0.451   0.282   9.193   9.926
   36        0.591   0.650   8.413   9.653
   37        1.027   1.126   0.000   2.153
tot         17.149  13.381 329.851 360.381

  FORCE on cell =-STRESS in cart. coord.  units (eV):
  Direction    XX          YY          ZZ          XY          YZ          ZX
  Alpha Z   784.09863   784.09863   784.09863
  Ewald  226550.65824226550.65777************     0.00041     0.00010     0.00019
  Hartree239401.09357239401.09351************     0.00005     0.00005     0.00008
  E(xc)   -2315.63229 -2315.63179 -2319.86666    -0.00044    -0.00004    -0.00007
  Local  ************************479381.86880     0.01876    -0.00055    -0.00097
  n-local  -767.16907  -754.48385  -773.10654     7.26387    -0.11947     0.32086
  augment  3487.09422  3487.11487  3488.93937    -0.01789     0.00033     0.00063
  Kinetic  3264.23378  3263.69836  3278.30545     1.54096     2.10972    -1.33960
  Fock        0.00000     0.00000     0.00000     0.00000     0.00000     0.00000
  Total      -7.62967    -7.62968    -0.72218     0.00000    -0.00000    -0.00000
  in kB     -10.01559   -10.01559    -0.94802     0.00000    -0.00000    -0.00000

 VOLUME and BASIS-vectors are now :
  energy-cutoff  :      500.00
  volume of cell :     1220.51
      direct lattice vectors                 reciprocal lattice vectors
     7.696786404  0.000000000  0.000000000     0.129924354 -0.075011849  0.000000000
     3.848392758  6.665612809  0.000000000     0.000000000  0.150023716  0.000000000
     0.000000000  0.000000000 23.789778673     0.000000000  0.000000000  0.042034859

  length of vectors
     7.696786404  7.696786404 23.789778673     0.150023716  0.150023716  0.042034859

 FORCES acting on ions
    electron-ion (+dipol)            ewald-force                    non-local-force                 convergence-correction
   -.422E-04 -.208E-06 0.375E+04   0.578E-04 -.444E-05 -.374E+04   0.270E-17 0.229E-17 -.206E+01   -.307E-03 -.144E-03 -.828E-01
   0.105E+00 0.316E+00 0.375E+04   -.223E+00 -.261E+00 -.374E+04   0.475E-01 -.200E-01 -.201E+01   0.602E-01 -.315E-01 -.175E+00
   -.105E+00 0.316E+00 0.375E+04   0.223E+00 -.261E+00 -.374E+04   -.475E-01 -.200E-01 -.201E+01   -.594E-01 -.289E-01 -.174E+00
   0.326E+00 -.671E-01 0.375E+04   -.338E+00 -.625E-01 -.374E+04   0.645E-02 0.511E-01 -.201E+01   0.296E-02 0.679E-01 -.175E+00
   -.646E-04 -.501E-05 0.375E+04   0.116E-03 -.101E-04 -.374E+04   0.572E-17 -.211E-17 -.229E+01   0.122E-01 0.744E-02 -.171E+00
   -.326E+00 -.670E-01 0.375E+04   0.338E+00 -.627E-01 -.374E+04   -.645E-02 0.511E-01 -.201E+01   -.458E-02 0.691E-01 -.173E+00
   0.221E+00 -.249E+00 0.375E+04   -.115E+00 0.324E+00 -.374E+04   -.410E-01 -.311E-01 -.201E+01   -.547E-01 -.371E-01 -.174E+00
   -.221E+00 -.249E+00 0.375E+04   0.114E+00 0.324E+00 -.374E+04   0.410E-01 -.311E-01 -.201E+01   0.582E-01 -.385E-01 -.173E+00
   -.145E-03 -.335E-04 0.375E+04   0.264E-03 0.206E-04 -.374E+04   -.200E-18 -.614E-17 -.190E+01   -.132E-01 -.683E-02 -.124E+00
   0.252E+01 0.145E+01 0.128E+04   -.247E+01 -.142E+01 -.128E+04   -.813E-01 -.469E-01 -.843E+00   0.170E-01 0.982E-02 0.535E-01
   -.884E-04 0.233E+01 0.128E+04   0.190E-03 -.251E+01 -.128E+04   -.888E-08 0.133E+00 -.603E+00   0.117E-01 0.238E-01 0.515E-01
   -.252E+01 0.145E+01 0.128E+04   0.247E+01 -.143E+01 -.128E+04   0.813E-01 -.469E-01 -.843E+00   -.185E-01 0.114E-01 0.533E-01
   0.202E+01 -.117E+01 0.128E+04   -.218E+01 0.126E+01 -.128E+04   0.116E+00 -.667E-01 -.603E+00   0.270E-01 -.944E-03 0.515E-01
   -.202E+01 -.117E+01 0.128E+04   0.218E+01 0.126E+01 -.128E+04   -.116E+00 -.667E-01 -.603E+00   -.286E-02 -.202E-02 0.505E-01
   -.141E-03 0.243E+00 0.128E+04   0.300E-03 -.169E+00 -.128E+04   0.287E-08 -.431E-01 -.636E+00   -.353E-02 -.236E-01 0.877E-01
   -.885E-04 -.291E+01 0.128E+04   0.185E-03 0.285E+01 -.128E+04   -.625E-08 0.938E-01 -.843E+00   -.354E-03 -.229E-01 0.532E-01
   0.211E+00 -.122E+00 0.128E+04   -.147E+00 0.850E-01 -.128E+04   -.374E-01 0.216E-01 -.636E+00   -.215E-01 0.871E-02 0.876E-01
   -.210E+00 -.122E+00 0.128E+04   0.146E+00 0.849E-01 -.128E+04   0.374E-01 0.216E-01 -.636E+00   0.226E-01 0.113E-01 0.884E-01
   -.536E-04 0.182E+01 -.122E+04   0.660E-04 -.188E+01 0.122E+04   0.485E-09 -.728E-02 0.489E+00   -.108E-01 0.530E-01 0.326E-01
   0.110E+02 0.635E+01 -.119E+04   -.105E+02 -.604E+01 0.119E+04   -.495E+00 -.286E+00 0.495E+00   -.715E-01 -.414E-01 0.784E-02
   -.110E+02 0.635E+01 -.119E+04   0.105E+02 -.604E+01 0.119E+04   0.495E+00 -.286E+00 0.495E+00   0.529E-01 -.408E-01 0.754E-02
   0.549E+01 -.317E+01 -.121E+04   -.560E+01 0.324E+01 0.121E+04   0.124E+00 -.717E-01 0.917E+00   -.219E-01 0.413E-04 0.661E-02
   -.723E-04 -.127E+02 -.119E+04   0.141E-03 0.121E+02 0.119E+04   -.381E-07 0.572E+00 0.495E+00   -.101E-01 0.650E-01 0.746E-02
   -.549E+01 -.317E+01 -.121E+04   0.560E+01 0.324E+01 0.121E+04   -.124E+00 -.717E-01 0.917E+00   0.927E-03 -.344E-03 0.672E-02
   -.157E+01 -.908E+00 -.122E+04   0.163E+01 0.939E+00 0.122E+04   0.631E-02 0.364E-02 0.489E+00   -.602E-01 -.348E-01 0.322E-01
   0.157E+01 -.908E+00 -.122E+04   -.163E+01 0.939E+00 0.122E+04   -.631E-02 0.364E-02 0.489E+00   0.409E-01 -.357E-01 0.327E-01
   -.131E-03 0.634E+01 -.121E+04   0.245E-03 -.647E+01 0.121E+04   -.955E-08 0.143E+00 0.917E+00   -.109E-01 -.190E-01 0.676E-02
   -.265E-04 0.204E-04 -.370E+04   0.335E-04 -.350E-04 0.370E+04   0.503E-18 -.276E-17 0.245E+01   -.308E-04 0.329E-04 0.300E-01
   0.187E+02 0.336E+02 -.369E+04   -.189E+02 -.340E+02 0.369E+04   0.253E+00 0.463E+00 0.265E+01   -.464E-01 -.123E+00 0.586E-01
   -.187E+02 0.336E+02 -.369E+04   0.189E+02 -.340E+02 0.369E+04   -.253E+00 0.463E+00 0.265E+01   0.472E-01 -.121E+00 0.587E-01
   0.385E+02 -.622E+00 -.369E+04   -.390E+02 0.609E+00 0.369E+04   0.528E+00 -.120E-01 0.265E+01   -.130E+00 0.213E-01 0.586E-01
   -.385E+02 -.622E+00 -.369E+04   0.390E+02 0.609E+00 0.369E+04   -.528E+00 -.120E-01 0.265E+01   0.129E+00 0.224E-01 0.585E-01
   0.198E+02 -.330E+02 -.369E+04   -.200E+02 0.334E+02 0.369E+04   0.274E+00 -.451E+00 0.265E+01   -.810E-01 0.101E+00 0.586E-01
   -.198E+02 -.330E+02 -.369E+04   0.200E+02 0.334E+02 0.369E+04   -.274E+00 -.451E+00 0.265E+01   0.844E-01 0.100E+00 0.587E-01
   -.134E-03 -.184E-04 -.370E+04   0.258E-03 0.643E-05 0.370E+04   -.159E-17 0.398E-17 0.234E+01   -.130E-01 -.668E-02 0.667E-01
   -.496E-04 -.138E-04 -.313E+04   0.130E-03 0.238E-04 0.312E+04   -.792E-17 -.706E-18 0.456E+01   0.880E-02 0.537E-02 -.528E-01
   0.537E-04 -.188E-04 -.169E+04   0.142E-04 0.626E-05 0.170E+04   0.333E-18 0.664E-19 -.104E+02   0.792E-03 0.476E-03 0.711E-01
   -.886E-04 0.297E-04 0.425E+01   -.142E-12 -.907E-13 0.296E-11   -.917E-17 0.225E-15 -.405E+01   -.580E-01 -.363E-01 -.238E+00

 POSITION                                       TOTAL-FORCE (eV/Angst)
      0.00000      0.00000      5.37156         0.000000     -0.000000      0.027306
      2.56560      0.00000      5.37156        -0.009787      0.004583      0.062995
      5.13119      0.00000      5.37156         0.009787      0.004583      0.062995
      1.28280      2.22187      5.37156        -0.000925     -0.010767      0.062995
      3.84839      2.22187      5.37156         0.000000     -0.000000      0.062660
      6.41399      2.22187      5.37156         0.000925     -0.010767      0.062995
      2.56560      4.44374      5.37156         0.008863      0.006184      0.062995
      5.13119      4.44374      5.37156        -0.008863      0.006184      0.062995
      7.69679      4.44374      5.37156         0.000000      0.000000      0.078595
      1.28280      0.74062      7.46636        -0.012584     -0.007266     -0.049358
      3.84839      0.74062      7.46636         0.000000     -0.028076     -0.066135
      6.41399      0.74062      7.46636         0.012584     -0.007266     -0.049358
      2.56560      2.96249      7.46636        -0.024315      0.014038     -0.066135
      5.13119      2.96249      7.46636         0.024315      0.014038     -0.066135
      7.69679      2.96249      7.46636        -0.000000      0.006721     -0.060422
      3.84839      5.18437      7.46636        -0.000000      0.014531     -0.049358
      6.41399      5.18437      7.46636         0.005820     -0.003360     -0.060422
      8.97958      5.18437      7.46636        -0.005820     -0.003360     -0.060422
      7.69679      1.48353      9.55071         0.000000     -0.010484      0.004705
      2.56540      1.48114      9.54275        -0.035703     -0.020613     -0.191286
      5.13138      1.48114      9.54275         0.035703     -0.020613     -0.191286
      8.97935      3.70325      9.54809         0.000773     -0.000446      0.000414
      3.84839      3.70334      9.54275        -0.000000      0.041227     -0.191286
      6.41422      3.70325      9.54809        -0.000773     -0.000446      0.000414
     10.26040      5.92385      9.55071         0.009079      0.005242      0.004705
      5.13317      5.92385      9.55071        -0.009079      0.005242      0.004705
      7.69679      5.92472      9.54809        -0.000000      0.000893      0.000414
      0.00000      0.00000     11.61525         0.000000     -0.000000     -0.015327
      2.57297      0.01446     11.62005        -0.049746     -0.077761      0.093427
      5.12381      0.01446     11.62005         0.049746     -0.077761      0.093427
      1.29901      2.22103     11.62005        -0.092216     -0.004201      0.093427
      6.39777      2.22103     11.62005         0.092216     -0.004201      0.093427
      2.57443      4.43012     11.62005        -0.042470      0.081962      0.093427
      5.12235      4.43012     11.62005         0.042470      0.081962      0.093427
      7.69679      4.44374     11.61370         0.000000     -0.000000     -0.014016
      3.84839      2.22187     11.53520         0.000000      0.000000      0.036042
      3.84839      2.22187     13.17426         0.000000      0.000000     -0.027546
    total drift:                               -0.058124     -0.036310     -0.044432

  FREE ENERGIE OF THE ION-ELECTRON SYSTEM (eV)
  free  energy   TOTEN  =      -133.23139462 eV

  energy  without entropy=     -133.23139462  energy(sigma->0) =     -133.23139462

 stress matrix after NEB project (eV)
     -7.62967      0.00000     -0.00000
      0.00000     -7.62968      0.00000
      0.00000     -0.00000     -0.72218
  FORCES: max atom, RMS     0.027546    0.004529
  FORCE total and by dimension    0.027546    0.027546
  Stress total and by dimension   10.814131    7.629675
|           W    W    AA    RRRRR   N    N  II  N    N   GGGG   !!!           |
|           W    W   A  A   R    R  NN   N  II  NN   N  G    G  !!!           |
|           W    W  A    A  R    R  N N  N  II  N N  N  G       !!!           |
|           W WW W  AAAAAA  RRRRR   N  N N  II  N  N N  G  GGG   !            |
|           WW  WW  A    A  R   R   N   NN  II  N   NN  G    G                |
|           W    W  A    A  R    R  N    N  II  N    N   GGGG   !!!           |
|     Tetrahedron method does not include variations of the Fermi             |
|     occupations, so forces and stress will be inaccurate. We suggest        |
|     using a different smearing scheme ISMEAR = 1 or 2 for metals in         |
|     relaxations.                                                            |

 total charge

# of ion       s       p       d       tot
    1        0.450   0.284   9.187   9.921
    2        0.448   0.285   9.187   9.920
    3        0.448   0.285   9.187   9.920
    4        0.448   0.285   9.187   9.920
    5        0.448   0.284   9.188   9.920
    6        0.448   0.285   9.187   9.920
    7        0.448   0.285   9.187   9.920
    8        0.448   0.285   9.187   9.920
    9        0.448   0.285   9.186   9.919
   10        0.442   0.370   9.180   9.991
   11        0.439   0.372   9.179   9.991
   12        0.442   0.370   9.180   9.991
   13        0.439   0.372   9.179   9.991
   14        0.439   0.372   9.179   9.991
   15        0.442   0.369   9.181   9.991
   16        0.442   0.370   9.180   9.991
   17        0.442   0.369   9.181   9.991
   18        0.442   0.369   9.181   9.991
   19        0.443   0.374   9.178   9.995
   20        0.451   0.383   9.177  10.011
   21        0.451   0.383   9.177  10.011
   22        0.441   0.373   9.181   9.995
   23        0.451   0.383   9.177  10.011
   24        0.441   0.373   9.181   9.995
   25        0.443   0.374   9.178   9.995
   26        0.443   0.374   9.178   9.995
   27        0.441   0.373   9.181   9.995
   28        0.452   0.282   9.195   9.929
   29        0.437   0.293   9.189   9.919
   30        0.437   0.293   9.189   9.919
   31        0.437   0.293   9.189   9.919
   32        0.437   0.293   9.189   9.919
   33        0.437   0.293   9.189   9.919
   34        0.437   0.293   9.189   9.919
   35        0.451   0.282   9.193   9.926
   36        0.591   0.650   8.413   9.653
   37        1.027   1.126   0.000   2.153
tot         17.149  13.381 329.851 360.381

 BZINTS: Fermi energy:   -0.470963;  399.000000 electrons
         Band energy:-0.131814E+04;  BLOECHL correction:   -0.070340