 vasp.6.2.0 18Jan21 (build Jun 12 2021 23:27:24) complex

 executed on             LinuxIFC date 2022.05.28  02:49:15

 INCAR:
   ISMEAR = -5
   SIGMA = 0.1
   ISPIN = 1
   EDIFF = 1.d-5
   EDIFFG = -0.01
   NSW = 0
   NELM = 150
   ENCUT = 500
   ISIF = 2
   IBRION = 2
   LREAL = Auto
   ALGO = Fast
   ICHARG = 11
   LORBIT = 10
   LCHARG = .F.
   LWAVE = .F.

 POTCAR:    PAW_PBE Cu 22Jun2005
 POTCAR:    PAW_PBE Re 17Jan2003
 POTCAR:    PAW_PBE O 08Apr2002
 POTCAR:    PAW_PBE H 15Jun2001
|           W    W    AA    RRRRR   N    N  II  N    N   GGGG   !!!           |
|           W    W   A  A   R    R  NN   N  II  NN   N  G    G  !!!           |
|           W    W  A    A  R    R  N N  N  II  N N  N  G       !!!           |
|           W WW W  AAAAAA  RRRRR   N  N N  II  N  N N  G  GGG   !            |
|           WW  WW  A    A  R   R   N   NN  II  N   NN  G    G                |
|           W    W  A    A  R    R  N    N  II  N    N   GGGG   !!!           |
|     For optimal performance we recommend to set                             |
|       NCORE = 2 up to number-of-cores-per-socket                            |
|     This setting can greatly improve the performance of VASP for DFT.       |
|     The default, NCORE=1 might be grossly inefficient on modern             |
|     multi-core architectures or massively parallel machines. Do your        |
|     Unfortunately you need to use the default for GW and RPA                |
|     calculations (for HF NCORE is supported but not extensively tested      |
|     yet).                                                                   |

 POTCAR:    PAW_PBE Cu 22Jun2005
   VRHFIN =Cu: d10 p1

   TITEL  = PAW_PBE Cu 22Jun2005
   POMASS =   63.546; ZVAL   =   11.000    mass and valenz
   ENMAX  =  295.446; ENMIN  =  221.585 eV

 POTCAR:    PAW_PBE Re 17Jan2003
   VRHFIN =Re: 5p6s5d

   TITEL  = PAW_PBE Re 17Jan2003
   POMASS =  186.207; ZVAL   =    7.000    mass and valenz
   ENMAX  =  226.216; ENMIN  =  169.662 eV

 POTCAR:    PAW_PBE O 08Apr2002
   VRHFIN =O: s2p4

   TITEL  = PAW_PBE O 08Apr2002
   POMASS =   16.000; ZVAL   =    6.000    mass and valenz
   ENMAX  =  400.000; ENMIN  =  300.000 eV

 POTCAR:    PAW_PBE H 15Jun2001
   VRHFIN =H: ultrasoft test

   TITEL  = PAW_PBE H 15Jun2001
   POMASS =    1.000; ZVAL   =    1.000    mass and valenz
   ENMAX  =  250.000; ENMIN  =  200.000 eV

 Optimization of the real space projectors (new method)

 maximal supplied QI-value         = 16.25
 optimisation between [QCUT,QGAM] = [ 11.38, 22.75] = [ 36.24,144.96] Ry
 Optimized for a Real-space Cutoff    1.52 Angstroem

   l    n(q)    QCUT    max X(q) W(low)/X(q) W(high)/X(q)  e(spline)
   2      9    11.376     4.610    0.21E-03    0.10E-03    0.26E-06
   2      9    11.376     8.522    0.33E-03    0.16E-03    0.37E-06
   0     10    11.376    51.609    0.62E-04    0.20E-04    0.13E-06
   0     10    11.376    27.747    0.54E-04    0.20E-04    0.13E-06
   1     10    11.376    20.408    0.13E-04    0.99E-04    0.19E-06
   1     10    11.376    13.425    0.12E-04    0.87E-04    0.17E-06
 Optimization of the real space projectors (new method)

[...]

   l    n(q)    QCUT    max X(q) W(low)/X(q) W(high)/X(q)  e(spline)
   0      7    11.387    20.381    0.39E-03    0.13E-02    0.15E-06
   0      7    11.387    15.268    0.42E-03    0.14E-02    0.17E-06
   1      6    11.387     5.964    0.41E-03    0.11E-02    0.17E-06
   1      6    11.387     5.382    0.39E-03    0.87E-03    0.15E-06
 Optimization of the real space projectors (new method)

 maximal supplied QI-value         = 34.20
 optimisation between [QCUT,QGAM] = [ 11.29, 22.57] = [ 35.68,142.71] Ry
 Optimized for a Real-space Cutoff    1.16 Angstroem

   l    n(q)    QCUT    max X(q) W(low)/X(q) W(high)/X(q)  e(spline)
   0      8    11.287    19.460    0.40E-03    0.73E-03    0.16E-06
   0      8    11.287    12.209    0.38E-03    0.70E-03    0.15E-06
   1      7    11.287     4.655    0.22E-03    0.25E-04    0.22E-06
  PAW_PBE Cu 22Jun2005                  :
  PAW_PBE Re 17Jan2003                  :
  PAW_PBE O 08Apr2002                   :
  PAW_PBE H 15Jun2001                   :

 POSCAR: Cu-Re-OOH
  positions in direct lattice
  velocities in cartesian coordinates
 exchange correlation table for  LEXCH =        8
   RHO(1)=    0.500       N(1)  =     2000
   RHO(2)=  100.500       N(2)  =     4000

 VTST: version 3.2, (02/03/18)

 CHAIN: initializing optimizer

 OPT: Using VASP Conjugate-Gradient optimizer
 CHAIN: Read ICHAIN            0

 POSCAR: Cu-Re-OOH
  positions in direct lattice
  velocities in cartesian coordinates

 ion  position               nearest neighbor table
   1  0.000  0.000  0.212-   7 2.57   3 2.57   4 2.57   2 2.57   6 2.57   8 2.57  12 2.57  10 2.57
                            16 2.57
   2  0.333  0.000  0.212-   8 2.57   9 2.57   5 2.57   1 2.57   3 2.57  11 2.57   4 2.57  10 2.57
                            17 2.57
   3  0.667  0.000  0.212-   1 2.57   7 2.57   6 2.57   9 2.57   2 2.57  12 2.57   5 2.57  18 2.57
                            11 2.57
   4  0.000  0.333  0.212-   5 2.57   6 2.57   1 2.57   7 2.57   2 2.57  13 2.57   9 2.57  10 2.57
                            15 2.57
   5  0.333  0.333  0.212-   4 2.57   2 2.57   7 2.57  13 2.57   8 2.57   6 2.57   3 2.57  11 2.57
                            14 2.57
   6  0.667  0.333  0.212-   4 2.57   9 2.57  15 2.57   3 2.57   1 2.57   8 2.57  14 2.57   5 2.57
                            12 2.57
   7  0.000  0.667  0.212-   1 2.57   3 2.57  16 2.57  18 2.57   4 2.57   5 2.57   8 2.57   9 2.57
                            13 2.57
   8  0.333  0.667  0.212-   9 2.57   2 2.57  17 2.57   6 2.57   1 2.57   7 2.57   5 2.57  14 2.57
                            16 2.57
   9  0.667  0.667  0.212-   8 2.57   6 2.57   2 2.57  17 2.57   3 2.57   7 2.57   4 2.57  15 2.57
                            18 2.57
  10  0.111  0.111  0.294-  20 2.53  11 2.57  12 2.57  13 2.57   1 2.57   2 2.57   4 2.57  15 2.57
                            16 2.57  17 2.57  26 2.57  19 2.57
  11  0.444  0.111  0.294-  20 2.55  21 2.55  10 2.57  13 2.57   2 2.57  17 2.57  14 2.57  12 2.57
                             5 2.57   3 2.57  18 2.57  27 2.58
  12  0.778  0.111  0.294-  21 2.53  15 2.57  10 2.57  14 2.57  18 2.57   3 2.57   1 2.57  16 2.57
                            11 2.57   6 2.57  19 2.57  25 2.57
  13  0.111  0.444  0.294-  23 2.55  20 2.55  16 2.57  18 2.57  10 2.57  11 2.57  14 2.57   5 2.57
                             4 2.57   7 2.57  15 2.57  22 2.58
  14  0.444  0.444  0.294-  21 2.55  23 2.55  15 2.57  17 2.57  12 2.57  16 2.57  13 2.57  11 2.57
                             6 2.57   8 2.57   5 2.57  24 2.58
  15  0.778  0.444  0.294-  19 2.57  14 2.57  17 2.57  12 2.57   6 2.57  18 2.57  10 2.57   9 2.57
                            13 2.57   4 2.57  24 2.57  22 2.57
  16  0.111  0.778  0.294-  23 2.53  18 2.57  13 2.57   7 2.57  14 2.57  17 2.57  12 2.57  10 2.57
                             8 2.57   1 2.57  25 2.57  26 2.57
  17  0.444  0.778  0.294-  26 2.57  14 2.57  15 2.57   8 2.57   9 2.57  11 2.57  16 2.57  18 2.57
                            10 2.57   2 2.57  27 2.57  24 2.57
  18  0.778  0.778  0.294-  25 2.57  16 2.57  13 2.57   7 2.57  15 2.57  12 2.57  17 2.57   9 2.57
                             3 2.57  11 2.57  22 2.57  27 2.57
  19  0.889  0.223  0.377-  21 2.55  20 2.55  22 2.56  24 2.56  28 2.56  15 2.57  12 2.57  10 2.57
                            25 2.57  26 2.57  32 2.59  31 2.59
  20  0.221  0.221  0.376-  36 2.53  10 2.53  11 2.55  13 2.55  26 2.55  19 2.55  27 2.57  22 2.57
                            23 2.59  21 2.59  29 2.61  31 2.61
  21  0.558  0.221  0.376-  36 2.53  12 2.53  14 2.55  11 2.55  19 2.55  25 2.55  24 2.57  27 2.57
                            20 2.59  23 2.59  32 2.61  30 2.61
  22  0.888  0.556  0.377-  24 2.55  27 2.55  35 2.55  19 2.56  25 2.56  18 2.57  15 2.57  23 2.57
                            20 2.57  13 2.58  31 2.59  33 2.59
  23  0.221  0.558  0.376-  36 2.53  16 2.53  13 2.55  14 2.55  25 2.55  26 2.55  22 2.57  24 2.57
                            20 2.59  21 2.59  33 2.61  34 2.61
  24  0.556  0.556  0.377-  22 2.55  27 2.55  35 2.55  19 2.56  26 2.56  15 2.57  17 2.57  21 2.57
                            23 2.57  14 2.58  32 2.59  34 2.59
  25  0.889  0.889  0.377-  21 2.55  23 2.55  22 2.56  27 2.56  28 2.56  18 2.57  16 2.57  12 2.57
                            19 2.57  26 2.57  33 2.59  30 2.59
  26  0.223  0.889  0.377-  20 2.55  23 2.55  27 2.56  24 2.56  28 2.56  17 2.57  10 2.57  16 2.57
                            25 2.57  19 2.57  29 2.59  34 2.59
  27  0.556  0.888  0.377-  24 2.55  22 2.55  35 2.55  26 2.56  25 2.56  17 2.57  18 2.57  20 2.57
                            21 2.57  11 2.58  29 2.59  30 2.59
  28  0.000  0.000  0.459-  33 2.56  30 2.56  31 2.56  29 2.56  32 2.56  34 2.56  25 2.56  19 2.56
                            26 2.56
  29  0.333  0.000  0.460-  38 2.10  31 2.56  28 2.56  36 2.57  34 2.57  35 2.57  30 2.57  26 2.59
                            27 2.59  20 2.61
  30  0.667  0.000  0.460-  32 2.56  28 2.56  36 2.57  33 2.57  35 2.57  29 2.57  25 2.59  27 2.59
                            21 2.61
  31  0.000  0.333  0.460-  38 2.15  29 2.56  28 2.56  36 2.57  32 2.57  35 2.57  33 2.57  19 2.59
                            22 2.59  20 2.61
  32  0.667  0.333  0.460-  37 2.02  30 2.56  28 2.56  36 2.57  31 2.57  35 2.57  34 2.57  19 2.59
                            24 2.59  21 2.61
  33  0.000  0.667  0.460-  34 2.56  28 2.56  36 2.57  30 2.57  35 2.57  31 2.57  25 2.59  22 2.59
                            23 2.61
  34  0.333  0.667  0.460-  37 2.03  33 2.56  28 2.56  36 2.57  29 2.57  35 2.57  32 2.57  26 2.59
                            24 2.59  23 2.61
  35  0.667  0.667  0.459-  24 2.55  27 2.55  22 2.55  34 2.57  32 2.57  29 2.57  30 2.57  33 2.57
                            31 2.57
  36  0.333  0.333  0.456-  37 1.88  38 2.14  23 2.53  20 2.53  21 2.53  31 2.57  29 2.57  33 2.57
                            34 2.57  32 2.57  30 2.57
  37  0.431  0.429  0.510-  36 1.88  32 2.02  34 2.03
  38  0.233  0.221  0.519-  39 0.98  29 2.10  36 2.14  31 2.15
  39  0.280  0.243  0.553-  38 0.98

  LATTYP: Found a hexagonal cell.
 ALAT       =     7.6967864036
 C/A-ratio  =     3.2973366172

  Lattice vectors:

 A1 = (  -3.8483927580,  -6.6656128093,   0.0000000000)
 A2 = (   7.6967864037,   0.0000000000,   0.0000000000)
 A3 = (   0.0000000000,   0.0000000000,  25.3788956434)

Analysis of symmetry for initial positions (statically):
 Subroutine PRICEL returns:
 Original cell was already a primitive cell.

 Routine SETGRP: Setting up the symmetry group for a
 hexagonal supercell.

 Subroutine GETGRP returns: Found  1 space group operations
 (whereof  1 operations were pure point group operations)
 out of a pool of 24 trial point group operations.

The static configuration has the point symmetry C_1 .

Analysis of symmetry for dynamics (positions and initial velocities):
 Subroutine PRICEL returns:
 Original cell was already a primitive cell.

[...]

The dynamic configuration has the point symmetry C_1 .

[...]
     41      -4.4613      2.00000
     42      -4.4394      2.00000
     43      -4.3697      2.00000
     44      -4.3123      2.00000
     45      -4.2877      2.00000
     46      -4.2499      2.00000
     47      -4.2111      2.00000
     48      -4.1964      2.00000
     49      -4.1927      2.00000
     50      -4.1654      2.00000
     51      -4.1514      2.00000
     52      -4.1233      2.00000
     53      -4.0620      2.00000
     54      -3.9929      2.00000
     55      -3.9778      2.00000
     56      -3.9465      2.00000
     57      -3.9255      2.00000
     58      -3.8969      2.00000
     59      -3.8773      2.00000
     60      -3.8643      2.00000
[...]
    238       5.2473      0.00000
    239       5.3360      0.00000
    240       5.4170      0.00000
    241       5.4820      0.00000
    242       5.5387      0.00000
    243       5.7589      0.00000
    244       5.8355      0.00000
    245       5.8901      0.00000
    246       5.9307      0.00000
    247       5.9892      0.00000
    248       6.2005      0.00000
    249       6.3203      0.00000
    250       6.3797      0.00000
    251       6.8337      0.00000
    252       6.9660      0.00000

 soft charge-density along one line, spin component           1
         0         1         2         3         4         5         6         7         8         9
 total charge-density along one line

------------------------ aborting loop because EDIFF is reached ----------------------------------------

 total charge

# of ion       s       p       d       tot
    1        0.450   0.282   9.190   9.923
    2        0.447   0.286   9.186   9.919
    3        0.448   0.285   9.186   9.919
    4        0.448   0.286   9.186   9.919
    5        0.448   0.287   9.183   9.917
    6        0.450   0.285   9.185   9.920
    7        0.448   0.285   9.186   9.919
    8        0.450   0.285   9.185   9.920
    9        0.445   0.285   9.187   9.917
   10        0.444   0.370   9.178   9.992
   11        0.440   0.369   9.182   9.992
   12        0.444   0.371   9.176   9.992
   13        0.440   0.369   9.182   9.992
   14        0.442   0.365   9.186   9.993
   15        0.440   0.366   9.182   9.987
   16        0.444   0.371   9.176   9.992
   17        0.440   0.365   9.182   9.987
   18        0.437   0.369   9.180   9.986
   19        0.433   0.374   9.177   9.984
   20        0.472   0.409   9.156  10.036
   21        0.464   0.420   9.150  10.033
   22        0.428   0.370   9.182   9.980
   23        0.464   0.420   9.150  10.033
   24        0.432   0.368   9.184   9.985
   25        0.440   0.362   9.186   9.989
   26        0.433   0.374   9.176   9.984
   27        0.428   0.371   9.182   9.980
   28        0.453   0.281   9.199   9.934
   29        0.428   0.356   9.172   9.956
   30        0.450   0.311   9.192   9.953
   31        0.429   0.342   9.177   9.949
   32        0.430   0.369   9.169   9.969
   33        0.450   0.312   9.190   9.952
   34        0.429   0.367   9.169   9.966
   35        0.447   0.284   9.196   9.927
   36        0.607   0.630   4.809   6.046
   37        1.590   3.335   0.000   4.926
   38        1.556   3.519   0.000   5.076
   39        0.604   0.117   0.000   0.722
tot         19.877  19.573 326.116 365.565

  FORCE on cell =-STRESS in cart. coord.  units (eV):
  Direction    XX          YY          ZZ          XY          YZ          ZX
  Alpha Z   781.04325   781.04325   781.04325
  Ewald  258915.38174258885.06048************    28.28659    14.61451    27.00452
  Hartree271661.00250271665.81114************    -0.86169     0.95169    -5.98385
  E(xc)   -2342.74983 -2342.97414 -2346.30490     0.20762     0.05163     0.14592
  Local  ************************543794.47390   -21.20816   -11.11866    -9.26612
  n-local  -820.40563  -821.02106  -834.64079     0.57604     1.45429     2.27304
  augment  3330.93513  3331.42821  3346.59716    -0.54712    -0.54890    -1.00577
  Kinetic  3500.33507  3509.03562  3506.75581    -6.45357    -5.10487   -12.67495
  Fock        0.00000     0.00000     0.00000     0.00000     0.00000     0.00000
  Total      -1.14993    -1.26315    -1.13399    -0.00028     0.29969     0.49279
  in kB      -1.41501    -1.55433    -1.39539    -0.00034     0.36877     0.60639

 VOLUME and BASIS-vectors are now :
  energy-cutoff  :      500.00
  volume of cell :     1302.03
      direct lattice vectors                 reciprocal lattice vectors
     7.696786404  0.000000000  0.000000000     0.129924354 -0.075011849  0.000000000
     3.848392758  6.665612809  0.000000000     0.000000000  0.150023716  0.000000000
     0.000000000  0.000000000 25.378895643     0.000000000  0.000000000  0.039402818

  length of vectors
     7.696786404  7.696786404 25.378895643     0.150023716  0.150023716  0.039402818

 FORCES acting on ions
    electron-ion (+dipol)            ewald-force                    non-local-force                 convergence-correction
   0.142E+00 0.794E-01 0.391E+04   -.116E+00 -.678E-01 -.390E+04   -.204E-02 0.455E-02 -.274E+01   -.353E-01 -.223E-01 -.492E+00
   -.334E+00 -.172E-01 0.390E+04   0.211E+00 -.193E+00 -.390E+04   0.430E-01 0.221E+00 -.205E+01   0.898E-01 -.524E-02 -.483E+00
   0.160E+00 0.307E+00 0.390E+04   -.946E-01 -.292E+00 -.390E+04   -.601E-02 0.366E-01 -.185E+01   -.569E-01 -.330E-01 -.487E+00
   -.172E+00 -.302E+00 0.390E+04   -.611E-01 0.291E+00 -.390E+04   0.207E+00 -.699E-01 -.203E+01   0.377E-01 0.855E-01 -.496E+00
   -.958E-01 -.772E-01 0.390E+04   -.315E-01 -.556E-02 -.390E+04   0.103E+00 0.622E-01 -.167E+01   0.434E-01 0.316E-01 -.428E+00
   0.145E+00 -.288E+00 0.390E+04   0.925E-01 0.136E+00 -.390E+04   -.210E+00 0.470E-01 -.167E+01   -.392E-01 0.857E-01 -.444E+00
   0.345E+00 0.171E-01 0.390E+04   -.300E+00 0.519E-01 -.390E+04   0.209E-01 -.376E-01 -.185E+01   -.490E-01 -.395E-01 -.498E+00
   -.130E+00 0.290E+00 0.390E+04   0.153E+00 0.641E-02 -.390E+04   -.849E-01 -.216E+00 -.167E+01   0.384E-01 -.816E-01 -.455E+00
   -.106E+00 -.317E-01 0.390E+04   0.147E+00 0.726E-01 -.390E+04   -.431E-01 -.351E-01 -.223E+01   -.522E-02 -.822E-02 -.499E+00
   0.262E+01 0.146E+01 0.138E+04   -.235E+01 -.129E+01 -.138E+04   -.371E+00 -.218E+00 -.111E+01   0.450E-01 0.237E-01 -.171E+00
   -.530E+00 0.173E+01 0.137E+04   0.567E+00 -.194E+01 -.137E+04   -.780E-01 0.127E+00 -.300E+00   0.399E-01 0.732E-02 -.227E+00
   -.233E+01 0.254E+01 0.138E+04   0.178E+01 -.223E+01 -.137E+04   0.634E+00 -.322E+00 -.120E+01   -.400E-01 0.210E-01 -.207E+00
   0.131E+01 -.139E+01 0.137E+04   -.145E+01 0.153E+01 -.137E+04   0.552E-01 -.130E+00 -.305E+00   0.241E-01 0.251E-01 -.240E+00
   -.641E+00 -.416E+00 0.137E+04   0.855E+00 0.535E+00 -.137E+04   -.202E+00 -.107E+00 -.256E-02   0.265E-01 0.122E-01 -.231E+00
   -.349E+00 -.151E+01 0.137E+04   0.596E+00 0.131E+01 -.137E+04   -.183E+00 0.870E-01 -.888E+00   -.689E-01 0.906E-01 -.232E+00
   0.107E+01 -.321E+01 0.138E+04   -.109E+01 0.259E+01 -.137E+04   0.609E-01 0.700E+00 -.122E+01   0.211E-02 -.473E-01 -.212E+00
   -.145E+01 0.521E+00 0.137E+04   0.140E+01 -.225E+00 -.137E+04   -.193E-01 -.195E+00 -.910E+00   0.490E-01 -.979E-01 -.224E+00
   0.281E+00 0.252E+00 0.137E+04   -.310E+00 -.277E+00 -.137E+04   0.688E-01 0.403E-01 -.624E+00   -.431E-01 -.168E-01 -.271E+00
   0.154E+01 0.519E+00 -.117E+04   -.198E+01 -.415E+00 0.117E+04   0.469E+00 -.407E-02 0.798E+00   -.189E-01 -.278E-01 0.269E+00
   -.296E+02 -.179E+02 -.116E+04   0.299E+02 0.181E+02 0.116E+04   -.503E+00 -.283E+00 -.109E+01   0.641E-01 0.277E-01 0.402E+00
   0.268E+02 -.668E+01 -.117E+04   -.279E+02 0.771E+01 0.117E+04   0.118E+01 -.106E+01 -.132E+01   -.594E-01 0.526E-01 0.381E+00
   -.185E+02 0.346E+01 -.119E+04   0.183E+02 -.298E+01 0.118E+04   0.267E+00 -.552E+00 0.988E+00   0.869E-02 -.246E-01 0.264E+00
   0.819E+01 0.265E+02 -.117E+04   -.786E+01 -.280E+02 0.117E+04   -.349E+00 0.152E+01 -.136E+01   0.197E-01 -.811E-01 0.398E+00
   0.104E+02 0.610E+01 -.117E+04   -.102E+02 -.603E+01 0.117E+04   -.300E+00 -.135E+00 0.528E+00   -.206E-02 0.195E-02 0.341E+00
   0.451E+01 0.302E+01 -.118E+04   -.478E+01 -.318E+01 0.118E+04   0.254E+00 0.148E+00 0.887E+00   0.186E-01 0.150E-01 0.259E+00
   0.187E+01 0.134E+01 -.117E+04   -.195E+01 -.171E+01 0.117E+04   0.184E+00 0.342E+00 0.761E+00   -.254E-01 -.210E-02 0.272E+00
   -.654E+01 -.170E+02 -.118E+04   0.681E+01 0.166E+02 0.118E+04   -.305E+00 0.486E+00 0.902E+00   -.213E-01 0.233E-01 0.258E+00
   0.305E+02 0.175E+02 -.370E+04   -.313E+02 -.179E+02 0.370E+04   0.709E+00 0.392E+00 0.222E+01   -.346E-01 -.307E-01 0.444E+00
   -.221E+02 0.752E+02 -.361E+04   0.221E+02 -.790E+02 0.361E+04   -.903E-01 0.312E+01 0.431E+01   0.282E-01 -.260E-01 0.383E+00
   -.713E+01 0.155E+02 -.371E+04   0.737E+01 -.173E+02 0.371E+04   0.355E-01 0.109E+01 0.218E+01   0.160E-01 0.214E-01 0.476E+00
   0.472E+02 -.589E+02 -.362E+04   -.504E+02 0.611E+02 0.362E+04   0.253E+01 -.186E+01 0.478E+01   -.609E-02 0.360E-01 0.389E+00
   -.709E+02 0.550E+02 -.362E+04   0.758E+02 -.569E+02 0.362E+04   -.391E+01 0.162E+01 0.293E+01   -.125E+00 0.110E+00 0.466E+00
   0.949E+01 -.901E+01 -.371E+04   -.109E+02 0.994E+01 0.371E+04   0.103E+01 -.406E+00 0.207E+01   0.482E-01 -.630E-03 0.484E+00
   0.151E+02 -.862E+02 -.363E+04   -.144E+02 0.913E+02 0.362E+04   -.487E+00 -.418E+01 0.304E+01   0.271E-01 -.155E+00 0.468E+00
   -.296E+02 -.145E+02 -.371E+04   0.299E+02 0.148E+02 0.371E+04   -.123E+00 -.137E+00 0.247E+01   -.987E-01 -.483E-01 0.483E+00
   0.245E+02 0.991E+01 -.213E+04   -.248E+02 -.100E+02 0.213E+04   0.262E+00 0.116E+00 0.182E+01   0.714E-01 0.439E-01 0.206E+00
   0.750E+01 0.195E+01 -.253E+04   -.114E+01 0.180E+01 0.255E+04   -.643E+01 -.378E+01 -.286E+02   0.621E-01 0.373E-01 0.301E-01
   0.151E+02 -.335E+00 -.248E+04   -.373E+02 -.715E+01 0.247E+04   0.222E+02 0.748E+01 0.138E+02   0.135E-01 -.373E-02 0.471E-01
   -.311E+02 -.816E+01 -.464E+03   0.347E+02 0.933E+01 0.472E+03   -.363E+01 -.117E+01 -.713E+01   0.102E-01 0.414E-02 0.154E-01
   -.130E+02 -.276E+01 0.187E+02   0.284E-13 0.924E-13 0.159E-10   0.130E+02 0.275E+01 -.192E+02   0.546E-01 0.368E-02 0.439E+00

 POSITION                                       TOTAL-FORCE (eV/Angst)
      0.00000      0.00000      5.37156        -0.013235     -0.006023     -0.019708
      2.56560      0.00000      5.37156         0.008680      0.005341      0.081135
      5.13119      0.00000      5.37156         0.001394      0.018314      0.076301
      1.28280      2.22187      5.37156         0.009795      0.005069      0.080064
      3.84839      2.22187      5.37156         0.017292      0.011131      0.064313
      6.41399      2.22187      5.37156        -0.013090     -0.018909      0.055282
      2.56560      4.44374      5.37156         0.015749     -0.007939      0.078644
      5.13119      4.44374      5.37156        -0.024135     -0.000602      0.054032
      7.69679      4.44374      5.37156        -0.008754     -0.002224      0.048132
      1.28280      0.74062      7.46636        -0.058541     -0.030609     -0.116282
      3.84839      0.74062      7.46636        -0.002755     -0.070036     -0.118283
      6.41399      0.74062      7.46636         0.048345      0.012071     -0.058973
      2.56560      2.96249      7.46636        -0.065845      0.032286     -0.115087
      5.13119      2.96249      7.46636         0.037362      0.023256     -0.102577
      7.69679      2.96249      7.46636        -0.006216     -0.014888     -0.023422
      3.84839      5.18437      7.46636         0.034939      0.036077     -0.061343
      6.41399      5.18437      7.46636        -0.016044      0.002511     -0.032861
      8.97958      5.18437      7.46636        -0.004602     -0.001701      0.059039
      7.69679      1.48486      9.56345         0.005507      0.071601      0.213877
      2.55359      1.47432      9.53212        -0.178833     -0.108691     -0.257560
      5.14319      1.47432      9.53212        -0.013565      0.027948     -0.041496
      8.97343      3.70667      9.56919         0.058084     -0.091554      0.085792
      3.84839      3.71698      9.53212         0.004653     -0.015881     -0.048587
      6.42014      3.70667      9.56919        -0.117613     -0.063886     -0.009452
     10.25925      5.92318      9.56345         0.000285      0.000460      0.024885
      5.13432      5.92318      9.56345         0.074544     -0.031245      0.220946
      7.69679      5.91789      9.56919        -0.058823      0.095474      0.094157
      0.00000      0.00000     11.65394        -0.115652     -0.055230     -0.148902
      2.56263      0.00314     11.68588        -0.106636     -0.740155     -0.209543
      5.13415      0.00314     11.68588         0.289977     -0.619231     -0.441661
      1.28404      2.21774     11.68588        -0.685217      0.302208     -0.252786
      6.41275      2.21774     11.68588         0.809728     -0.173911     -0.122534
      2.56979      4.44474     11.68588        -0.376931      0.522739     -0.427232
      5.12699      4.44474     11.68588         0.239617      0.746364     -0.112787
      7.69679      4.44374     11.65455         0.153118      0.077369     -0.065830
      3.84839      2.22187     11.57229         0.050766      0.058926      1.564267
      4.96539      2.85801     12.94281        -0.005634      0.001220     -0.017434
      2.64195      1.47417     13.17953         0.009823     -0.001865      0.014094
      3.08942      1.61702     14.03706         0.002463      0.004214     -0.010617
    total drift:                                0.052208     -0.004843     -0.077320

  FREE ENERGIE OF THE ION-ELECTRON SYSTEM (eV)
  free  energy   TOTEN  =      -150.39417801 eV

  energy  without entropy=     -150.39417801  energy(sigma->0) =     -150.39417801

 stress matrix after NEB project (eV)
     -1.14993     -0.00028      0.49279
     -0.00028     -1.26315      0.29969
      0.49279      0.29969     -1.13399
  FORCES: max atom, RMS     0.018362    0.004450
  FORCE total and by dimension    0.027791    0.017434
  Stress total and by dimension    2.206605    1.263147
|           W    W    AA    RRRRR   N    N  II  N    N   GGGG   !!!           |
|           W    W   A  A   R    R  NN   N  II  NN   N  G    G  !!!           |
|           W    W  A    A  R    R  N N  N  II  N N  N  G       !!!           |
|           W WW W  AAAAAA  RRRRR   N  N N  II  N  N N  G  GGG   !            |
|           WW  WW  A    A  R   R   N   NN  II  N   NN  G    G                |
|           W    W  A    A  R    R  N    N  II  N    N   GGGG   !!!           |
|     Tetrahedron method does not include variations of the Fermi             |
|     occupations, so forces and stress will be inaccurate. We suggest        |
|     using a different smearing scheme ISMEAR = 1 or 2 for metals in         |
|     relaxations.                                                            |

 total charge

# of ion       s       p       d       tot
    1        0.450   0.282   9.190   9.923
    2        0.447   0.286   9.186   9.919
    3        0.448   0.285   9.186   9.919
    4        0.448   0.286   9.186   9.919
    5        0.448   0.287   9.183   9.917
    6        0.450   0.285   9.185   9.920
    7        0.448   0.285   9.186   9.919
    8        0.450   0.285   9.185   9.920
    9        0.445   0.285   9.187   9.917
   10        0.444   0.370   9.178   9.992
   11        0.440   0.369   9.182   9.992
   12        0.444   0.371   9.176   9.992
   13        0.440   0.369   9.182   9.992
   14        0.442   0.365   9.186   9.993
   15        0.440   0.366   9.182   9.987
   16        0.444   0.371   9.176   9.992
   17        0.440   0.365   9.182   9.987
   18        0.437   0.369   9.180   9.986
   19        0.433   0.374   9.177   9.984
   20        0.472   0.409   9.156  10.036
   21        0.464   0.420   9.150  10.033
   22        0.428   0.370   9.182   9.980
   23        0.464   0.420   9.150  10.033
   24        0.432   0.368   9.184   9.985
   25        0.440   0.362   9.186   9.989
   26        0.433   0.374   9.176   9.984
   27        0.428   0.371   9.182   9.980
   28        0.453   0.281   9.199   9.934
   29        0.428   0.356   9.172   9.956
   30        0.450   0.311   9.192   9.953
   31        0.429   0.342   9.177   9.949
   32        0.430   0.369   9.169   9.969
   33        0.450   0.312   9.190   9.952
   34        0.429   0.367   9.169   9.966
   35        0.447   0.284   9.196   9.927
   36        0.607   0.630   4.809   6.046
   37        1.590   3.335   0.000   4.926
   38        1.556   3.519   0.000   5.076
   39        0.604   0.117   0.000   0.722
tot         19.877  19.573 326.116 365.565

 BZINTS: Fermi energy:   -0.476741;  405.000000 electrons
         Band energy:-0.144419E+04;  BLOECHL correction:   -0.029096