 vasp.6.2.0 18Jan21 (build Jun 12 2021 23:27:24) complex

 executed on             LinuxIFC date 2022.05.26  19:37:50

 INCAR:
   ISMEAR = -5
   SIGMA = 0.1
   ISPIN = 1
   EDIFF = 1.d-5
   EDIFFG = -0.01
   NSW = 0
   NELM = 150
   ENCUT = 500
   ISIF = 2
   IBRION = 2
   LREAL = Auto
   ALGO = Fast
   ICHARG = 11
   LORBIT = 10
   LCHARG = .F.
   LWAVE = .F.

 POTCAR:    PAW_PBE Ag 02Apr2005
 POTCAR:    PAW_PBE V 08Apr2002
 POTCAR:    PAW_PBE H 15Jun2001
|           W    W    AA    RRRRR   N    N  II  N    N   GGGG   !!!           |
|           W    W   A  A   R    R  NN   N  II  NN   N  G    G  !!!           |
|           W    W  A    A  R    R  N N  N  II  N N  N  G       !!!           |
|           W WW W  AAAAAA  RRRRR   N  N N  II  N  N N  G  GGG   !            |
|           WW  WW  A    A  R   R   N   NN  II  N   NN  G    G                |
|           W    W  A    A  R    R  N    N  II  N    N   GGGG   !!!           |
|     For optimal performance we recommend to set                             |
|       NCORE = 2 up to number-of-cores-per-socket                            |
|     This setting can greatly improve the performance of VASP for DFT.       |
|     The default, NCORE=1 might be grossly inefficient on modern             |
|     multi-core architectures or massively parallel machines. Do your        |
|     Unfortunately you need to use the default for GW and RPA                |
|     calculations (for HF NCORE is supported but not extensively tested      |
|     yet).                                                                   |

 POTCAR:    PAW_PBE Ag 02Apr2005
   VRHFIN =Ag : s1 d10

   TITEL  = PAW_PBE Ag 02Apr2005
   POMASS =  107.868; ZVAL   =   11.000    mass and valenz
   ENMAX  =  249.844; ENMIN  =  187.383 eV

 POTCAR:    PAW_PBE V 08Apr2002
   VRHFIN =V: p6 d4 s1

   TITEL  = PAW_PBE V 08Apr2002
   POMASS =   50.941; ZVAL   =    5.000    mass and valenz
   ENMAX  =  192.543; ENMIN  =  144.408 eV

 POTCAR:    PAW_PBE H 15Jun2001
   VRHFIN =H: ultrasoft test

   TITEL  = PAW_PBE H 15Jun2001
   POMASS =    1.000; ZVAL   =    1.000    mass and valenz
   ENMAX  =  250.000; ENMIN  =  200.000 eV

 Optimization of the real space projectors (new method)

 maximal supplied QI-value         = 15.12
 optimisation between [QCUT,QGAM] = [ 11.34, 22.83] = [ 36.00,145.93] Ry
 Optimized for a Real-space Cutoff    1.43 Angstroem

   l    n(q)    QCUT    max X(q) W(low)/X(q) W(high)/X(q)  e(spline)
   2      9    11.338    53.897    0.16E-03    0.20E-03    0.28E-06
   2      9    11.338    52.416    0.16E-03    0.20E-03    0.29E-06
   0     10    11.338   122.045    0.31E-04    0.76E-04    0.15E-06
   0     10    11.338    73.629    0.30E-04    0.72E-04    0.15E-06
   1      9    11.338    15.255    0.20E-03    0.19E-04    0.17E-06
   1      9    11.338     9.562    0.16E-03    0.15E-04    0.14E-06
 Optimization of the real space projectors (new method)

[...]

   l    n(q)    QCUT    max X(q) W(low)/X(q) W(high)/X(q)  e(spline)
   2     10    11.327    96.114    0.36E-03    0.35E-03    0.42E-06
   2     10    11.327    88.986    0.37E-03    0.35E-03    0.42E-06
   0     11    11.327    20.919    0.40E-04    0.56E-04    0.79E-06
   0     11    11.327     9.593    0.30E-04    0.41E-04    0.60E-06
   1     10    11.327    11.615    0.15E-03    0.10E-03    0.19E-06
   1     10    11.327     7.031    0.11E-03    0.73E-04    0.14E-06
 Optimization of the real space projectors (new method)

 maximal supplied QI-value         = 34.20
 optimisation between [QCUT,QGAM] = [ 11.29, 22.57] = [ 35.68,142.71] Ry
 Optimized for a Real-space Cutoff    1.16 Angstroem

   l    n(q)    QCUT    max X(q) W(low)/X(q) W(high)/X(q)  e(spline)
   0      8    11.287    19.460    0.40E-03    0.73E-03    0.16E-06
   0      8    11.287    12.209    0.38E-03    0.70E-03    0.15E-06
   1      7    11.287     4.655    0.22E-03    0.25E-04    0.22E-06
  PAW_PBE Ag 02Apr2005                  :
  PAW_PBE V 08Apr2002                   :
  PAW_PBE H 15Jun2001                   :

 POSCAR: Ag-V-H
  positions in direct lattice
  velocities in cartesian coordinates
 exchange correlation table for  LEXCH =        8
   RHO(1)=    0.500       N(1)  =     2000
   RHO(2)=  100.500       N(2)  =     4000

 VTST: version 3.2, (02/03/18)

 CHAIN: initializing optimizer

 OPT: Using VASP Conjugate-Gradient optimizer
 CHAIN: Read ICHAIN            0

 POSCAR: Ag-V-H
  positions in direct lattice
  velocities in cartesian coordinates

 ion  position               nearest neighbor table
   1  0.000  0.000  0.238-   2 2.93   8 2.93   7 2.93   6 2.93   4 2.93  12 2.93  16 2.93  10 2.93
                             3 2.93
   2  0.333  0.000  0.238-   1 2.93   8 2.93   9 2.93   3 2.93   4 2.93   5 2.93  10 2.93  17 2.93
                            11 2.93
   3  0.667  0.000  0.238-   9 2.93   2 2.93   5 2.93  11 2.93   7 2.93  18 2.93   1 2.93   6 2.93
                            12 2.93
   4  0.000  0.333  0.238-   5 2.93   6 2.93   2 2.93   1 2.93   7 2.93  13 2.93  15 2.93   9 2.93
                            10 2.93
   5  0.333  0.333  0.238-   4 2.93   3 2.93   7 2.93   2 2.93   8 2.93  14 2.93  13 2.93  11 2.93
                             6 2.93
   6  0.667  0.333  0.238-   4 2.93   9 2.93   1 2.93  15 2.93   8 2.93  12 2.93   3 2.93   5 2.93
                            14 2.93
   7  0.000  0.667  0.238-   8 2.93   1 2.93   5 2.93   3 2.93   4 2.93  16 2.93  18 2.93  13 2.93
                             9 2.93
   8  0.333  0.667  0.238-   7 2.93   1 2.93   2 2.93   9 2.93   5 2.93  16 2.93   6 2.93  17 2.93
                            14 2.93
   9  0.667  0.667  0.238-   3 2.93   2 2.93   8 2.93   6 2.93  17 2.93   4 2.93  15 2.93   7 2.93
                            18 2.93
  10  0.111  0.111  0.346-  20 2.91  19 2.92  26 2.92  12 2.93  16 2.93  15 2.93  17 2.93  13 2.93
                            11 2.93   2 2.93   1 2.93   4 2.93
  11  0.444  0.111  0.346-  21 2.90  20 2.90  27 2.92  14 2.93  17 2.93  18 2.93   3 2.93  12 2.93
                            13 2.93  10 2.93   5 2.93   2 2.93
  12  0.778  0.111  0.346-  21 2.91  25 2.92  19 2.92  10 2.93  16 2.93  18 2.93  15 2.93  11 2.93
                             1 2.93  14 2.93   6 2.93   3 2.93
  13  0.111  0.444  0.346-  20 2.90  23 2.90  22 2.92  15 2.93  14 2.93  18 2.93  10 2.93  11 2.93
                            16 2.93   4 2.93   5 2.93   7 2.93
  14  0.444  0.444  0.346-  23 2.90  21 2.90  24 2.92  13 2.93  11 2.93  16 2.93   5 2.93  12 2.93
                            17 2.93   8 2.93  15 2.93   6 2.93
  15  0.778  0.444  0.346-  24 2.92  22 2.92  19 2.92  13 2.93  10 2.93  12 2.93  17 2.93  18 2.93
                             4 2.93   6 2.93   9 2.93  14 2.93
  16  0.111  0.778  0.346-  23 2.91  26 2.92  25 2.92  18 2.93  12 2.93  10 2.93  14 2.93  17 2.93
                            13 2.93   7 2.93   8 2.93   1 2.93
  17  0.444  0.778  0.346-  27 2.92  24 2.92  26 2.92  11 2.93  10 2.93   9 2.93  18 2.93  15 2.93
                            16 2.93   2 2.93  14 2.93   8 2.93
  18  0.778  0.778  0.346-  22 2.92  27 2.92  25 2.92  16 2.93  12 2.93  13 2.93  11 2.93  17 2.93
                            15 2.93   7 2.93   3 2.93   9 2.93
  19  0.889  0.222  0.453-  28 2.91  15 2.92  10 2.92  12 2.92  24 2.93  22 2.93  26 2.93  25 2.93
                            20 2.94  21 2.94  32 2.96  31 2.96
  20  0.223  0.223  0.453-  36 2.75  13 2.90  11 2.90  10 2.91  21 2.92  23 2.92  31 2.92  29 2.92
                            27 2.93  22 2.93  19 2.94  26 2.94
  21  0.555  0.223  0.453-  36 2.75  11 2.90  14 2.90  12 2.91  20 2.92  23 2.92  30 2.92  32 2.92
                            27 2.93  24 2.93  25 2.94  19 2.94
  22  0.889  0.556  0.453-  18 2.92  15 2.92  35 2.92  13 2.92  24 2.93  27 2.93  25 2.93  19 2.93
                            23 2.93  20 2.93  33 2.94  31 2.94
  23  0.223  0.555  0.453-  36 2.75  14 2.90  13 2.90  16 2.91  21 2.92  20 2.92  34 2.92  33 2.92
                            22 2.93  24 2.93  26 2.94  25 2.94
  24  0.556  0.556  0.453-  15 2.92  17 2.92  35 2.92  14 2.92  27 2.93  22 2.93  19 2.93  26 2.93
                            23 2.93  21 2.93  32 2.94  34 2.94
  25  0.889  0.889  0.453-  28 2.91  18 2.92  16 2.92  12 2.92  22 2.93  27 2.93  26 2.93  19 2.93
                            23 2.94  21 2.94  33 2.96  30 2.96
  26  0.222  0.889  0.453-  28 2.91  17 2.92  16 2.92  10 2.92  27 2.93  24 2.93  25 2.93  19 2.93
                            23 2.94  20 2.94  34 2.96  29 2.96
  27  0.556  0.889  0.453-  17 2.92  18 2.92  35 2.92  11 2.92  24 2.93  22 2.93  26 2.93  25 2.93
                            20 2.93  21 2.93  29 2.94  30 2.94
  28  0.000  0.000  0.560-  26 2.91  25 2.91  19 2.91  29 2.96  34 2.96  33 2.96  32 2.96  31 2.96
                            30 2.96
  29  0.334  0.006  0.562-  30 2.87  31 2.88  36 2.89  20 2.92  27 2.94  35 2.96  28 2.96  26 2.96
                            34 3.04
  30  0.660  0.006  0.562-  29 2.87  32 2.88  36 2.89  21 2.92  27 2.94  35 2.96  28 2.96  25 2.96
                            33 3.04
  31  0.006  0.334  0.562-  33 2.87  29 2.88  36 2.89  20 2.92  22 2.94  35 2.96  28 2.96  19 2.96
                            32 3.04
  32  0.660  0.334  0.562-  34 2.87  30 2.88  36 2.89  21 2.92  24 2.94  35 2.96  28 2.96  19 2.96
                            31 3.04
  33  0.006  0.660  0.562-  31 2.87  34 2.88  36 2.89  23 2.92  22 2.94  35 2.96  28 2.96  25 2.96
                            30 3.04
  34  0.334  0.660  0.562-  32 2.87  33 2.88  36 2.89  23 2.92  24 2.94  35 2.96  28 2.96  26 2.96
                            29 3.04
  35  0.667  0.667  0.561-  24 2.92  27 2.92  22 2.92  30 2.96  32 2.96  29 2.96  34 2.96  31 2.96
                            33 2.96
  36  0.333  0.333  0.551-  37 1.66  21 2.75  20 2.75  23 2.75  31 2.89  33 2.89  30 2.89  29 2.89
                            34 2.89  32 2.89
  37  0.333  0.333  0.626-  36 1.66

  LATTYP: Found a hexagonal cell.
 ALAT       =     8.7913665772
 C/A-ratio  =     2.5227160501

  Lattice vectors:

 A1 = (  -4.3956832886,  -7.6135467898,   0.0000000000)
 A2 = (   8.7913665771,   0.0000000000,   0.0000000000)
 A3 = (   0.0000000000,   0.0000000000,  22.1781215668)

Analysis of symmetry for initial positions (statically):
 Subroutine PRICEL returns:
 Original cell was already a primitive cell.

 Routine SETGRP: Setting up the symmetry group for a
 hexagonal supercell.

 Subroutine GETGRP returns: Found  6 space group operations
 (whereof  6 operations were pure point group operations)
 out of a pool of 24 trial point group operations.

The static configuration has the point symmetry C_3v.

Analysis of symmetry for dynamics (positions and initial velocities):
 Subroutine PRICEL returns:
 Original cell was already a primitive cell.

[...]

The dynamic configuration has the point symmetry C_3v.

Analysis of constrained symmetry for selective dynamics:
 Subroutine PRICEL returns:
 Original cell was already a primitive cell.

 Routine SETGRP: Setting up the symmetry group for a
 hexagonal supercell.

 Subroutine GETGRP returns: Found  6 space group operations
 (whereof  6 operations were pure point group operations)
[...]
     24      -4.7248      2.00000
     25      -4.6953      2.00000
     26      -4.6742      2.00000
     27      -4.6577      2.00000
     28      -4.6543      2.00000
     29      -4.6411      2.00000
     30      -4.6269      2.00000
     31      -4.6193      2.00000
     32      -4.5833      2.00000
     33      -4.5646      2.00000
     34      -4.5237      2.00000
     35      -4.4995      2.00000
     36      -4.4885      2.00000
     37      -4.4558      2.00000
     38      -4.4260      2.00000
     39      -4.4167      2.00000
     40      -4.4153      2.00000
     41      -4.4024      2.00000
     42      -4.3931      2.00000
     43      -4.3060      2.00000
     44      -4.2774      2.00000
     45      -4.2736      2.00000
     46      -4.2638      2.00000
     47      -4.2589      2.00000
     48      -4.2564      2.00000
     49      -4.2397      2.00000
     50      -4.2341      2.00000
     51      -4.2250      2.00000
     52      -4.2147      2.00000
     53      -4.1525      2.00000
     54      -4.1440      2.00000
     55      -4.1351      2.00000
     56      -4.1257      2.00000
     57      -4.1093      2.00000
     58      -4.0954      2.00000
     59      -4.0616      2.00000
     60      -4.0437      2.00000
[...]
    238       7.0440      0.00000
    239       7.1022      0.00000
    240       7.1131      0.00000
    241       7.1356      0.00000
    242       7.2121      0.00000
    243       7.2545      0.00000
    244       7.2713      0.00000
    245       7.3965      0.00000
    246       7.4434      0.00000
    247       7.5056      0.00000
    248       7.5315      0.00000
    249       7.5639      0.00000
    250       7.7999      0.00000
    251       7.8778      0.00000
    252       8.0459      0.00000

 soft charge-density along one line, spin component           1
         0         1         2         3         4         5         6         7         8         9
 total charge-density along one line

------------------------ aborting loop because EDIFF is reached ----------------------------------------

 total charge

# of ion       s       p       d       tot
    1        0.422   0.200   9.179   9.801
    2        0.415   0.204   9.178   9.797
    3        0.415   0.204   9.178   9.797
    4        0.415   0.204   9.178   9.797
    5        0.420   0.202   9.177   9.798
    6        0.415   0.204   9.178   9.797
    7        0.415   0.204   9.178   9.797
    8        0.415   0.204   9.178   9.797
    9        0.417   0.203   9.177   9.798
   10        0.410   0.269   9.163   9.842
   11        0.405   0.269   9.169   9.843
   12        0.410   0.269   9.163   9.842
   13        0.405   0.269   9.169   9.843
   14        0.405   0.269   9.169   9.843
   15        0.404   0.269   9.165   9.839
   16        0.410   0.269   9.163   9.842
   17        0.404   0.269   9.165   9.839
   18        0.404   0.269   9.165   9.839
   19        0.403   0.265   9.167   9.835
   20        0.439   0.295   9.139   9.873
   21        0.439   0.295   9.139   9.873
   22        0.396   0.275   9.165   9.836
   23        0.439   0.295   9.139   9.873
   24        0.396   0.275   9.165   9.836
   25        0.403   0.265   9.167   9.835
   26        0.403   0.265   9.167   9.835
   27        0.396   0.275   9.165   9.836
   28        0.412   0.199   9.175   9.786
   29        0.433   0.209   9.161   9.803
   30        0.433   0.209   9.161   9.803
   31        0.433   0.209   9.161   9.803
   32        0.433   0.209   9.161   9.803
   33        0.433   0.209   9.161   9.803
   34        0.433   0.209   9.161   9.803
   35        0.407   0.200   9.178   9.785
   36        0.453   0.456   3.203   4.112
   37        0.519   0.008   0.000   0.527
tot         15.511   8.875 324.025 348.410

  FORCE on cell =-STRESS in cart. coord.  units (eV):
  Direction    XX          YY          ZZ          XY          YZ          ZX
  Alpha Z   729.82057   729.82057   729.82057
  Ewald  119095.44026119095.44015************    -0.00001    -0.00001    -0.00001
  Hartree129109.27114129109.27110************    -0.00001    -0.00000    -0.00001
  E(xc)   -2052.76148 -2052.76146 -2059.10927    -0.00001     0.00000     0.00000
  Local  ************************259387.89105     0.00023    -0.00002    -0.00005
  n-local  -327.63155  -309.63174  -320.02816    10.50253    -0.53783     0.60898
  augment  3238.55864  3238.55879  3251.02405    -0.00012     0.00000     0.00001
  Kinetic  4803.45287  4805.59606  4836.23571     3.34594     0.59252    -0.23365
  Fock        0.00000     0.00000     0.00000     0.00000     0.00000     0.00000
  Total      -9.33313    -9.33313     0.08632    -0.00000     0.00000     0.00000
  in kB     -10.07325   -10.07325     0.09316    -0.00000     0.00000     0.00000

 VOLUME and BASIS-vectors are now :
  energy-cutoff  :      500.00
  volume of cell :     1484.46
      direct lattice vectors                 reciprocal lattice vectors
     8.791366577  0.000000000  0.000000000     0.113747958 -0.065672414  0.000000000
     4.395683289  7.613546790  0.000000000     0.000000000  0.131344829  0.000000000
     0.000000000  0.000000000 22.178121567     0.000000000  0.000000000  0.045089481

  length of vectors
     8.791366577  8.791366577 22.178121567     0.131344829  0.131344829  0.045089481

 FORCES acting on ions
    electron-ion (+dipol)            ewald-force                    non-local-force                 convergence-correction
   0.461E-04 -.282E-04 0.248E+04   -.953E-04 0.593E-04 -.248E+04   0.945E-17 0.311E-18 -.184E+01   -.141E-03 -.188E-03 0.345E-02
   -.559E-01 -.194E+00 0.248E+04   0.258E-01 0.982E-01 -.248E+04   0.351E-01 0.147E+00 -.164E+01   -.511E-02 -.544E-01 0.878E-01
   0.560E-01 -.194E+00 0.248E+04   -.256E-01 0.982E-01 -.248E+04   -.351E-01 0.147E+00 -.164E+01   0.460E-02 -.525E-01 0.886E-01
   -.196E+00 0.484E-01 0.248E+04   0.978E-01 -.267E-01 -.248E+04   0.145E+00 -.429E-01 -.164E+01   -.495E-01 0.230E-01 0.878E-01
   -.801E-05 -.200E-04 0.248E+04   0.981E-04 -.200E-05 -.248E+04   0.103E-17 0.113E-17 -.131E+01   0.622E-02 0.380E-02 0.178E+00
   0.196E+00 0.484E-01 0.248E+04   -.979E-01 -.268E-01 -.248E+04   -.145E+00 -.429E-01 -.164E+01   0.481E-01 0.238E-01 0.886E-01
   -.140E+00 0.145E+00 0.248E+04   0.720E-01 -.714E-01 -.248E+04   0.109E+00 -.104E+00 -.164E+01   -.428E-01 0.308E-01 0.886E-01
   0.140E+00 0.145E+00 0.248E+04   -.721E-01 -.715E-01 -.248E+04   -.109E+00 -.104E+00 -.164E+01   0.443E-01 0.298E-01 0.886E-01
   0.365E-04 -.131E-04 0.248E+04   0.791E-04 -.642E-04 -.248E+04   -.254E-17 -.236E-17 -.167E+01   -.661E-02 -.340E-02 0.922E-01
   0.878E-01 0.507E-01 0.798E+03   0.201E+00 0.116E+00 -.798E+03   -.323E+00 -.186E+00 -.645E+00   0.168E-01 0.970E-02 0.593E+00
   -.286E-04 -.666E+00 0.796E+03   0.408E-04 0.530E+00 -.796E+03   0.763E-12 0.116E+00 -.295E+00   0.653E-02 -.149E-01 0.630E+00
   -.878E-01 0.506E-01 0.798E+03   -.201E+00 0.116E+00 -.798E+03   0.323E+00 -.186E+00 -.645E+00   -.184E-01 0.104E-01 0.593E+00
   -.576E+00 0.333E+00 0.796E+03   0.459E+00 -.265E+00 -.796E+03   0.101E+00 -.581E-01 -.295E+00   -.972E-02 0.131E-01 0.630E+00
   0.576E+00 0.333E+00 0.796E+03   -.459E+00 -.265E+00 -.796E+03   -.101E+00 -.581E-01 -.295E+00   0.202E-01 0.119E-01 0.629E+00
   0.155E-04 0.694E+00 0.799E+03   -.108E-03 -.800E+00 -.799E+03   0.408E-12 0.621E-01 -.719E+00   -.147E-02 0.284E-01 0.532E+00
   -.814E-05 -.101E+00 0.798E+03   0.206E-04 -.232E+00 -.798E+03   0.245E-11 0.372E+00 -.645E+00   -.197E-03 -.212E-01 0.593E+00
   0.601E+00 -.347E+00 0.799E+03   -.693E+00 0.400E+00 -.799E+03   0.538E-01 -.311E-01 -.719E+00   0.239E-01 -.155E-01 0.532E+00
   -.601E+00 -.347E+00 0.799E+03   0.693E+00 0.400E+00 -.799E+03   -.538E-01 -.311E-01 -.719E+00   -.234E-01 -.135E-01 0.534E+00
   0.393E-04 -.450E+01 -.894E+03   -.125E-03 0.440E+01 0.893E+03   0.534E-12 0.813E-01 0.855E+00   -.499E-02 0.395E-02 0.813E+00
   -.229E+02 -.132E+02 -.917E+03   0.235E+02 0.135E+02 0.916E+03   -.111E+01 -.642E+00 -.842E+00   0.451E+00 0.260E+00 0.151E+01
   0.229E+02 -.132E+02 -.917E+03   -.235E+02 0.135E+02 0.916E+03   0.111E+01 -.642E+00 -.842E+00   -.460E+00 0.259E+00 0.151E+01
   -.121E+02 0.697E+01 -.892E+03   0.118E+02 -.683E+01 0.891E+03   0.157E+00 -.904E-01 0.428E+00   0.120E+00 -.674E-01 0.852E+00
   -.519E-04 0.264E+02 -.917E+03   0.368E-04 -.271E+02 0.916E+03   0.844E-11 0.128E+01 -.842E+00   -.543E-02 -.528E+00 0.151E+01
   0.121E+02 0.697E+01 -.892E+03   -.118E+02 -.683E+01 0.891E+03   -.157E+00 -.904E-01 0.428E+00   -.118E+00 -.683E-01 0.852E+00
   0.390E+01 0.225E+01 -.894E+03   -.381E+01 -.220E+01 0.893E+03   -.704E-01 -.407E-01 0.855E+00   -.113E-01 -.665E-02 0.813E+00
   -.390E+01 0.225E+01 -.894E+03   0.381E+01 -.220E+01 0.893E+03   0.704E-01 -.407E-01 0.855E+00   0.623E-03 -.642E-02 0.813E+00
   0.197E-04 -.139E+02 -.892E+03   0.110E-03 0.137E+02 0.891E+03   0.119E-11 0.181E+00 0.428E+00   0.110E-02 0.138E+00 0.852E+00
   0.537E-04 -.363E-04 -.250E+04   -.113E-03 0.764E-04 0.250E+04   -.483E-17 -.528E-17 0.180E+01   -.145E-04 -.141E-03 0.268E+00
   -.188E+02 -.376E+02 -.251E+04   0.191E+02 0.378E+02 0.250E+04   -.821E+00 -.112E+01 0.161E+01   0.490E+00 0.845E+00 0.410E+00
   0.188E+02 -.376E+02 -.251E+04   -.191E+02 0.378E+02 0.250E+04   0.821E+00 -.112E+01 0.161E+01   -.491E+00 0.846E+00 0.410E+00
   -.419E+02 0.255E+01 -.251E+04   0.423E+02 -.239E+01 0.250E+04   -.138E+01 -.150E+00 0.161E+01   0.977E+00 0.209E-02 0.410E+00
   0.419E+02 0.255E+01 -.251E+04   -.423E+02 -.240E+01 0.250E+04   0.138E+01 -.150E+00 0.161E+01   -.977E+00 0.263E-02 0.410E+00
   -.232E+02 0.350E+02 -.251E+04   0.232E+02 -.354E+02 0.250E+04   -.561E+00 0.127E+01 0.161E+01   0.488E+00 -.847E+00 0.409E+00
   0.232E+02 0.350E+02 -.251E+04   -.232E+02 -.354E+02 0.250E+04   0.561E+00 0.127E+01 0.161E+01   -.487E+00 -.848E+00 0.410E+00
   0.267E-04 -.143E-04 -.250E+04   0.104E-03 -.647E-04 0.250E+04   0.378E-18 -.453E-18 0.197E+01   -.613E-02 -.311E-02 0.321E+00
   -.279E-04 -.766E-06 -.108E+04   0.479E-04 0.613E-05 0.108E+04   -.175E-17 -.289E-17 -.206E+01   0.708E-03 0.431E-03 0.420E+00
   0.444E-05 -.391E-05 -.266E+03   0.515E-05 0.816E-07 0.269E+03   -.314E-19 0.110E-18 -.192E+01   0.669E-04 0.410E-04 -.255E+00
   0.294E-03 -.714E-03 -.985E+01   0.377E-14 -.169E-12 -.313E-11   -.223E-15 -.323E-17 -.891E+01   -.189E-01 -.771E-02 0.188E+02

 POSITION                                       TOTAL-FORCE (eV/Angst)
      0.00000      0.00000      5.28219        -0.000000     -0.000000     -0.028881
      2.93046      0.00000      5.28219         0.000399     -0.002389      0.036191
      5.86091      0.00000      5.28219        -0.000399     -0.002389      0.036191
      1.46523      2.53785      5.28219        -0.001869      0.001540      0.036191
      4.39568      2.53785      5.28219        -0.000000     -0.000000      0.012887
      7.32614      2.53785      5.28219         0.001869      0.001540      0.036191
      2.93046      5.07570      5.28219        -0.002268      0.000849      0.036191
      5.86091      5.07570      5.28219         0.002268      0.000849      0.036191
      8.79137      5.07570      5.28219        -0.000000     -0.000000      0.004578
      1.46523      0.84595      7.67490        -0.016182     -0.009343     -0.045186
      4.39568      0.84595      7.67490        -0.000000     -0.037486     -0.057539
      7.32614      0.84595      7.67490         0.016182     -0.009343     -0.045186
      2.93046      3.38380      7.67490        -0.032464      0.018743     -0.057539
      5.86091      3.38380      7.67490         0.032464      0.018743     -0.057539
      8.79137      3.38380      7.67490        -0.000000     -0.015905      0.002698
      4.39568      5.92165      7.67490         0.000000      0.018685     -0.045186
      7.32614      5.92165      7.67490        -0.013774      0.007952      0.002698
     10.25659      5.92165      7.67490         0.013774      0.007952      0.002698
      8.79137      1.69254     10.05636        -0.000000     -0.008958      0.005373
      2.93602      1.69511     10.03837        -0.071944     -0.041537     -0.079480
      5.85534      1.69511     10.03837         0.071944     -0.041537     -0.079480
     10.25423      4.23112     10.05516         0.033452     -0.019314      0.016093
      4.39568      4.22332     10.03837         0.000000      0.083073     -0.079480
      7.32851      4.23112     10.05516        -0.033452     -0.019314      0.016093
     11.72126      6.76728     10.05636         0.007758      0.004479      0.005373
      5.86147      6.76728     10.05636        -0.007758      0.004479      0.005373
      8.79137      6.76486     10.05516         0.000000      0.038627      0.016093
      0.00000      0.00000     12.42937        -0.000000     -0.000000      0.033474
      2.95945      0.04653     12.45339        -0.016575     -0.047816     -0.035187
      5.83191      0.04653     12.45339         0.016575     -0.047816     -0.035187
      1.52003      2.53970     12.45339        -0.049698      0.009554     -0.035187
      7.27134      2.53970     12.45339         0.049698      0.009554     -0.035187
      2.95626      5.02732     12.45339        -0.033123      0.038262     -0.035187
      5.83511      5.02732     12.45339         0.033123      0.038262     -0.035187
      8.79137      5.07570     12.43676         0.000000      0.000000      0.046005
      4.39568      2.53785     12.21669         0.000000     -0.000000      0.319900
      4.39568      2.53785     13.87440        -0.000000     -0.000000      0.080137
    total drift:                               -0.018613     -0.008428      0.051906

  FREE ENERGIE OF THE ION-ELECTRON SYSTEM (eV)
  free  energy   TOTEN  =       -98.67768700 eV

  energy  without entropy=      -98.67768700  energy(sigma->0) =      -98.67768700

 stress matrix after NEB project (eV)
     -9.33313     -0.00000      0.00000
     -0.00000     -9.33313     -0.00000
      0.00000      0.00000      0.08632
  FORCES: max atom, RMS     0.080137    0.013174
  FORCE total and by dimension    0.080137    0.080137
  Stress total and by dimension   13.199315    9.333126
|           W    W    AA    RRRRR   N    N  II  N    N   GGGG   !!!           |
|           W    W   A  A   R    R  NN   N  II  NN   N  G    G  !!!           |
|           W    W  A    A  R    R  N N  N  II  N N  N  G       !!!           |
|           W WW W  AAAAAA  RRRRR   N  N N  II  N  N N  G  GGG   !            |
|           WW  WW  A    A  R   R   N   NN  II  N   NN  G    G                |
|           W    W  A    A  R    R  N    N  II  N    N   GGGG   !!!           |
|     Tetrahedron method does not include variations of the Fermi             |
|     occupations, so forces and stress will be inaccurate. We suggest        |
|     using a different smearing scheme ISMEAR = 1 or 2 for metals in         |
|     relaxations.                                                            |

 total charge

# of ion       s       p       d       tot
    1        0.422   0.200   9.179   9.801
    2        0.415   0.204   9.178   9.797
    3        0.415   0.204   9.178   9.797
    4        0.415   0.204   9.178   9.797
    5        0.420   0.202   9.177   9.798
    6        0.415   0.204   9.178   9.797
    7        0.415   0.204   9.178   9.797
    8        0.415   0.204   9.178   9.797
    9        0.417   0.203   9.177   9.798
   10        0.410   0.269   9.163   9.842
   11        0.405   0.269   9.169   9.843
   12        0.410   0.269   9.163   9.842
   13        0.405   0.269   9.169   9.843
   14        0.405   0.269   9.169   9.843
   15        0.404   0.269   9.165   9.839
   16        0.410   0.269   9.163   9.842
   17        0.404   0.269   9.165   9.839
   18        0.404   0.269   9.165   9.839
   19        0.403   0.265   9.167   9.835
   20        0.439   0.295   9.139   9.873
   21        0.439   0.295   9.139   9.873
   22        0.396   0.275   9.165   9.836
   23        0.439   0.295   9.139   9.873
   24        0.396   0.275   9.165   9.836
   25        0.403   0.265   9.167   9.835
   26        0.403   0.265   9.167   9.835
   27        0.396   0.275   9.165   9.836
   28        0.412   0.199   9.175   9.786
   29        0.433   0.209   9.161   9.803
   30        0.433   0.209   9.161   9.803
   31        0.433   0.209   9.161   9.803
   32        0.433   0.209   9.161   9.803
   33        0.433   0.209   9.161   9.803
   34        0.433   0.209   9.161   9.803
   35        0.407   0.200   9.178   9.785
   36        0.453   0.456   3.203   4.112
   37        0.519   0.008   0.000   0.527
tot         15.511   8.875 324.025 348.410

 BZINTS: Fermi energy:    0.744663;  391.000000 electrons
         Band energy:-0.130358E+04;  BLOECHL correction:   -0.018509