 vasp.6.2.0 18Jan21 (build Jun 12 2021 23:27:24) complex

 executed on             LinuxIFC date 2022.05.30  18:31:35

 INCAR:
   ISMEAR = -5
   SIGMA = 0.1
   ISPIN = 1
   EDIFF = 1.d-5
   EDIFFG = -0.01
   NSW = 0
   NELM = 150
   ENCUT = 500
   ISIF = 2
   IBRION = 2
   LREAL = Auto
   ALGO = Fast
   ICHARG = 11
   LORBIT = 10
   LCHARG = .F.
   LWAVE = .F.

 POTCAR:    PAW_PBE Cu 22Jun2005
 POTCAR:    PAW_PBE Hf 20Jan2003
 POTCAR:    PAW_PBE C 08Apr2002
|           W    W    AA    RRRRR   N    N  II  N    N   GGGG   !!!           |
|           W    W   A  A   R    R  NN   N  II  NN   N  G    G  !!!           |
|           W    W  A    A  R    R  N N  N  II  N N  N  G       !!!           |
|           W WW W  AAAAAA  RRRRR   N  N N  II  N  N N  G  GGG   !            |
|           WW  WW  A    A  R   R   N   NN  II  N   NN  G    G                |
|           W    W  A    A  R    R  N    N  II  N    N   GGGG   !!!           |
|     For optimal performance we recommend to set                             |
|       NCORE = 2 up to number-of-cores-per-socket                            |
|     This setting can greatly improve the performance of VASP for DFT.       |
|     The default, NCORE=1 might be grossly inefficient on modern             |
|     multi-core architectures or massively parallel machines. Do your        |
|     Unfortunately you need to use the default for GW and RPA                |
|     calculations (for HF NCORE is supported but not extensively tested      |
|     yet).                                                                   |

 POTCAR:    PAW_PBE Cu 22Jun2005
   VRHFIN =Cu: d10 p1

   TITEL  = PAW_PBE Cu 22Jun2005
   POMASS =   63.546; ZVAL   =   11.000    mass and valenz
   ENMAX  =  295.446; ENMIN  =  221.585 eV

 POTCAR:    PAW_PBE Hf 20Jan2003
   VRHFIN =Hf: 6s5d

   TITEL  = PAW_PBE Hf 20Jan2003
   POMASS =  178.490; ZVAL   =    4.000    mass and valenz
   ENMAX  =  220.334; ENMIN  =  165.250 eV

 POTCAR:    PAW_PBE C 08Apr2002
   VRHFIN =C: s2p2

   TITEL  = PAW_PBE C 08Apr2002
   POMASS =   12.011; ZVAL   =    4.000    mass and valenz
   ENMAX  =  400.000; ENMIN  =  300.000 eV

 Optimization of the real space projectors (new method)

 maximal supplied QI-value         = 16.25
 optimisation between [QCUT,QGAM] = [ 11.38, 22.75] = [ 36.24,144.96] Ry
 Optimized for a Real-space Cutoff    1.52 Angstroem

   l    n(q)    QCUT    max X(q) W(low)/X(q) W(high)/X(q)  e(spline)
   2      9    11.376     4.610    0.21E-03    0.10E-03    0.26E-06
   2      9    11.376     8.522    0.33E-03    0.16E-03    0.37E-06
   0     10    11.376    51.609    0.62E-04    0.20E-04    0.13E-06
   0     10    11.376    27.747    0.54E-04    0.20E-04    0.13E-06
   1     10    11.376    20.408    0.13E-04    0.99E-04    0.19E-06
   1     10    11.376    13.425    0.12E-04    0.87E-04    0.17E-06
 Optimization of the real space projectors (new method)

[...]

   l    n(q)    QCUT    max X(q) W(low)/X(q) W(high)/X(q)  e(spline)
   2     10    11.350    48.111    0.20E-03    0.11E-03    0.41E-06
   2     10    11.350    40.545    0.19E-03    0.10E-03    0.39E-06
   0     11    11.350   121.658    0.22E-04    0.19E-04    0.24E-06
   0     11    11.350    71.177    0.17E-04    0.17E-04    0.23E-06
   1     11    11.350    14.183    0.25E-03    0.43E-03    0.12E-05
   1     11    11.350     8.257    0.17E-03    0.29E-03    0.81E-06
 Optimization of the real space projectors (new method)

 maximal supplied QI-value         = 25.13
 optimisation between [QCUT,QGAM] = [ 11.31, 22.87] = [ 35.82,146.48] Ry
 Optimized for a Real-space Cutoff    1.00 Angstroem

   l    n(q)    QCUT    max X(q) W(low)/X(q) W(high)/X(q)  e(spline)
   0      7    11.310   115.676    0.43E-03    0.13E-02    0.19E-06
   0      7    11.310    87.132    0.43E-03    0.13E-02    0.18E-06
   1      6    11.310     4.429    0.42E-03    0.74E-03    0.11E-06
   1      6    11.310     2.733    0.34E-03    0.55E-03    0.92E-07
  PAW_PBE Cu 22Jun2005                  :
  PAW_PBE Hf 20Jan2003                  :
  PAW_PBE C 08Apr2002                   :

 POSCAR: Cu-Hf-C
  positions in direct lattice
  velocities in cartesian coordinates
 exchange correlation table for  LEXCH =        8
   RHO(1)=    0.500       N(1)  =     2000
   RHO(2)=  100.500       N(2)  =     4000

 VTST: version 3.2, (02/03/18)

 CHAIN: initializing optimizer

 OPT: Using VASP Conjugate-Gradient optimizer
 CHAIN: Read ICHAIN            0

 POSCAR: Cu-Hf-C
  positions in direct lattice
  velocities in cartesian coordinates

 ion  position               nearest neighbor table
   1  0.000  0.000  0.226-   7 2.57   3 2.57   4 2.57   2 2.57   6 2.57   8 2.57  12 2.57  10 2.57
                            16 2.57
   2  0.333  0.000  0.226-   8 2.57   9 2.57   5 2.57   1 2.57   3 2.57  11 2.57   4 2.57  10 2.57
                            17 2.57
   3  0.667  0.000  0.226-   1 2.57   7 2.57   6 2.57   9 2.57   2 2.57  12 2.57   5 2.57  18 2.57
                            11 2.57
   4  0.000  0.333  0.226-   5 2.57   6 2.57   1 2.57   7 2.57   2 2.57  13 2.57   9 2.57  10 2.57
                            15 2.57
   5  0.333  0.333  0.226-   4 2.57   2 2.57   7 2.57  13 2.57   8 2.57   6 2.57   3 2.57  11 2.57
                            14 2.57
   6  0.667  0.333  0.226-   4 2.57   9 2.57  15 2.57   3 2.57   1 2.57   8 2.57  14 2.57   5 2.57
                            12 2.57
   7  0.000  0.667  0.226-   1 2.57   3 2.57  16 2.57  18 2.57   4 2.57   5 2.57   8 2.57   9 2.57
                            13 2.57
   8  0.333  0.667  0.226-   9 2.57   2 2.57  17 2.57   6 2.57   1 2.57   7 2.57   5 2.57  14 2.57
                            16 2.57
   9  0.667  0.667  0.226-   8 2.57   6 2.57   2 2.57  17 2.57   3 2.57   7 2.57   4 2.57  15 2.57
                            18 2.57
  10  0.111  0.111  0.314-  26 2.54  19 2.54  11 2.57  12 2.57  13 2.57   1 2.57   2 2.57   4 2.57
                            15 2.57  16 2.57  17 2.57  20 2.58
  11  0.444  0.111  0.314-  27 2.56  10 2.57  13 2.57   2 2.57  17 2.57  14 2.57  12 2.57   5 2.57
                             3 2.57  18 2.57  20 2.57  21 2.57
  12  0.778  0.111  0.314-  19 2.54  25 2.54  15 2.57  10 2.57  14 2.57  18 2.57   3 2.57   1 2.57
                            16 2.57  11 2.57   6 2.57  21 2.58
  13  0.111  0.444  0.314-  22 2.56  16 2.57  18 2.57  10 2.57  11 2.57  14 2.57   5 2.57   4 2.57
                             7 2.57  15 2.57  23 2.57  20 2.57
  14  0.444  0.444  0.314-  24 2.56  15 2.57  17 2.57  12 2.57  16 2.57  13 2.57  11 2.57   6 2.57
                             8 2.57   5 2.57  21 2.57  23 2.57
  15  0.778  0.444  0.314-  19 2.55  24 2.56  22 2.56  14 2.57  17 2.57  12 2.57   6 2.57  18 2.57
                            10 2.57   9 2.57  13 2.57   4 2.57
  16  0.111  0.778  0.314-  25 2.54  26 2.54  18 2.57  13 2.57   7 2.57  14 2.57  17 2.57  12 2.57
                            10 2.57   8 2.57   1 2.57  23 2.58
  17  0.444  0.778  0.314-  26 2.55  27 2.56  24 2.56  14 2.57  15 2.57   8 2.57   9 2.57  11 2.57
                            16 2.57  18 2.57  10 2.57   2 2.57
  18  0.778  0.778  0.314-  25 2.55  22 2.56  27 2.56  16 2.57  13 2.57   7 2.57  15 2.57  12 2.57
                            17 2.57   9 2.57   3 2.57  11 2.57
  19  0.889  0.221  0.401-  12 2.54  10 2.54  15 2.55  25 2.56  26 2.56  32 2.57  31 2.57  22 2.57
                            24 2.57  21 2.57  20 2.57  28 2.57
  20  0.223  0.223  0.402-  23 2.55  21 2.55  27 2.57  22 2.57  26 2.57  19 2.57  11 2.57  13 2.57
                            10 2.58  29 2.58  31 2.58  36 2.77
  21  0.555  0.223  0.402-  20 2.55  23 2.55  24 2.57  27 2.57  19 2.57  25 2.57  14 2.57  11 2.57
                            12 2.58  32 2.58  30 2.58  36 2.77
  22  0.889  0.556  0.402-  18 2.56  15 2.56  13 2.56  24 2.56  27 2.56  23 2.57  20 2.57  31 2.57
                            33 2.57  19 2.57  25 2.57  35 2.58
  23  0.223  0.555  0.402-  20 2.55  21 2.55  22 2.57  24 2.57  25 2.57  26 2.57  13 2.57  14 2.57
                            16 2.58  33 2.58  34 2.58  36 2.77
  24  0.556  0.556  0.402-  15 2.56  17 2.56  14 2.56  22 2.56  27 2.56  21 2.57  23 2.57  32 2.57
                            34 2.57  19 2.57  26 2.57  35 2.58
  25  0.889  0.889  0.401-  12 2.54  16 2.54  18 2.55  19 2.56  26 2.56  33 2.57  30 2.57  22 2.57
                            27 2.57  21 2.57  23 2.57  28 2.57
  26  0.221  0.889  0.401-  10 2.54  16 2.54  17 2.55  25 2.56  19 2.56  29 2.57  34 2.57  27 2.57
                            24 2.57  20 2.57  23 2.57  28 2.57
  27  0.556  0.889  0.402-  17 2.56  18 2.56  11 2.56  24 2.56  22 2.56  20 2.57  21 2.57  29 2.57
                            30 2.57  26 2.57  25 2.57  35 2.58
  28  0.000  0.000  0.489-  33 2.55  30 2.55  31 2.55  29 2.55  32 2.55  34 2.55  25 2.57  19 2.57
                            26 2.57
  29  0.334  0.994  0.490-  34 2.48  35 2.54  28 2.55  26 2.57  27 2.57  20 2.58  30 2.60  31 2.61
                            36 2.62
  30  0.672  0.994  0.490-  33 2.48  35 2.54  28 2.55  25 2.57  27 2.57  21 2.58  29 2.60  32 2.61
                            36 2.62
  31  0.994  0.334  0.490-  32 2.48  35 2.54  28 2.55  19 2.57  22 2.57  20 2.58  33 2.60  29 2.61
                            36 2.62
  32  0.672  0.334  0.490-  31 2.48  35 2.54  28 2.55  19 2.57  24 2.57  21 2.58  34 2.60  30 2.61
                            36 2.62
  33  0.994  0.672  0.490-  30 2.48  35 2.54  28 2.55  25 2.57  22 2.57  23 2.58  31 2.60  34 2.61
                            36 2.62
  34  0.334  0.672  0.490-  29 2.48  35 2.54  28 2.55  26 2.57  24 2.57  23 2.58  32 2.60  33 2.61
                            36 2.62
  35  0.667  0.667  0.490-  34 2.54  32 2.54  29 2.54  30 2.54  33 2.54  31 2.54  24 2.58  27 2.58
                            22 2.58
  36  0.333  0.333  0.501-  37 1.97  31 2.62  29 2.62  33 2.62  32 2.62  34 2.62  30 2.62  23 2.77
                            20 2.77  21 2.77
  37  0.333  0.333  0.584-  36 1.97

  LATTYP: Found a hexagonal cell.
 ALAT       =     7.6967864036
 C/A-ratio  =     3.0908716217

  Lattice vectors:

 A1 = (  -3.8483927580,  -6.6656128093,   0.0000000000)
 A2 = (   7.6967864037,   0.0000000000,   0.0000000000)
 A3 = (   0.0000000000,   0.0000000000,  23.7897786731)

Analysis of symmetry for initial positions (statically):
 Subroutine PRICEL returns:
 Original cell was already a primitive cell.

 Routine SETGRP: Setting up the symmetry group for a
 hexagonal supercell.

 Subroutine GETGRP returns: Found  6 space group operations
 (whereof  6 operations were pure point group operations)
 out of a pool of 24 trial point group operations.

The static configuration has the point symmetry C_3v.

Analysis of symmetry for dynamics (positions and initial velocities):
 Subroutine PRICEL returns:
 Original cell was already a primitive cell.

[...]

The dynamic configuration has the point symmetry C_3v.

Analysis of constrained symmetry for selective dynamics:
 Subroutine PRICEL returns:
 Original cell was already a primitive cell.

 Routine SETGRP: Setting up the symmetry group for a
 hexagonal supercell.

 Subroutine GETGRP returns: Found  6 space group operations
[...]
     24      -5.0528      2.00000
     25      -4.8980      2.00000
     26      -4.8796      2.00000
     27      -4.8601      2.00000
     28      -4.8177      2.00000
     29      -4.8105      2.00000
     30      -4.8005      2.00000
     31      -4.7986      2.00000
     32      -4.7887      2.00000
     33      -4.7870      2.00000
     34      -4.7471      2.00000
     35      -4.7136      2.00000
     36      -4.6548      2.00000
     37      -4.6337      2.00000
     38      -4.4875      2.00000
     39      -4.4727      2.00000
     40      -4.4240      2.00000
     41      -4.4130      2.00000
     42      -4.3909      2.00000
     43      -4.3774      2.00000
     44      -4.3682      2.00000
     45      -4.3642      2.00000
     46      -4.3536      2.00000
     47      -4.2049      2.00000
     48      -4.1749      2.00000
     49      -4.1556      2.00000
     50      -4.1406      2.00000
     51      -4.0949      2.00000
     52      -4.0882      2.00000
     53      -4.0744      2.00000
     54      -4.0657      2.00000
     55      -4.0532      2.00000
     56      -4.0499      2.00000
     57      -4.0208      2.00000
     58      -4.0013      2.00000
     59      -3.9971      2.00000
     60      -3.9865      2.00000
[...]
    238       5.9418      0.00000
    239       6.1850      0.00000
    240       6.2060      0.00000
    241       6.2084      0.00000
    242       6.3255      0.00000
    243       6.3352      0.00000
    244       6.3909      0.00000
    245       6.6521      0.00000
    246       6.6879      0.00000
    247       6.7351      0.00000
    248       6.7476      0.00000
    249       6.9223      0.00000
    250       7.1140      0.00000
    251       7.2014      0.00000
    252       7.3520      0.00000

 soft charge-density along one line, spin component           1
         0         1         2         3         4         5         6         7         8         9
 total charge-density along one line

------------------------ aborting loop because EDIFF is reached ----------------------------------------

 total charge

# of ion       s       p       d       tot
    1        0.449   0.283   9.188   9.921
    2        0.447   0.285   9.187   9.919
    3        0.447   0.285   9.187   9.919
    4        0.447   0.285   9.187   9.919
    5        0.451   0.284   9.185   9.920
    6        0.447   0.285   9.187   9.919
    7        0.447   0.285   9.187   9.919
    8        0.447   0.285   9.187   9.919
    9        0.449   0.284   9.188   9.921
   10        0.441   0.373   9.178   9.991
   11        0.443   0.365   9.181   9.988
   12        0.441   0.373   9.178   9.991
   13        0.443   0.365   9.181   9.988
   14        0.443   0.365   9.181   9.988
   15        0.440   0.372   9.177   9.990
   16        0.441   0.373   9.178   9.991
   17        0.440   0.372   9.177   9.990
   18        0.440   0.372   9.177   9.990
   19        0.442   0.373   9.178   9.993
   20        0.449   0.379   9.172  10.001
   21        0.449   0.379   9.172  10.001
   22        0.433   0.373   9.180   9.986
   23        0.449   0.379   9.172  10.001
   24        0.433   0.373   9.180   9.986
   25        0.442   0.373   9.178   9.993
   26        0.442   0.373   9.178   9.993
   27        0.433   0.373   9.180   9.986
   28        0.445   0.291   9.189   9.925
   29        0.479   0.306   9.175   9.960
   30        0.479   0.306   9.175   9.960
   31        0.479   0.306   9.175   9.960
   32        0.479   0.306   9.175   9.960
   33        0.479   0.306   9.175   9.960
   34        0.479   0.306   9.175   9.960
   35        0.443   0.294   9.188   9.925
   36        0.641   0.563   2.481   3.685
   37        1.008   1.128   0.000   2.135
tot         17.387  13.380 323.789 354.556

  FORCE on cell =-STRESS in cart. coord.  units (eV):
  Direction    XX          YY          ZZ          XY          YZ          ZX
  Alpha Z   782.46220   782.46220   782.46220
  Ewald  218148.20259218148.20229************     0.00034     0.00013     0.00016
  Hartree230615.90879230615.90883************     0.00001     0.00006     0.00005
  E(xc)   -2276.52850 -2276.52804 -2282.88325    -0.00040    -0.00003    -0.00006
  Local  ************************461670.07646     0.01841    -0.00058    -0.00087
  n-local  -752.94812  -741.33473  -762.18421     6.43658    -0.08553     0.27180
  augment  3307.50594  3307.52579  3330.54482    -0.01721     0.00028     0.00050
  Kinetic  3219.00074  3220.95865  3249.68303     3.24403     1.56832    -1.25695
  Fock        0.00000     0.00000     0.00000     0.00000     0.00000     0.00000
  Total      -2.20242    -2.20242    -0.44461     0.00000     0.00000    -0.00000
  in kB      -2.89115    -2.89115    -0.58365     0.00000     0.00000    -0.00000

 VOLUME and BASIS-vectors are now :
  energy-cutoff  :      500.00
  volume of cell :     1220.51
      direct lattice vectors                 reciprocal lattice vectors
     7.696786404  0.000000000  0.000000000     0.129924354 -0.075011849  0.000000000
     3.848392758  6.665612809  0.000000000     0.000000000  0.150023716  0.000000000
     0.000000000  0.000000000 23.789778673     0.000000000  0.000000000  0.042034859

  length of vectors
     7.696786404  7.696786404 23.789778673     0.150023716  0.150023716  0.042034859

 FORCES acting on ions
    electron-ion (+dipol)            ewald-force                    non-local-force                 convergence-correction
   -.422E-04 -.209E-06 0.368E+04   0.582E-04 -.423E-05 -.368E+04   -.130E-17 0.209E-17 -.223E+01   -.222E-03 -.146E-03 -.166E+00
   -.127E+01 -.180E+01 0.368E+04   0.117E+01 0.148E+01 -.367E+04   0.637E-01 0.202E+00 -.200E+01   0.368E-01 0.981E-01 -.146E+00
   0.127E+01 -.180E+01 0.368E+04   -.117E+01 0.148E+01 -.367E+04   -.637E-01 0.202E+00 -.200E+01   -.360E-01 0.101E+00 -.146E+00
   -.219E+01 -.200E+00 0.368E+04   0.187E+01 0.273E+00 -.367E+04   0.207E+00 -.458E-01 -.200E+01   0.103E+00 -.173E-01 -.146E+00
   -.629E-04 -.412E-05 0.367E+04   0.116E-03 -.101E-04 -.367E+04   0.213E-17 0.146E-17 -.149E+01   0.121E-01 0.744E-02 -.175E+00
   0.219E+01 -.200E+00 0.368E+04   -.187E+01 0.273E+00 -.367E+04   -.207E+00 -.458E-01 -.200E+01   -.105E+00 -.160E-01 -.145E+00
   -.922E+00 0.200E+01 0.368E+04   0.700E+00 -.176E+01 -.367E+04   0.143E+00 -.156E+00 -.200E+01   0.692E-01 -.816E-01 -.145E+00
   0.922E+00 0.200E+01 0.368E+04   -.700E+00 -.176E+01 -.367E+04   -.143E+00 -.156E+00 -.200E+01   -.657E-01 -.830E-01 -.145E+00
   -.144E-03 -.330E-04 0.368E+04   0.263E-03 0.204E-04 -.368E+04   0.222E-17 0.122E-17 -.214E+01   -.133E-01 -.683E-02 -.853E-01
   -.128E+02 -.736E+01 0.120E+04   0.128E+02 0.739E+01 -.120E+04   -.105E+00 -.605E-01 -.817E+00   0.664E-01 0.381E-01 0.297E+00
   -.880E-04 -.136E+02 0.118E+04   0.189E-03 0.136E+02 -.118E+04   -.492E-08 0.739E-01 -.480E+00   0.113E-01 -.774E-01 0.322E+00
   0.128E+02 -.736E+01 0.120E+04   -.128E+02 0.739E+01 -.120E+04   0.105E+00 -.605E-01 -.817E+00   -.674E-01 0.397E-01 0.296E+00
   -.118E+02 0.679E+01 0.118E+04   0.118E+02 -.681E+01 -.118E+04   0.640E-01 -.370E-01 -.480E+00   -.609E-01 0.493E-01 0.321E+00
   0.118E+02 0.679E+01 0.118E+04   -.118E+02 -.681E+01 -.118E+04   -.640E-01 -.370E-01 -.480E+00   0.849E-01 0.490E-01 0.321E+00
   -.136E-03 -.719E+00 0.120E+04   0.295E-03 0.628E+00 -.120E+04   -.563E-08 0.845E-01 -.105E+01   -.345E-02 0.857E-02 0.267E+00
   -.916E-04 0.147E+02 0.120E+04   0.187E-03 -.148E+02 -.120E+04   -.806E-08 0.121E+00 -.817E+00   0.846E-04 -.797E-01 0.297E+00
   -.623E+00 0.359E+00 0.120E+04   0.544E+00 -.314E+00 -.120E+04   0.732E-01 -.422E-01 -.105E+01   0.612E-02 -.719E-02 0.267E+00
   0.623E+00 0.359E+00 0.120E+04   -.544E+00 -.314E+00 -.120E+04   -.732E-01 -.422E-01 -.105E+01   -.566E-02 -.490E-02 0.266E+00
   -.736E-04 -.997E+01 -.125E+04   0.742E-04 0.101E+02 0.125E+04   0.401E-08 -.602E-01 0.116E+01   0.105E-02 0.275E-01 0.279E+00
   -.789E+02 -.455E+02 -.140E+04   0.790E+02 0.456E+02 0.139E+04   -.366E+00 -.211E+00 0.803E-01   0.977E-01 0.553E-01 0.380E+00
   0.789E+02 -.455E+02 -.140E+04   -.790E+02 0.456E+02 0.139E+04   0.366E+00 -.211E+00 0.803E-01   -.118E+00 0.573E-01 0.378E+00
   -.384E+02 0.222E+02 -.128E+04   0.381E+02 -.220E+02 0.128E+04   0.214E+00 -.123E+00 0.624E+00   0.853E-01 -.642E-01 0.276E+00
   -.710E-04 0.911E+02 -.140E+04   0.157E-03 -.912E+02 0.139E+04   -.281E-07 0.422E+00 0.803E-01   0.131E-02 -.112E+00 0.378E+00
   0.384E+02 0.222E+02 -.128E+04   -.381E+02 -.220E+02 0.128E+04   -.214E+00 -.123E+00 0.624E+00   -.108E+00 -.621E-01 0.276E+00
   0.864E+01 0.499E+01 -.125E+04   -.870E+01 -.503E+01 0.125E+04   0.522E-01 0.301E-01 0.116E+01   -.210E-01 -.131E-01 0.280E+00
   -.864E+01 0.499E+01 -.125E+04   0.870E+01 -.503E+01 0.125E+04   -.522E-01 0.301E-01 0.116E+01   0.242E-01 -.141E-01 0.280E+00
   -.136E-03 -.444E+02 -.128E+04   0.239E-03 0.440E+02 0.128E+04   -.164E-07 0.247E+00 0.624E+00   -.132E-01 0.107E+00 0.276E+00
   -.294E-04 0.228E-04 -.366E+04   0.504E-04 -.303E-04 0.366E+04   0.400E-17 -.696E-18 0.241E+01   -.105E-02 -.927E-03 0.277E+00
   -.660E+02 -.124E+03 -.365E+04   0.660E+02 0.123E+03 0.365E+04   -.203E+00 -.785E-01 0.155E+01   0.852E-01 0.187E+00 0.255E+00
   0.660E+02 -.124E+03 -.365E+04   -.660E+02 0.123E+03 0.365E+04   0.203E+00 -.785E-01 0.155E+01   -.631E-01 0.189E+00 0.257E+00
   -.140E+03 0.469E+01 -.365E+04   0.140E+03 -.454E+01 0.365E+04   -.170E+00 -.137E+00 0.155E+01   0.205E+00 -.199E-01 0.256E+00
   0.140E+03 0.469E+01 -.365E+04   -.140E+03 -.454E+01 0.365E+04   0.170E+00 -.137E+00 0.155E+01   -.183E+00 -.181E-01 0.256E+00
   -.741E+02 0.119E+03 -.365E+04   0.738E+02 -.119E+03 0.365E+04   0.337E-01 0.215E+00 0.155E+01   0.132E+00 -.149E+00 0.257E+00
   0.741E+02 0.119E+03 -.365E+04   -.738E+02 -.119E+03 0.365E+04   -.337E-01 0.215E+00 0.155E+01   -.107E+00 -.149E+00 0.256E+00
   -.122E-03 -.116E-04 -.368E+04   0.247E-03 -.240E-05 0.367E+04   0.602E-17 0.937E-18 0.266E+01   -.149E-01 -.759E-02 0.216E+00
   -.301E-04 -.826E-05 -.133E+04   0.434E-04 0.109E-04 0.133E+04   0.223E-17 0.864E-18 -.218E+01   -.113E-03 -.103E-03 0.152E+00
   0.496E-04 -.213E-04 -.145E+04   0.588E-05 0.336E-05 0.145E+04   0.101E-17 0.881E-18 -.173E+01   0.382E-03 0.232E-03 -.253E-01
   -.186E-03 -.140E-05 0.246E+01   -.674E-13 -.192E-12 -.134E-10   0.233E-17 0.268E-17 -.887E+01   0.356E-01 0.292E-01 0.631E+01

 POSITION                                       TOTAL-FORCE (eV/Angst)
      0.00000      0.00000      5.37156        -0.000000      0.000000      0.027335
      2.56560      0.00000      5.37156         0.004194     -0.011243      0.050662
      5.13119      0.00000      5.37156        -0.004194     -0.011243      0.050662
      1.28280      2.22187      5.37156        -0.007639      0.009254      0.050662
      3.84839      2.22187      5.37156        -0.000000      0.000000      0.062365
      6.41399      2.22187      5.37156         0.007639      0.009254      0.050662
      2.56560      4.44374      5.37156        -0.011834      0.001989      0.050662
      5.13119      4.44374      5.37156         0.011834      0.001989      0.050662
      7.69679      4.44374      5.37156        -0.000000      0.000000      0.028446
      1.28280      0.74062      7.46636         0.012619      0.007286     -0.077305
      3.84839      0.74062      7.46636        -0.000000      0.035163     -0.031630
      6.41399      0.74062      7.46636        -0.012619      0.007286     -0.077305
      2.56560      2.96249      7.46636         0.030452     -0.017582     -0.031630
      5.13119      2.96249      7.46636        -0.030452     -0.017582     -0.031630
      7.69679      2.96249      7.46636        -0.000000      0.001367     -0.050742
      3.84839      5.18437      7.46636         0.000000     -0.014571     -0.077305
      6.41399      5.18437      7.46636         0.001184     -0.000683     -0.050742
      8.97958      5.18437      7.46636        -0.001184     -0.000683     -0.050742
      7.69679      1.47625      9.53578        -0.000000      0.044999      0.117823
      2.57143      1.48462      9.57247        -0.141463     -0.081674     -0.130100
      5.12535      1.48462      9.57247         0.141463     -0.081674     -0.130100
      8.97869      3.70363      9.55450        -0.009002      0.005197      0.075935
      3.84839      3.69638      9.57247        -0.000000      0.163347     -0.130100
      6.41488      3.70363      9.55450         0.009002      0.005197      0.075935
     10.26671      5.92749      9.53578        -0.038971     -0.022500      0.117823
      5.12686      5.92749      9.53578         0.038971     -0.022500      0.117823
      7.69679      5.92396      9.55450         0.000000     -0.010395      0.075935
      0.00000      0.00000     11.64309        -0.000000      0.000000     -0.077552
      6.39641      6.62889     11.65568        -0.104151     -0.156068      0.081005
      8.99717      6.62889     11.65568         0.104151     -0.156068      0.081005
      8.93899      2.22500     11.65568        -0.187234     -0.012163      0.081005
      6.45458      2.22500     11.65568         0.187234     -0.012163      0.081005
     10.23937      4.47733     11.65568        -0.083083      0.168231      0.081005
      5.15420      4.47733     11.65568         0.083083      0.168231      0.081005
      7.69679      4.44374     11.66757        -0.000000      0.000000     -0.093787
      3.84839      2.22187     11.91603        -0.000000      0.000000     -0.447752
      3.84839      2.22187     13.88898        -0.000000      0.000000     -0.000997
    total drift:                                0.035449      0.029186     -0.094745

  FREE ENERGIE OF THE ION-ELECTRON SYSTEM (eV)
  free  energy   TOTEN  =      -136.14777260 eV

  energy  without entropy=     -136.14777260  energy(sigma->0) =     -136.14777260

 stress matrix after NEB project (eV)
     -2.20242      0.00000     -0.00000
      0.00000     -2.20242      0.00000
     -0.00000      0.00000     -0.44461
  FORCES: max atom, RMS     0.000997    0.000164
  FORCE total and by dimension    0.000997    0.000997
  Stress total and by dimension    3.146263    2.202418
|           W    W    AA    RRRRR   N    N  II  N    N   GGGG   !!!           |
|           W    W   A  A   R    R  NN   N  II  NN   N  G    G  !!!           |
|           W    W  A    A  R    R  N N  N  II  N N  N  G       !!!           |
|           W WW W  AAAAAA  RRRRR   N  N N  II  N  N N  G  GGG   !            |
|           WW  WW  A    A  R   R   N   NN  II  N   NN  G    G                |
|           W    W  A    A  R    R  N    N  II  N    N   GGGG   !!!           |
|     Tetrahedron method does not include variations of the Fermi             |
|     occupations, so forces and stress will be inaccurate. We suggest        |
|     using a different smearing scheme ISMEAR = 1 or 2 for metals in         |
|     relaxations.                                                            |

 total charge

# of ion       s       p       d       tot
    1        0.449   0.283   9.188   9.921
    2        0.447   0.285   9.187   9.919
    3        0.447   0.285   9.187   9.919
    4        0.447   0.285   9.187   9.919
    5        0.451   0.284   9.185   9.920
    6        0.447   0.285   9.187   9.919
    7        0.447   0.285   9.187   9.919
    8        0.447   0.285   9.187   9.919
    9        0.449   0.284   9.188   9.921
   10        0.441   0.373   9.178   9.991
   11        0.443   0.365   9.181   9.988
   12        0.441   0.373   9.178   9.991
   13        0.443   0.365   9.181   9.988
   14        0.443   0.365   9.181   9.988
   15        0.440   0.372   9.177   9.990
   16        0.441   0.373   9.178   9.991
   17        0.440   0.372   9.177   9.990
   18        0.440   0.372   9.177   9.990
   19        0.442   0.373   9.178   9.993
   20        0.449   0.379   9.172  10.001
   21        0.449   0.379   9.172  10.001
   22        0.433   0.373   9.180   9.986
   23        0.449   0.379   9.172  10.001
   24        0.433   0.373   9.180   9.986
   25        0.442   0.373   9.178   9.993
   26        0.442   0.373   9.178   9.993
   27        0.433   0.373   9.180   9.986
   28        0.445   0.291   9.189   9.925
   29        0.479   0.306   9.175   9.960
   30        0.479   0.306   9.175   9.960
   31        0.479   0.306   9.175   9.960
   32        0.479   0.306   9.175   9.960
   33        0.479   0.306   9.175   9.960
   34        0.479   0.306   9.175   9.960
   35        0.443   0.294   9.188   9.925
   36        0.641   0.563   2.481   3.685
   37        1.008   1.128   0.000   2.135
tot         17.387  13.380 323.789 354.556

 BZINTS: Fermi energy:   -0.673721;  393.000000 electrons
         Band energy:-0.139188E+04;  BLOECHL correction:   -0.037928