 vasp.6.2.0 18Jan21 (build Jun 12 2021 23:27:24) complex

 executed on             LinuxIFC date 2022.05.28  02:40:18

 INCAR:
   ISMEAR = -5
   SIGMA = 0.1
   ISPIN = 1
   EDIFF = 1.d-5
   EDIFFG = -0.01
   NSW = 0
   NELM = 150
   ENCUT = 500
   ISIF = 2
   IBRION = 2
   LREAL = Auto
   ALGO = Fast
   ICHARG = 11
   LORBIT = 10
   LCHARG = .F.
   LWAVE = .F.

 POTCAR:    PAW_PBE Cu 22Jun2005
 POTCAR:    PAW_PBE Pd 04Jan2005
 POTCAR:    PAW_PBE H 15Jun2001
 POTCAR:    PAW_PBE O 08Apr2002
|           W    W    AA    RRRRR   N    N  II  N    N   GGGG   !!!           |
|           W    W   A  A   R    R  NN   N  II  NN   N  G    G  !!!           |
|           W    W  A    A  R    R  N N  N  II  N N  N  G       !!!           |
|           W WW W  AAAAAA  RRRRR   N  N N  II  N  N N  G  GGG   !            |
|           WW  WW  A    A  R   R   N   NN  II  N   NN  G    G                |
|           W    W  A    A  R    R  N    N  II  N    N   GGGG   !!!           |
|     For optimal performance we recommend to set                             |
|       NCORE = 2 up to number-of-cores-per-socket                            |
|     This setting can greatly improve the performance of VASP for DFT.       |
|     The default, NCORE=1 might be grossly inefficient on modern             |
|     multi-core architectures or massively parallel machines. Do your        |
|     Unfortunately you need to use the default for GW and RPA                |
|     calculations (for HF NCORE is supported but not extensively tested      |
|     yet).                                                                   |

 POTCAR:    PAW_PBE Cu 22Jun2005
   VRHFIN =Cu: d10 p1

   TITEL  = PAW_PBE Cu 22Jun2005
   POMASS =   63.546; ZVAL   =   11.000    mass and valenz
   ENMAX  =  295.446; ENMIN  =  221.585 eV

 POTCAR:    PAW_PBE Pd 04Jan2005
   VRHFIN =Pd : s1 d9

   TITEL  = PAW_PBE Pd 04Jan2005
   POMASS =  106.420; ZVAL   =   10.000    mass and valenz
   ENMAX  =  250.925; ENMIN  =  188.194 eV

 POTCAR:    PAW_PBE H 15Jun2001
   VRHFIN =H: ultrasoft test

   TITEL  = PAW_PBE H 15Jun2001
   POMASS =    1.000; ZVAL   =    1.000    mass and valenz
   ENMAX  =  250.000; ENMIN  =  200.000 eV

 POTCAR:    PAW_PBE O 08Apr2002
   VRHFIN =O: s2p4

   TITEL  = PAW_PBE O 08Apr2002
   POMASS =   16.000; ZVAL   =    6.000    mass and valenz
   ENMAX  =  400.000; ENMIN  =  300.000 eV

 Optimization of the real space projectors (new method)

 maximal supplied QI-value         = 16.25
 optimisation between [QCUT,QGAM] = [ 11.38, 22.75] = [ 36.24,144.96] Ry
 Optimized for a Real-space Cutoff    1.52 Angstroem

   l    n(q)    QCUT    max X(q) W(low)/X(q) W(high)/X(q)  e(spline)
   2      9    11.376     4.610    0.21E-03    0.10E-03    0.26E-06
   2      9    11.376     8.522    0.33E-03    0.16E-03    0.37E-06
   0     10    11.376    51.609    0.62E-04    0.20E-04    0.13E-06
   0     10    11.376    27.747    0.54E-04    0.20E-04    0.13E-06
   1     10    11.376    20.408    0.13E-04    0.99E-04    0.19E-06
   1     10    11.376    13.425    0.12E-04    0.87E-04    0.17E-06
 Optimization of the real space projectors (new method)

[...]

   l    n(q)    QCUT    max X(q) W(low)/X(q) W(high)/X(q)  e(spline)
   0      8    11.287    19.460    0.40E-03    0.73E-03    0.16E-06
   0      8    11.287    12.209    0.38E-03    0.70E-03    0.15E-06
   1      7    11.287     4.655    0.22E-03    0.25E-04    0.22E-06
 Optimization of the real space projectors (new method)

 maximal supplied QI-value         = 24.76
 optimisation between [QCUT,QGAM] = [ 11.39, 22.77] = [ 36.31,145.25] Ry
 Optimized for a Real-space Cutoff    1.00 Angstroem

   l    n(q)    QCUT    max X(q) W(low)/X(q) W(high)/X(q)  e(spline)
   0      7    11.387    20.381    0.39E-03    0.13E-02    0.15E-06
   0      7    11.387    15.268    0.42E-03    0.14E-02    0.17E-06
   1      6    11.387     5.964    0.41E-03    0.11E-02    0.17E-06
   1      6    11.387     5.382    0.39E-03    0.87E-03    0.15E-06
  PAW_PBE Cu 22Jun2005                  :
  PAW_PBE Pd 04Jan2005                  :
  PAW_PBE H 15Jun2001                   :
  PAW_PBE O 08Apr2002                   :

 POSCAR: Cu-Pd-H2O
  positions in direct lattice
  velocities in cartesian coordinates
 exchange correlation table for  LEXCH =        8
   RHO(1)=    0.500       N(1)  =     2000
   RHO(2)=  100.500       N(2)  =     4000

 VTST: version 3.2, (02/03/18)

 CHAIN: initializing optimizer

 OPT: Using VASP Conjugate-Gradient optimizer
 CHAIN: Read ICHAIN            0

 POSCAR: Cu-Pd-H2O
  positions in direct lattice
  velocities in cartesian coordinates

 ion  position               nearest neighbor table
   1  0.000  0.000  0.221-   7 2.57   3 2.57   4 2.57   2 2.57   6 2.57   8 2.57  12 2.57  10 2.57
                            16 2.57
   2  0.333  0.000  0.221-   8 2.57   9 2.57   5 2.57   1 2.57   3 2.57  11 2.57   4 2.57  10 2.57
                            17 2.57
   3  0.667  0.000  0.221-   1 2.57   7 2.57   6 2.57   9 2.57   2 2.57  12 2.57   5 2.57  18 2.57
                            11 2.57
   4  0.000  0.333  0.221-   5 2.57   6 2.57   1 2.57   7 2.57   2 2.57  13 2.57   9 2.57  10 2.57
                            15 2.57
   5  0.333  0.333  0.221-   4 2.57   2 2.57   7 2.57  13 2.57   8 2.57   6 2.57   3 2.57  11 2.57
                            14 2.57
   6  0.667  0.333  0.221-   4 2.57   9 2.57  15 2.57   3 2.57   1 2.57   8 2.57  14 2.57   5 2.57
                            12 2.57
   7  0.000  0.667  0.221-   1 2.57   3 2.57  16 2.57  18 2.57   4 2.57   5 2.57   8 2.57   9 2.57
                            13 2.57
   8  0.333  0.667  0.221-   9 2.57   2 2.57  17 2.57   6 2.57   1 2.57   7 2.57   5 2.57  14 2.57
                            16 2.57
   9  0.667  0.667  0.221-   8 2.57   6 2.57   2 2.57  17 2.57   3 2.57   7 2.57   4 2.57  15 2.57
                            18 2.57
  10  0.111  0.111  0.308-  20 2.54  26 2.55  19 2.55  11 2.57  12 2.57  13 2.57   1 2.57   2 2.57
                             4 2.57  15 2.57  16 2.57  17 2.57
  11  0.444  0.111  0.308-  20 2.55  21 2.55  27 2.55  10 2.57  13 2.57   2 2.57  17 2.57  14 2.57
                            12 2.57   5 2.57   3 2.57  18 2.57
  12  0.778  0.111  0.308-  21 2.54  19 2.55  25 2.55  15 2.57  10 2.57  14 2.57  18 2.57   3 2.57
                             1 2.57  16 2.57  11 2.57   6 2.57
  13  0.111  0.444  0.308-  23 2.55  20 2.55  22 2.55  16 2.57  18 2.57  10 2.57  11 2.57  14 2.57
                             5 2.57   4 2.57   7 2.57  15 2.57
  14  0.444  0.444  0.308-  21 2.55  23 2.55  24 2.55  15 2.57  17 2.57  12 2.57  16 2.57  13 2.57
                            11 2.57   6 2.57   8 2.57   5 2.57
  15  0.778  0.444  0.308-  19 2.55  24 2.55  22 2.55  14 2.57  17 2.57  12 2.57   6 2.57  18 2.57
                            10 2.57   9 2.57  13 2.57   4 2.57
  16  0.111  0.778  0.308-  23 2.54  25 2.55  26 2.55  18 2.57  13 2.57   7 2.57  14 2.57  17 2.57
                            12 2.57  10 2.57   8 2.57   1 2.57
  17  0.444  0.778  0.308-  26 2.55  27 2.55  24 2.55  14 2.57  15 2.57   8 2.57   9 2.57  11 2.57
                            16 2.57  18 2.57  10 2.57   2 2.57
  18  0.778  0.778  0.308-  25 2.55  22 2.55  27 2.55  16 2.57  13 2.57   7 2.57  15 2.57  12 2.57
                            17 2.57   9 2.57   3 2.57  11 2.57
  19  0.889  0.222  0.393-  32 2.54  31 2.54  28 2.55  15 2.55  12 2.55  10 2.55  21 2.56  20 2.56
                            22 2.56  24 2.56  25 2.57  26 2.57
  20  0.222  0.222  0.393-  10 2.54  11 2.55  13 2.55  26 2.56  19 2.56  27 2.56  22 2.56  29 2.57
                            31 2.57  23 2.58  21 2.58  36 2.62
  21  0.557  0.222  0.393-  12 2.54  14 2.55  11 2.55  19 2.56  25 2.56  24 2.56  27 2.56  32 2.57
                            30 2.57  20 2.58  23 2.58  36 2.62
  22  0.889  0.555  0.393-  35 2.54  31 2.55  33 2.55  13 2.55  18 2.55  15 2.55  23 2.56  20 2.56
                            19 2.56  25 2.56  24 2.57  27 2.57
  23  0.222  0.557  0.393-  16 2.54  13 2.55  14 2.55  25 2.56  26 2.56  22 2.56  24 2.56  33 2.57
                            34 2.57  20 2.58  21 2.58  36 2.62
  24  0.555  0.555  0.393-  35 2.54  32 2.55  34 2.55  14 2.55  15 2.55  17 2.55  21 2.56  23 2.56
                            19 2.56  26 2.56  22 2.57  27 2.57
  25  0.889  0.889  0.393-  33 2.54  30 2.54  28 2.55  18 2.55  16 2.55  12 2.55  21 2.56  23 2.56
                            22 2.56  27 2.56  19 2.57  26 2.57
  26  0.222  0.889  0.393-  29 2.54  34 2.54  28 2.55  17 2.55  10 2.55  16 2.55  20 2.56  23 2.56
                            27 2.56  24 2.56  25 2.57  19 2.57
  27  0.555  0.889  0.393-  35 2.54  29 2.55  30 2.55  11 2.55  17 2.55  18 2.55  20 2.56  21 2.56
                            26 2.56  25 2.56  24 2.57  22 2.57
  28  0.000  0.000  0.478-  25 2.55  19 2.55  26 2.55  33 2.55  30 2.55  31 2.55  29 2.55  32 2.55
                            34 2.55
  29  0.333  0.996  0.479-  34 2.51  26 2.54  28 2.55  27 2.55  35 2.55  20 2.57  31 2.59  36 2.60
                            30 2.60
  30  0.671  0.996  0.479-  33 2.51  25 2.54  28 2.55  27 2.55  35 2.55  21 2.57  32 2.59  36 2.60
                            29 2.60
  31  0.996  0.333  0.479-  32 2.51  19 2.54  28 2.55  22 2.55  35 2.55  20 2.57  29 2.59  36 2.60
                            33 2.60
  32  0.671  0.333  0.479-  31 2.51  19 2.54  28 2.55  24 2.55  35 2.55  21 2.57  30 2.59  36 2.60
                            34 2.60
  33  0.996  0.671  0.479-  30 2.51  25 2.54  28 2.55  22 2.55  35 2.55  23 2.57  34 2.59  36 2.60
                            31 2.60
  34  0.333  0.671  0.479-  29 2.51  26 2.54  28 2.55  24 2.55  35 2.55  23 2.57  33 2.59  36 2.60
                            32 2.60
  35  0.667  0.667  0.478-  24 2.54  27 2.54  22 2.54  34 2.55  32 2.55  29 2.55  30 2.55  33 2.55
                            31 2.55
  36  0.333  0.333  0.482-  39 2.59  31 2.60  29 2.60  33 2.60  34 2.60  32 2.60  30 2.60  23 2.62
                            20 2.62  21 2.62
  37  0.232  0.334  0.612-  39 0.97
  38  0.435  0.334  0.612-  39 0.97
  39  0.334  0.333  0.589-  37 0.97  38 0.97  36 2.59

  LATTYP: Found a hexagonal cell.
 ALAT       =     7.6967864036
 C/A-ratio  =     3.1535378041

  Lattice vectors:

 A1 = (  -3.8483927580,  -6.6656128093,   0.0000000000)
 A2 = (   7.6967864037,   0.0000000000,   0.0000000000)
 A3 = (   0.0000000000,   0.0000000000,  24.2721068937)

Analysis of symmetry for initial positions (statically):
 Subroutine PRICEL returns:
 Original cell was already a primitive cell.

 Routine SETGRP: Setting up the symmetry group for a
 hexagonal supercell.

 Subroutine GETGRP returns: Found  1 space group operations
 (whereof  1 operations were pure point group operations)
 out of a pool of 24 trial point group operations.

The static configuration has the point symmetry C_1 .

Analysis of symmetry for dynamics (positions and initial velocities):
 Subroutine PRICEL returns:
 Original cell was already a primitive cell.

[...]

The dynamic configuration has the point symmetry C_1 .

Analysis of constrained symmetry for selective dynamics:
 Subroutine PRICEL returns:
[...]
     41      -3.7684      2.00000
     42      -3.7646      2.00000
     43      -3.6937      2.00000
     44      -3.6902      2.00000
     45      -3.6816      2.00000
     46      -3.6669      2.00000
     47      -3.6508      2.00000
     48      -3.6423      2.00000
     49      -3.6336      2.00000
     50      -3.4481      2.00000
     51      -3.4414      2.00000
     52      -3.4297      2.00000
     53      -3.4205      2.00000
     54      -3.3635      2.00000
     55      -3.3595      2.00000
     56      -3.3415      2.00000
     57      -3.3369      2.00000
     58      -3.3328      2.00000
     59      -3.3162      2.00000
     60      -3.2846      2.00000
[...]
    238       5.7123      0.00000
    239       5.8754      0.00000
    240       5.9200      0.00000
    241       5.9565      0.00000
    242       6.0582      0.00000
    243       6.0658      0.00000
    244       6.2745      0.00000
    245       6.3621      0.00000
    246       6.3707      0.00000
    247       6.5485      0.00000
    248       6.7111      0.00000
    249       7.1527      0.00000
    250       7.2437      0.00000
    251       7.4397      0.00000
    252       7.5500      0.00000

 soft charge-density along one line, spin component           1
         0         1         2         3         4         5         6         7         8         9
 total charge-density along one line

------------------------ aborting loop because EDIFF is reached ----------------------------------------

 total charge

# of ion       s       p       d       tot
    1        0.446   0.287   9.187   9.920
    2        0.450   0.284   9.189   9.923
    3        0.450   0.284   9.189   9.923
    4        0.450   0.284   9.188   9.922
    5        0.445   0.287   9.187   9.919
    6        0.450   0.284   9.188   9.922
    7        0.450   0.284   9.188   9.922
    8        0.450   0.284   9.188   9.922
    9        0.447   0.284   9.187   9.918
   10        0.441   0.375   9.178   9.994
   11        0.443   0.369   9.181   9.994
   12        0.441   0.375   9.177   9.994
   13        0.443   0.369   9.181   9.994
   14        0.443   0.369   9.181   9.993
   15        0.439   0.371   9.181   9.991
   16        0.441   0.375   9.178   9.993
   17        0.439   0.372   9.181   9.991
   18        0.439   0.372   9.181   9.991
   19        0.445   0.376   9.184  10.006
   20        0.438   0.375   9.181   9.995
   21        0.438   0.375   9.181   9.995
   22        0.441   0.375   9.180   9.996
   23        0.438   0.375   9.181   9.995
   24        0.441   0.375   9.180   9.996
   25        0.445   0.376   9.184  10.005
   26        0.445   0.376   9.184  10.005
   27        0.441   0.375   9.180   9.996
   28        0.454   0.294   9.191   9.940
   29        0.452   0.293   9.194   9.939
   30        0.452   0.293   9.194   9.939
   31        0.454   0.295   9.193   9.941
   32        0.454   0.295   9.193   9.941
   33        0.452   0.293   9.194   9.939
   34        0.452   0.293   9.194   9.939
   35        0.451   0.297   9.191   9.939
   36        0.483   0.395   8.557   9.435
   37        0.619   0.120   0.000   0.739
   38        0.619   0.120   0.000   0.739
   39        1.564   3.610   0.000   5.173
tot         18.888  15.883 330.047 364.819

  FORCE on cell =-STRESS in cart. coord.  units (eV):
  Direction    XX          YY          ZZ          XY          YZ          ZX
  Alpha Z   783.23491   783.23491   783.23491
  Ewald  233695.51554233571.78950************    -0.10065     0.71825     0.03190
  Hartree246735.14795246712.77931************    -0.02053     0.15387     0.00308
  E(xc)   -2335.81894 -2336.34681 -2340.37278    -0.00046     0.00311     0.00025
  Local  ************************493639.14858     0.11740    -0.64237    -0.02858
  n-local  -785.85501  -786.52590  -804.89032     0.00623     0.00526    -0.00075
  augment  3387.86187  3390.37489  3405.33362    -0.01774    -0.01339    -0.00043
  Kinetic  3400.86673  3436.04638  3439.66484     0.02948    -0.20713    -0.01055
  Fock        0.00000     0.00000     0.00000     0.00000     0.00000     0.00000
  Total       1.68619     1.53227     6.97596     0.01374     0.01759    -0.00510
  in kB       2.16950     1.97147     8.97548     0.01768     0.02263    -0.00656

 VOLUME and BASIS-vectors are now :
  energy-cutoff  :      500.00
  volume of cell :     1245.25
      direct lattice vectors                 reciprocal lattice vectors
     7.696786404  0.000000000  0.000000000     0.129924354 -0.075011849  0.000000000
     3.848392758  6.665612809  0.000000000     0.000000000  0.150023716  0.000000000
     0.000000000  0.000000000 24.272106894     0.000000000  0.000000000  0.041199555

  length of vectors
     7.696786404  7.696786404 24.272106894     0.150023716  0.150023716  0.041199555

 FORCES acting on ions
    electron-ion (+dipol)            ewald-force                    non-local-force                 convergence-correction
   0.174E-02 0.261E-01 0.380E+04   0.956E-04 -.191E-02 -.380E+04   0.954E-04 0.356E-02 -.244E+01   -.192E-02 -.264E-01 -.133E+01
   -.361E+00 0.114E+00 0.380E+04   0.378E+00 0.248E+00 -.379E+04   -.195E-01 -.120E+00 -.198E+01   0.106E-02 -.233E+00 -.100E+01
   0.360E+00 0.101E+00 0.380E+04   -.378E+00 0.248E+00 -.379E+04   0.189E-01 -.121E+00 -.198E+01   0.136E-02 -.219E+00 -.998E+00
   -.995E-01 -.362E+00 0.380E+04   0.405E+00 0.203E+00 -.379E+04   -.122E+00 0.379E-01 -.196E+01   -.178E+00 0.117E+00 -.101E+01
   -.169E-01 -.360E-01 0.380E+04   0.462E-04 0.341E-03 -.379E+04   -.873E-02 -.735E-02 -.222E+01   0.259E-01 0.428E-01 -.837E+00
   0.111E+00 -.368E+00 0.380E+04   -.405E+00 0.203E+00 -.379E+04   0.123E+00 0.373E-01 -.196E+01   0.166E+00 0.123E+00 -.100E+01
   0.222E+00 0.263E+00 0.380E+04   0.271E-01 -.450E+00 -.379E+04   -.892E-01 0.813E-01 -.198E+01   -.153E+00 0.103E+00 -.100E+01
   -.234E+00 0.271E+00 0.380E+04   -.274E-01 -.450E+00 -.379E+04   0.873E-01 0.820E-01 -.198E+01   0.167E+00 0.940E-01 -.999E+00
   0.166E-01 -.111E-01 0.380E+04   0.295E-03 0.158E-02 -.379E+04   0.958E-02 0.679E-02 -.224E+01   -.268E-01 0.713E-03 -.105E+01
   -.222E+01 -.126E+01 0.132E+04   0.225E+01 0.129E+01 -.132E+04   -.764E-01 -.454E-01 -.769E+00   0.811E-01 0.371E-01 -.528E+00
   -.120E-01 -.302E+01 0.131E+04   -.214E-03 0.297E+01 -.131E+04   -.829E-02 -.573E-01 -.882E+00   0.209E-01 0.850E-01 -.329E+00
   0.222E+01 -.127E+01 0.132E+04   -.225E+01 0.129E+01 -.132E+04   0.770E-01 -.464E-01 -.769E+00   -.897E-01 0.505E-01 -.530E+00
   -.265E+01 0.149E+01 0.131E+04   0.259E+01 -.148E+01 -.131E+04   -.510E-01 0.197E-01 -.884E+00   0.941E-01 -.163E-01 -.343E+00
   0.262E+01 0.149E+01 0.131E+04   -.259E+01 -.148E+01 -.131E+04   0.331E-01 0.200E-01 -.884E+00   -.492E-01 -.170E-01 -.343E+00
   0.153E-01 -.164E+01 0.132E+04   0.757E-03 0.145E+01 -.132E+04   0.221E-02 0.409E-01 -.556E+00   -.182E-01 0.150E+00 -.602E+00
   -.586E-02 0.257E+01 0.132E+04   0.120E-03 -.260E+01 -.132E+04   0.110E-03 0.905E-01 -.779E+00   0.562E-02 -.111E+00 -.530E+00
   -.139E+01 0.822E+00 0.132E+04   0.125E+01 -.718E+00 -.132E+04   0.329E-01 -.176E-01 -.598E+00   0.114E+00 -.872E-01 -.598E+00
   0.140E+01 0.809E+00 0.132E+04   -.125E+01 -.719E+00 -.132E+04   -.336E-01 -.190E-01 -.597E+00   -.120E+00 -.728E-01 -.601E+00
   -.207E-02 -.138E+01 -.117E+04   0.331E-02 0.127E+01 0.117E+04   -.773E-02 -.295E-01 0.547E+00   0.699E-02 0.137E+00 0.262E+00
   -.255E+02 -.147E+02 -.120E+04   0.252E+02 0.145E+02 0.120E+04   -.789E-02 -.995E-02 0.185E+00   0.313E+00 0.186E+00 0.209E+00
   0.255E+02 -.147E+02 -.120E+04   -.252E+02 0.145E+02 0.120E+04   -.915E-02 -.112E-01 0.185E+00   -.279E+00 0.201E+00 0.206E+00
   -.112E+02 0.633E+01 -.118E+04   0.107E+02 -.609E+01 0.118E+04   0.288E+00 -.143E+00 0.788E+00   0.150E+00 -.966E-01 0.223E+00
   -.157E-01 0.294E+02 -.120E+04   -.256E-02 -.290E+02 0.120E+04   -.868E-02 -.454E-03 0.175E+00   0.274E-01 -.337E+00 0.199E+00
   0.112E+02 0.633E+01 -.118E+04   -.107E+02 -.609E+01 0.118E+04   -.286E+00 -.143E+00 0.788E+00   -.166E+00 -.946E-01 0.223E+00
   0.123E+01 0.775E+00 -.117E+04   -.114E+01 -.714E+00 0.117E+04   -.371E-03 -.374E-02 0.591E+00   -.768E-01 -.549E-01 0.245E+00
   -.125E+01 0.784E+00 -.117E+04   0.114E+01 -.711E+00 0.117E+04   -.170E-01 -.289E-02 0.590E+00   0.114E+00 -.675E-01 0.247E+00
   0.105E-01 -.128E+02 -.118E+04   -.576E-03 0.123E+02 0.118E+04   0.158E-02 0.312E+00 0.786E+00   -.114E-01 0.169E+00 0.214E+00
   -.118E-01 0.571E+00 -.367E+04   0.937E-02 -.575E+00 0.367E+04   0.133E-03 0.121E-01 0.186E+01   0.237E-02 -.174E-02 0.127E+01
   -.118E+02 -.180E+02 -.365E+04   0.117E+02 0.176E+02 0.365E+04   0.807E-01 0.327E+00 0.215E+01   -.231E-02 -.218E-02 0.998E+00
   0.118E+02 -.180E+02 -.365E+04   -.117E+02 0.176E+02 0.365E+04   -.816E-01 0.326E+00 0.215E+01   0.639E-03 0.114E-01 0.100E+01
   -.216E+02 -.906E+00 -.365E+04   0.213E+02 0.103E+01 0.365E+04   0.224E+00 -.116E+00 0.192E+01   -.751E-02 0.192E-02 0.102E+01
   0.216E+02 -.916E+00 -.365E+04   -.213E+02 0.103E+01 0.365E+04   -.225E+00 -.116E+00 0.192E+01   -.183E-02 0.109E-01 0.102E+01
   -.105E+02 0.189E+02 -.365E+04   0.101E+02 -.187E+02 0.365E+04   0.279E+00 -.206E+00 0.215E+01   0.153E-01 -.600E-02 0.100E+01
   0.105E+02 0.189E+02 -.365E+04   -.101E+02 -.187E+02 0.365E+04   -.281E+00 -.206E+00 0.215E+01   -.428E-03 -.103E-01 0.997E+00
   0.101E-01 -.474E+00 -.367E+04   0.782E-02 0.495E+00 0.367E+04   0.967E-02 -.835E-02 0.209E+01   -.281E-01 -.188E-01 0.117E+01
   0.261E-01 -.209E+00 -.327E+04   -.384E-01 0.201E+00 0.327E+04   0.928E-03 -.162E-02 0.387E+01   0.118E-01 0.960E-02 0.670E+00
   0.713E+02 -.640E+00 -.381E+03   -.782E+02 0.704E+00 0.386E+03   0.687E+01 -.610E-01 -.473E+01   0.362E-02 -.184E-03 0.760E-02
   -.712E+02 -.524E+00 -.381E+03   0.781E+02 0.577E+00 0.386E+03   -.686E+01 -.499E-01 -.473E+01   -.355E-02 -.113E-03 0.774E-02
   -.429E-01 0.699E+00 -.212E+04   0.775E-01 -.130E+01 0.207E+04   -.323E-01 0.596E+00 0.445E+02   -.346E-02 -.133E-02 0.366E-01
   -.157E-01 -.499E+00 -.320E+02   0.283E-13 -.268E-12 -.227E-11   -.898E-01 0.450E+00 0.345E+02   0.105E+00 0.557E-01 -.241E+01

 POSITION                                       TOTAL-FORCE (eV/Angst)
      0.00000      0.00000      5.37156         0.000030      0.001287      0.124362
      2.56560      0.00000      5.37156        -0.002138      0.008543      0.078128
      5.13119      0.00000      5.37156         0.002159      0.008446      0.078099
      1.28280      2.22187      5.37156         0.005255     -0.004896      0.079262
      3.84839      2.22187      5.37156         0.000373     -0.000350      0.061128
      6.41399      2.22187      5.37156        -0.005094     -0.004970      0.079262
      2.56560      4.44374      5.37156         0.006480     -0.003319      0.078649
      5.13119      4.44374      5.37156        -0.006488     -0.003217      0.078686
      7.69679      4.44374      5.37156        -0.000346     -0.002174      0.076078
      1.28280      0.74062      7.46636         0.042417      0.022960     -0.102400
      3.84839      0.74062      7.46636         0.000460     -0.023856     -0.130542
      6.41399      0.74062      7.46636        -0.042234      0.022889     -0.102442
      2.56560      2.96249      7.46636        -0.019292      0.011823     -0.130126
      5.13119      2.96249      7.46636         0.020374      0.011881     -0.130141
      7.69679      2.96249      7.46636         0.000097      0.004121     -0.060122
      3.84839      5.18437      7.46636         0.000012     -0.047749     -0.102831
      6.41399      5.18437      7.46636         0.002907     -0.001370     -0.063601
      8.97958      5.18437      7.46636        -0.002807     -0.001496     -0.063588
      7.69679      1.48223      9.53996         0.000524     -0.004846     -0.013795
      2.55948      1.47772      9.53985         0.019348      0.012446      0.013886
      5.13731      1.47772      9.53985        -0.018221      0.012384      0.013801
      8.98047      3.70261      9.54732        -0.005667      0.003105      0.007289
      3.84839      3.71018      9.53985         0.000463     -0.022850      0.012975
      6.41310      3.70261      9.54732         0.005715      0.003014      0.007339
     10.26153      5.92450      9.53996         0.005913      0.002267     -0.004496
      5.13204      5.92450      9.53996        -0.004919      0.002296     -0.004502
      7.69679      5.92601      9.54732         0.000081     -0.008135      0.011027
      0.00000      0.00000     11.61018         0.000060      0.006314      0.003603
      6.39795      6.64100     11.62214        -0.029211     -0.049583     -0.018224
      8.99562      6.64100     11.62214         0.029183     -0.049673     -0.018284
      8.95025      2.22029     11.62214        -0.064795      0.006098     -0.028937
      6.44333      2.22029     11.62214         0.065037      0.006068     -0.029019
     10.24908      4.46994     11.62214        -0.041015      0.043328     -0.019014
      5.14449      4.46994     11.62214         0.041070      0.043490     -0.018965
      7.69679      4.44374     11.61116        -0.000407     -0.006962      0.010463
      3.84839      2.22187     11.69545         0.000454      0.000013      0.242535
      3.06729      2.22433     14.86296         0.002742      0.002785     -0.001044
      4.63080      2.22306     14.86386        -0.007408      0.002359     -0.004966
      3.84930      2.21682     14.28490        -0.001112     -0.002473     -0.009535
    total drift:                               -0.000871      0.005956      0.045358

  FREE ENERGIE OF THE ION-ELECTRON SYSTEM (eV)
  free  energy   TOTEN  =      -142.12174772 eV

  energy  without entropy=     -142.12174772  energy(sigma->0) =     -142.12174772

 stress matrix after NEB project (eV)
      1.68619      0.01374     -0.00510
      0.01374      1.53227      0.01759
     -0.00510      0.01759      6.97596
  FORCES: max atom, RMS     0.009913    0.002263
  FORCE total and by dimension    0.014133    0.009535
  Stress total and by dimension    7.338674    6.975959
|           W    W    AA    RRRRR   N    N  II  N    N   GGGG   !!!           |
|           W    W   A  A   R    R  NN   N  II  NN   N  G    G  !!!           |
|           W    W  A    A  R    R  N N  N  II  N N  N  G       !!!           |
|           W WW W  AAAAAA  RRRRR   N  N N  II  N  N N  G  GGG   !            |
|           WW  WW  A    A  R   R   N   NN  II  N   NN  G    G                |
|           W    W  A    A  R    R  N    N  II  N    N   GGGG   !!!           |
|     Tetrahedron method does not include variations of the Fermi             |
|     occupations, so forces and stress will be inaccurate. We suggest        |
|     using a different smearing scheme ISMEAR = 1 or 2 for metals in         |
|     relaxations.                                                            |

 total charge

# of ion       s       p       d       tot
    1        0.446   0.287   9.187   9.920
    2        0.450   0.284   9.189   9.923
    3        0.450   0.284   9.189   9.923
    4        0.450   0.284   9.188   9.922
    5        0.445   0.287   9.187   9.919
    6        0.450   0.284   9.188   9.922
    7        0.450   0.284   9.188   9.922
    8        0.450   0.284   9.188   9.922
    9        0.447   0.284   9.187   9.918
   10        0.441   0.375   9.178   9.994
   11        0.443   0.369   9.181   9.994
   12        0.441   0.375   9.177   9.994
   13        0.443   0.369   9.181   9.994
   14        0.443   0.369   9.181   9.993
   15        0.439   0.371   9.181   9.991
   16        0.441   0.375   9.178   9.993
   17        0.439   0.372   9.181   9.991
   18        0.439   0.372   9.181   9.991
   19        0.445   0.376   9.184  10.006
   20        0.438   0.375   9.181   9.995
   21        0.438   0.375   9.181   9.995
   22        0.441   0.375   9.180   9.996
   23        0.438   0.375   9.181   9.995
   24        0.441   0.375   9.180   9.996
   25        0.445   0.376   9.184  10.005
   26        0.445   0.376   9.184  10.005
   27        0.441   0.375   9.180   9.996
   28        0.454   0.294   9.191   9.940
   29        0.452   0.293   9.194   9.939
   30        0.452   0.293   9.194   9.939
   31        0.454   0.295   9.193   9.941
   32        0.454   0.295   9.193   9.941
   33        0.452   0.293   9.194   9.939
   34        0.452   0.293   9.194   9.939
   35        0.451   0.297   9.191   9.939
   36        0.483   0.395   8.557   9.435
   37        0.619   0.120   0.000   0.739
   38        0.619   0.120   0.000   0.739
   39        1.564   3.610   0.000   5.173
tot         18.888  15.883 330.047 364.819

 BZINTS: Fermi energy:   -0.025819;  403.000000 electrons
         Band energy:-0.117997E+04;  BLOECHL correction:   -0.065183