 vasp.6.2.0 18Jan21 (build Jun 12 2021 23:27:24) complex

 executed on             LinuxIFC date 2022.05.27  05:38:09

 INCAR:
   ISMEAR = -5
   SIGMA = 0.1
   ISPIN = 1
   EDIFF = 1.d-5
   EDIFFG = -0.01
   NSW = 0
   NELM = 150
   ENCUT = 500
   ISIF = 2
   IBRION = 2
   LREAL = Auto
   ALGO = Fast
   ICHARG = 11
   LORBIT = 10
   LCHARG = .F.
   LWAVE = .F.

 POTCAR:    PAW_PBE Ag 02Apr2005
 POTCAR:    PAW_PBE Zr_sv 04Jan2005
 POTCAR:    PAW_PBE C 08Apr2002
 POTCAR:    PAW_PBE O 08Apr2002
|           W    W    AA    RRRRR   N    N  II  N    N   GGGG   !!!           |
|           W    W   A  A   R    R  NN   N  II  NN   N  G    G  !!!           |
|           W    W  A    A  R    R  N N  N  II  N N  N  G       !!!           |
|           W WW W  AAAAAA  RRRRR   N  N N  II  N  N N  G  GGG   !            |
|           WW  WW  A    A  R   R   N   NN  II  N   NN  G    G                |
|           W    W  A    A  R    R  N    N  II  N    N   GGGG   !!!           |
|     For optimal performance we recommend to set                             |
|       NCORE = 2 up to number-of-cores-per-socket                            |
|     This setting can greatly improve the performance of VASP for DFT.       |
|     The default, NCORE=1 might be grossly inefficient on modern             |
|     multi-core architectures or massively parallel machines. Do your        |
|     Unfortunately you need to use the default for GW and RPA                |
|     calculations (for HF NCORE is supported but not extensively tested      |
|     yet).                                                                   |

 POTCAR:    PAW_PBE Ag 02Apr2005
   VRHFIN =Ag : s1 d10

   TITEL  = PAW_PBE Ag 02Apr2005
   POMASS =  107.868; ZVAL   =   11.000    mass and valenz
   ENMAX  =  249.844; ENMIN  =  187.383 eV

 POTCAR:    PAW_PBE Zr_sv 04Jan2005
   VRHFIN =Zr: 4s4p5s4d

   TITEL  = PAW_PBE Zr_sv 04Jan2005
   POMASS =   91.224; ZVAL   =   12.000    mass and valenz
   ENMAX  =  229.898; ENMIN  =  172.424 eV

 POTCAR:    PAW_PBE C 08Apr2002
   VRHFIN =C: s2p2

[...]

 POTCAR:    PAW_PBE O 08Apr2002
   VRHFIN =O: s2p4

   TITEL  = PAW_PBE O 08Apr2002
   POMASS =   16.000; ZVAL   =    6.000    mass and valenz
   ENMAX  =  400.000; ENMIN  =  300.000 eV

 Optimization of the real space projectors (new method)

 maximal supplied QI-value         = 15.12
 optimisation between [QCUT,QGAM] = [ 11.34, 22.83] = [ 36.00,145.93] Ry
 Optimized for a Real-space Cutoff    1.43 Angstroem

   l    n(q)    QCUT    max X(q) W(low)/X(q) W(high)/X(q)  e(spline)
   2      9    11.338    53.897    0.16E-03    0.20E-03    0.28E-06
   2      9    11.338    52.416    0.16E-03    0.20E-03    0.29E-06
   0     10    11.338   122.045    0.31E-04    0.76E-04    0.15E-06
   0     10    11.338    73.629    0.30E-04    0.72E-04    0.15E-06
   1      9    11.338    15.255    0.20E-03    0.19E-04    0.17E-06
   1      9    11.338     9.562    0.16E-03    0.15E-04    0.14E-06
 Optimization of the real space projectors (new method)

[...]

   l    n(q)    QCUT    max X(q) W(low)/X(q) W(high)/X(q)  e(spline)
   0      7    11.310   115.676    0.43E-03    0.13E-02    0.19E-06
   0      7    11.310    87.132    0.43E-03    0.13E-02    0.18E-06
   1      6    11.310     4.429    0.42E-03    0.74E-03    0.11E-06
   1      6    11.310     2.733    0.34E-03    0.55E-03    0.92E-07
 Optimization of the real space projectors (new method)

 maximal supplied QI-value         = 24.76
 optimisation between [QCUT,QGAM] = [ 11.39, 22.77] = [ 36.31,145.25] Ry
 Optimized for a Real-space Cutoff    1.00 Angstroem

   l    n(q)    QCUT    max X(q) W(low)/X(q) W(high)/X(q)  e(spline)
   0      7    11.387    20.381    0.39E-03    0.13E-02    0.15E-06
   0      7    11.387    15.268    0.42E-03    0.14E-02    0.17E-06
   1      6    11.387     5.964    0.41E-03    0.11E-02    0.17E-06
   1      6    11.387     5.382    0.39E-03    0.87E-03    0.15E-06
  PAW_PBE Ag 02Apr2005                  :
  PAW_PBE Zr_sv 04Jan2005               :
  PAW_PBE C 08Apr2002                   :
  PAW_PBE O 08Apr2002                   :

 POSCAR: Ag-Zr-CO
  positions in direct lattice
  velocities in cartesian coordinates
 exchange correlation table for  LEXCH =        8
   RHO(1)=    0.500       N(1)  =     2000
   RHO(2)=  100.500       N(2)  =     4000

 VTST: version 3.2, (02/03/18)

 CHAIN: initializing optimizer

 OPT: Using VASP Conjugate-Gradient optimizer
 CHAIN: Read ICHAIN            0

 POSCAR: Ag-Zr-CO
  positions in direct lattice
  velocities in cartesian coordinates

 ion  position               nearest neighbor table
   1  0.000  0.000  0.238-   2 2.93   8 2.93   7 2.93   6 2.93   4 2.93  12 2.93  16 2.93  10 2.93
                             3 2.93
   2  0.333  0.000  0.238-   1 2.93   8 2.93   9 2.93   3 2.93   4 2.93   5 2.93  10 2.93  17 2.93
                            11 2.93
   3  0.667  0.000  0.238-   9 2.93   2 2.93   5 2.93  11 2.93   7 2.93  18 2.93   1 2.93   6 2.93
                            12 2.93
   4  0.000  0.333  0.238-   5 2.93   6 2.93   2 2.93   1 2.93   7 2.93  13 2.93  15 2.93   9 2.93
                            10 2.93
   5  0.333  0.333  0.238-   4 2.93   3 2.93   7 2.93   2 2.93   8 2.93  14 2.93  13 2.93  11 2.93
                             6 2.93
   6  0.667  0.333  0.238-   4 2.93   9 2.93   1 2.93  15 2.93   8 2.93  12 2.93   3 2.93   5 2.93
                            14 2.93
   7  0.000  0.667  0.238-   8 2.93   1 2.93   5 2.93   3 2.93   4 2.93  16 2.93  18 2.93  13 2.93
                             9 2.93
   8  0.333  0.667  0.238-   7 2.93   1 2.93   2 2.93   9 2.93   5 2.93  16 2.93   6 2.93  17 2.93
                            14 2.93
   9  0.667  0.667  0.238-   3 2.93   2 2.93   8 2.93   6 2.93  17 2.93   4 2.93  15 2.93   7 2.93
                            18 2.93
  10  0.111  0.111  0.346-  20 2.91  19 2.92  26 2.92  12 2.93  16 2.93  15 2.93  17 2.93  13 2.93
                            11 2.93   2 2.93   1 2.93   4 2.93
  11  0.444  0.111  0.346-  21 2.91  20 2.91  14 2.93  17 2.93  18 2.93   3 2.93  12 2.93  13 2.93
                            10 2.93   5 2.93   2 2.93  27 2.93
  12  0.778  0.111  0.346-  21 2.91  25 2.92  19 2.92  10 2.93  16 2.93  18 2.93  15 2.93  11 2.93
                             1 2.93  14 2.93   6 2.93   3 2.93
  13  0.111  0.444  0.346-  20 2.91  23 2.91  15 2.93  14 2.93  18 2.93  10 2.93  11 2.93  16 2.93
                             4 2.93   5 2.93   7 2.93  22 2.93
  14  0.444  0.444  0.346-  23 2.91  21 2.91  13 2.93  11 2.93  16 2.93   5 2.93  12 2.93  17 2.93
                             8 2.93  15 2.93   6 2.93  24 2.93
  15  0.778  0.444  0.346-  19 2.92  13 2.93  10 2.93  12 2.93  17 2.93  18 2.93   4 2.93   6 2.93
                             9 2.93  14 2.93  24 2.93  22 2.93
  16  0.111  0.778  0.346-  23 2.91  26 2.92  25 2.92  18 2.93  12 2.93  10 2.93  14 2.93  17 2.93
                            13 2.93   7 2.93   8 2.93   1 2.93
  17  0.444  0.778  0.346-  26 2.92  11 2.93  10 2.93   9 2.93  18 2.93  15 2.93  16 2.93   2 2.93
                            14 2.93   8 2.93  27 2.93  24 2.93
  18  0.778  0.778  0.346-  25 2.92  16 2.93  12 2.93  13 2.93  11 2.93  17 2.93  15 2.93   7 2.93
                             3 2.93   9 2.93  22 2.93  27 2.93
  19  0.889  0.222  0.453-  10 2.92  12 2.92  15 2.92  26 2.93  25 2.93  20 2.93  21 2.93  24 2.93
                            22 2.93  28 2.93  32 2.97  31 2.97
  20  0.222  0.222  0.453-  13 2.91  11 2.91  10 2.91  36 2.92  21 2.93  23 2.93  27 2.93  22 2.93
                            19 2.93  26 2.93  31 2.97  29 2.97
  21  0.555  0.222  0.453-  11 2.91  14 2.91  12 2.91  36 2.92  20 2.93  23 2.93  27 2.93  24 2.93
                            25 2.93  19 2.93  30 2.97  32 2.97
  22  0.889  0.556  0.454-  24 2.93  27 2.93  23 2.93  20 2.93  18 2.93  15 2.93  13 2.93  25 2.93
                            19 2.93  35 2.94  33 2.95  31 2.95
  23  0.222  0.555  0.453-  14 2.91  13 2.91  16 2.91  36 2.92  21 2.93  20 2.93  22 2.93  24 2.93
                            26 2.93  25 2.93  34 2.97  33 2.97
  24  0.556  0.556  0.454-  27 2.93  22 2.93  23 2.93  21 2.93  15 2.93  17 2.93  14 2.93  19 2.93
                            26 2.93  35 2.94  32 2.95  34 2.95
  25  0.889  0.889  0.453-  16 2.92  12 2.92  18 2.92  26 2.93  19 2.93  23 2.93  21 2.93  22 2.93
                            27 2.93  28 2.93  33 2.97  30 2.97
  26  0.222  0.889  0.453-  16 2.92  10 2.92  17 2.92  25 2.93  19 2.93  23 2.93  20 2.93  27 2.93
                            24 2.93  28 2.93  34 2.97  29 2.97
  27  0.556  0.889  0.454-  24 2.93  22 2.93  20 2.93  21 2.93  17 2.93  18 2.93  11 2.93  26 2.93
                            25 2.93  35 2.94  29 2.95  30 2.95
  28  0.000  0.000  0.561-  29 2.93  34 2.93  33 2.93  32 2.93  31 2.93  30 2.93  26 2.93  25 2.93
                            19 2.93
  29  0.334  0.000  0.563-  30 2.93  36 2.93  35 2.93  31 2.93  28 2.93  34 2.94  27 2.95  26 2.97
                            20 2.97
  30  0.666  0.000  0.563-  29 2.93  36 2.93  35 2.93  32 2.93  28 2.93  33 2.94  27 2.95  25 2.97
                            21 2.97
  31  0.000  0.334  0.563-  33 2.93  36 2.93  35 2.93  29 2.93  28 2.93  32 2.94  22 2.95  19 2.97
                            20 2.97
  32  0.666  0.334  0.563-  34 2.93  36 2.93  35 2.93  30 2.93  28 2.93  31 2.94  24 2.95  19 2.97
                            21 2.97
  33  0.000  0.666  0.563-  31 2.93  36 2.93  35 2.93  34 2.93  28 2.93  30 2.94  22 2.95  25 2.97
                            23 2.97
  34  0.334  0.666  0.563-  32 2.93  36 2.93  35 2.93  33 2.93  28 2.93  29 2.94  24 2.95  26 2.97
                            23 2.97
  35  0.667  0.667  0.563-  30 2.93  29 2.93  32 2.93  34 2.93  31 2.93  33 2.93  24 2.94  27 2.94
                            22 2.94
  36  0.333  0.333  0.560-  37 2.23  21 2.92  20 2.92  23 2.92  31 2.93  33 2.93  30 2.93  29 2.93
                            34 2.93  32 2.93
  37  0.333  0.333  0.661-  38 1.16  36 2.23
  38  0.333  0.333  0.713-  37 1.16

  LATTYP: Found a hexagonal cell.
 ALAT       =     8.7913665772
 C/A-ratio  =     2.5227160501

  Lattice vectors:

 A1 = (  -4.3956832886,  -7.6135467898,   0.0000000000)
 A2 = (   8.7913665771,   0.0000000000,   0.0000000000)
 A3 = (   0.0000000000,   0.0000000000,  22.1781215668)

Analysis of symmetry for initial positions (statically):
 Subroutine PRICEL returns:
 Original cell was already a primitive cell.

 Routine SETGRP: Setting up the symmetry group for a
 hexagonal supercell.

 Subroutine GETGRP returns: Found  6 space group operations
 (whereof  6 operations were pure point group operations)
 out of a pool of 24 trial point group operations.

The static configuration has the point symmetry C_3v.

Analysis of symmetry for dynamics (positions and initial velocities):
 Subroutine PRICEL returns:
 Original cell was already a primitive cell.

[...]

The dynamic configuration has the point symmetry C_3v.

Analysis of constrained symmetry for selective dynamics:
 Subroutine PRICEL returns:
 Original cell was already a primitive cell.

 Routine SETGRP: Setting up the symmetry group for a
 hexagonal supercell.

[...]
     33      -4.5462      2.00000
     34      -4.5414      2.00000
     35      -4.5266      2.00000
     36      -4.5028      2.00000
     37      -4.4923      2.00000
     38      -4.4888      2.00000
     39      -4.4526      2.00000
     40      -4.4363      2.00000
     41      -4.4330      2.00000
     42      -4.4027      2.00000
     43      -4.3849      2.00000
     44      -4.3701      2.00000
     45      -4.3402      2.00000
     46      -4.3028      2.00000
     47      -4.2735      2.00000
     48      -4.2676      2.00000
     49      -4.2591      2.00000
     50      -4.2584      2.00000
     51      -4.2404      2.00000
     52      -4.1396      2.00000
     53      -4.1288      2.00000
     54      -4.1141      2.00000
     55      -4.1001      2.00000
     56      -4.0957      2.00000
     57      -4.0873      2.00000
     58      -4.0861      2.00000
     59      -4.0775      2.00000
     60      -4.0724      2.00000
[...]
    238       5.9657      0.00000
    239       5.9889      0.00000
    240       6.0374      0.00000
    241       6.0671      0.00000
    242       6.1052      0.00000
    243       6.2977      0.00000
    244       6.3680      0.00000
    245       6.4126      0.00000
    246       6.4538      0.00000
    247       6.5459      0.00000
    248       7.2999      0.00000
    249       7.3536      0.00000
    250       7.4287      0.00000
    251       7.4645      0.00000
    252       7.4871      0.00000

 soft charge-density along one line, spin component           1
         0         1         2         3         4         5         6         7         8         9
 total charge-density along one line

------------------------ aborting loop because EDIFF is reached ----------------------------------------

 total charge

# of ion       s       p       d       tot
    1        0.421   0.199   9.179   9.799
    2        0.413   0.204   9.178   9.794
    3        0.413   0.204   9.178   9.794
    4        0.413   0.204   9.178   9.794
    5        0.423   0.202   9.174   9.799
    6        0.413   0.204   9.178   9.794
    7        0.413   0.204   9.178   9.794
    8        0.413   0.204   9.178   9.794
    9        0.418   0.200   9.178   9.796
   10        0.411   0.270   9.161   9.841
   11        0.408   0.265   9.169   9.842
   12        0.411   0.270   9.161   9.841
   13        0.408   0.265   9.169   9.842
   14        0.408   0.265   9.169   9.842
   15        0.403   0.269   9.164   9.835
   16        0.411   0.270   9.161   9.841
   17        0.403   0.269   9.164   9.835
   18        0.403   0.269   9.164   9.835
   19        0.404   0.266   9.165   9.834
   20        0.441   0.290   9.137   9.868
   21        0.441   0.290   9.137   9.868
   22        0.395   0.271   9.165   9.831
   23        0.441   0.290   9.137   9.868
   24        0.395   0.271   9.165   9.831
   25        0.404   0.266   9.165   9.834
   26        0.404   0.266   9.165   9.834
   27        0.395   0.271   9.165   9.831
   28        0.407   0.207   9.174   9.788
   29        0.451   0.219   9.149   9.819
   30        0.451   0.219   9.149   9.819
   31        0.451   0.219   9.149   9.819
   32        0.451   0.219   9.149   9.819
   33        0.451   0.219   9.149   9.819
   34        0.451   0.219   9.149   9.819
   35        0.405   0.207   9.176   9.789
   36        2.191   5.977   1.559   9.727
   37        0.981   1.522   0.000   2.503
   38        1.618   3.522   0.000   5.139
tot         19.432  19.463 322.279 361.173

  FORCE on cell =-STRESS in cart. coord.  units (eV):
  Direction    XX          YY          ZZ          XY          YZ          ZX
  Alpha Z   784.35763   784.35763   784.35763
  Ewald  118312.66228118312.66238************     0.00004     0.00000     0.00005
  Hartree128879.13038128879.13041************     0.00002     0.00000     0.00001
  E(xc)   -2124.31856 -2124.31859 -2128.76888     0.00003     0.00000     0.00001
  Local  ************************258184.63223     0.00056    -0.00007    -0.00018
  n-local  -351.91612  -335.76542  -351.75605     9.67930    -0.39964     0.49330
  augment  3226.82526  3226.82553  3241.01389    -0.00024    -0.00001    -0.00003
  Kinetic  5181.32848  5181.54930  5196.09665     0.93735     0.46645    -0.23651
  Fock        0.00000     0.00000     0.00000     0.00000     0.00000     0.00000
  Total      -7.54753    -7.54753    -0.48003    -0.00000     0.00000    -0.00000
  in kB      -8.14605    -8.14605    -0.51809    -0.00000     0.00000    -0.00000

 VOLUME and BASIS-vectors are now :
  energy-cutoff  :      500.00
  volume of cell :     1484.46
      direct lattice vectors                 reciprocal lattice vectors
     8.791366577  0.000000000  0.000000000     0.113747958 -0.065672414  0.000000000
     4.395683289  7.613546790  0.000000000     0.000000000  0.131344829  0.000000000
     0.000000000  0.000000000 22.178121567     0.000000000  0.000000000  0.045089481

  length of vectors
     8.791366577  8.791366577 22.178121567     0.131344829  0.131344829  0.045089481

 FORCES acting on ions
    electron-ion (+dipol)            ewald-force                    non-local-force                 convergence-correction
   0.459E-04 -.282E-04 0.252E+04   -.953E-04 0.593E-04 -.252E+04   0.665E-17 0.104E-17 -.184E+01   -.913E-04 -.161E-03 0.112E+00
   -.602E-02 0.661E+00 0.252E+04   0.187E-01 -.582E+00 -.252E+04   0.475E-01 0.150E+00 -.163E+01   -.523E-01 -.221E+00 0.234E+00
   0.611E-02 0.661E+00 0.252E+04   -.186E-01 -.582E+00 -.252E+04   -.475E-01 0.150E+00 -.163E+01   0.517E-01 -.219E+00 0.235E+00
   0.570E+00 -.336E+00 0.252E+04   -.495E+00 0.307E+00 -.252E+04   0.154E+00 -.338E-01 -.163E+01   -.217E+00 0.655E-01 0.234E+00
   -.633E-05 -.193E-04 0.252E+04   0.981E-04 -.201E-05 -.252E+04   -.230E-17 -.398E-18 -.970E+00   0.616E-02 0.374E-02 0.577E+00
   -.570E+00 -.336E+00 0.252E+04   0.495E+00 0.307E+00 -.252E+04   -.154E+00 -.338E-01 -.163E+01   0.216E+00 0.664E-01 0.235E+00
   0.576E+00 -.325E+00 0.252E+04   -.514E+00 0.275E+00 -.252E+04   0.106E+00 -.116E+00 -.163E+01   -.164E+00 0.155E+00 0.235E+00
   -.576E+00 -.325E+00 0.252E+04   0.513E+00 0.275E+00 -.252E+04   -.106E+00 -.116E+00 -.163E+01   0.165E+00 0.154E+00 0.235E+00
   0.370E-04 -.127E-04 0.252E+04   0.792E-04 -.643E-04 -.252E+04   -.108E-17 -.156E-17 -.170E+01   -.660E-02 -.336E-02 0.213E+00
   0.167E+01 0.963E+00 0.892E+03   -.143E+01 -.824E+00 -.892E+03   -.262E+00 -.151E+00 -.673E+00   -.462E-02 -.293E-02 0.359E-01
   -.285E-04 0.532E+01 0.894E+03   0.410E-04 -.536E+01 -.894E+03   0.714E-12 0.109E+00 -.125E+00   0.619E-02 -.108E+00 -.125E-01
   -.167E+01 0.963E+00 0.892E+03   0.143E+01 -.824E+00 -.892E+03   0.262E+00 -.151E+00 -.673E+00   0.346E-02 -.242E-02 0.350E-01
   0.461E+01 -.266E+01 0.894E+03   -.464E+01 0.268E+01 -.894E+03   0.941E-01 -.544E-01 -.125E+00   -.904E-01 0.593E-01 -.127E-01
   -.461E+01 -.266E+01 0.894E+03   0.464E+01 0.268E+01 -.894E+03   -.941E-01 -.544E-01 -.125E+00   0.100E+00 0.582E-01 -.150E-01
   0.156E-04 -.312E+01 0.888E+03   -.109E-03 0.300E+01 -.887E+03   0.359E-12 0.547E-01 -.711E+00   -.122E-02 0.627E-01 -.328E-01
   -.771E-05 -.193E+01 0.892E+03   0.208E-04 0.165E+01 -.892E+03   0.198E-11 0.302E+00 -.673E+00   -.387E-03 0.414E-02 0.346E-01
   -.270E+01 0.156E+01 0.888E+03   0.260E+01 -.150E+01 -.887E+03   0.473E-01 -.273E-01 -.711E+00   0.536E-01 -.321E-01 -.322E-01
   0.270E+01 0.156E+01 0.888E+03   -.260E+01 -.150E+01 -.887E+03   -.473E-01 -.273E-01 -.711E+00   -.534E-01 -.306E-01 -.312E-01
   0.395E-04 -.205E+01 -.762E+03   -.130E-03 0.207E+01 0.761E+03   0.191E-12 0.291E-01 0.820E+00   0.930E-03 -.498E-01 -.320E+00
   0.198E+02 0.114E+02 -.734E+03   -.184E+02 -.106E+02 0.735E+03   -.114E+01 -.659E+00 -.854E+00   -.264E+00 -.153E+00 -.393E+00
   -.198E+02 0.114E+02 -.734E+03   0.184E+02 -.106E+02 0.735E+03   0.114E+01 -.659E+00 -.854E+00   0.253E+00 -.154E+00 -.393E+00
   0.910E+01 -.526E+01 -.765E+03   -.916E+01 0.529E+01 0.765E+03   0.119E+00 -.685E-01 0.345E+00   -.524E-01 0.375E-01 -.420E+00
   -.551E-04 -.228E+02 -.734E+03   0.456E-04 0.213E+02 0.735E+03   0.865E-11 0.132E+01 -.854E+00   -.677E-02 0.296E+00 -.393E+00
   -.910E+01 -.525E+01 -.765E+03   0.916E+01 0.529E+01 0.765E+03   -.119E+00 -.685E-01 0.345E+00   0.645E-01 0.381E-01 -.420E+00
   0.177E+01 0.102E+01 -.762E+03   -.179E+01 -.103E+01 0.761E+03   -.252E-01 -.146E-01 0.820E+00   0.410E-01 0.242E-01 -.320E+00
   -.177E+01 0.102E+01 -.762E+03   0.179E+01 -.103E+01 0.761E+03   0.252E-01 -.146E-01 0.820E+00   -.316E-01 0.259E-01 -.320E+00
   0.208E-04 0.105E+02 -.765E+03   0.109E-03 -.106E+02 0.765E+03   0.899E-12 0.137E+00 0.345E+00   0.449E-02 -.639E-01 -.420E+00
   0.560E-04 -.351E-04 -.241E+04   -.119E-03 0.787E-04 0.241E+04   0.270E-17 0.315E-17 0.175E+01   0.468E-04 0.941E-04 -.381E+00
   0.316E+02 0.476E+02 -.240E+04   -.307E+02 -.463E+02 0.240E+04   -.836E+00 -.122E+01 0.816E+00   -.111E+00 -.961E-01 -.413E+00
   -.316E+02 0.476E+02 -.240E+04   0.307E+02 -.463E+02 0.240E+04   0.836E+00 -.122E+01 0.816E+00   0.110E+00 -.948E-01 -.413E+00
   0.570E+02 0.359E+01 -.240E+04   -.555E+02 -.342E+01 0.240E+04   -.147E+01 -.114E+00 0.816E+00   -.138E+00 -.480E-01 -.413E+00
   -.570E+02 0.359E+01 -.240E+04   0.555E+02 -.343E+01 0.240E+04   0.147E+01 -.114E+00 0.816E+00   0.138E+00 -.473E-01 -.412E+00
   0.254E+02 -.512E+02 -.240E+04   -.248E+02 0.497E+02 0.240E+04   -.638E+00 0.133E+01 0.816E+00   -.267E-01 0.143E+00 -.413E+00
   -.254E+02 -.512E+02 -.240E+04   0.248E+02 0.497E+02 0.240E+04   0.638E+00 0.133E+01 0.816E+00   0.279E-01 0.143E+00 -.412E+00
   0.187E-04 -.935E-05 -.242E+04   0.106E-03 -.675E-04 0.242E+04   -.744E-17 -.238E-17 0.192E+01   -.631E-02 -.294E-02 -.294E+00
   0.229E-03 -.140E-03 -.244E+04   0.112E-03 0.106E-04 0.244E+04   0.896E-18 0.202E-18 -.870E+00   0.502E-02 0.294E-02 -.427E+00
   0.941E-05 -.819E-04 -.808E+03   0.110E-04 0.881E-07 0.788E+03   -.184E-18 0.134E-18 0.199E+02   0.114E-02 0.691E-03 0.475E-04
   0.239E-03 -.952E-04 -.141E+04   0.571E-05 0.379E-08 0.147E+04   -.758E-18 -.857E-21 -.588E+02   0.369E-02 0.226E-02 0.123E+00
   0.863E-03 -.974E-03 0.537E+02   -.622E-13 0.638E-13 -.387E-11   0.104E-15 -.205E-17 -.491E+02   0.251E-01 0.128E-01 -.458E+01

 POSITION                                       TOTAL-FORCE (eV/Angst)
      0.00000      0.00000      5.28219        -0.000000     -0.000000     -0.022092
      2.93046      0.00000      5.28219         0.008507      0.008941      0.027553
      5.86091      0.00000      5.28219        -0.008507      0.008941      0.027553
      1.46523      2.53785      5.28219         0.011996      0.002897      0.027553
      4.39568      2.53785      5.28219        -0.000000     -0.000000     -0.008033
      7.32614      2.53785      5.28219        -0.011996      0.002897      0.027553
      2.93046      5.07570      5.28219         0.003490     -0.011837      0.027553
      5.86091      5.07570      5.28219        -0.003490     -0.011837      0.027553
      8.79137      5.07570      5.28219        -0.000000     -0.000000      0.004991
      1.46523      0.84595      7.67490        -0.025419     -0.014676     -0.074137
      4.39568      0.84595      7.67490        -0.000000     -0.038849     -0.052218
      7.32614      0.84595      7.67490         0.025419     -0.014676     -0.074137
      2.93046      3.38380      7.67490        -0.033645      0.019425     -0.052218
      5.86091      3.38380      7.67490         0.033645      0.019425     -0.052218
      8.79137      3.38380      7.67490        -0.000000     -0.003430      0.009373
      4.39568      5.92165      7.67490         0.000000      0.029352     -0.074137
      7.32614      5.92165      7.67490        -0.002970      0.001715      0.009373
     10.25659      5.92165      7.67490         0.002970      0.001715      0.009373
      8.79137      1.69022     10.04930         0.000000      0.000970      0.046721
      2.93117      1.69231     10.04246        -0.063589     -0.036713     -0.083812
      5.86019      1.69231     10.04246         0.063589     -0.036713     -0.083812
     10.25641      4.22985     10.06824         0.004420     -0.002552      0.033140
      4.39568      4.22892     10.04246         0.000000      0.073426     -0.083812
      7.32632      4.22985     10.06824        -0.004420     -0.002552      0.033140
     11.72328      6.76844     10.04930        -0.000840     -0.000485      0.046721
      5.85946      6.76844     10.04930         0.000840     -0.000485      0.046721
      8.79137      6.76739     10.06824         0.000000      0.005103      0.033140
      0.00000      0.00000     12.44689        -0.000000     -0.000000      0.023255
      2.93311      0.00118     12.48352        -0.017206     -0.028486      0.029867
      5.85826      0.00118     12.48352         0.017206     -0.028486      0.029867
      1.46758      2.53956     12.48352        -0.033273     -0.000657      0.029867
      7.32379      2.53956     12.48352         0.033273     -0.000657      0.029867
      2.93015      5.07281     12.48352        -0.016067      0.029144      0.029867
      5.86121      5.07281     12.48352         0.016067      0.029144      0.029867
      8.79137      5.07570     12.47551         0.000000     -0.000000     -0.004058
      4.39568      2.53785     12.42634         0.000000      0.000000      0.064985
      4.39568      2.53785     14.65372        -0.000000     -0.000000     -0.062171
      4.39568      2.53785     15.81696         0.000000     -0.000000      0.021399
    total drift:                                0.025971      0.011857      0.052713

  FREE ENERGIE OF THE ION-ELECTRON SYSTEM (eV)
  free  energy   TOTEN  =      -112.67230532 eV

  energy  without entropy=     -112.67230532  energy(sigma->0) =     -112.67230532

 stress matrix after NEB project (eV)
     -7.54753     -0.00000     -0.00000
     -0.00000     -7.54753      0.00000
      0.00000      0.00000     -0.48003
  FORCES: max atom, RMS     0.062171    0.010666
  FORCE total and by dimension    0.065751    0.062171
  Stress total and by dimension   10.684608    7.547530
|           W    W    AA    RRRRR   N    N  II  N    N   GGGG   !!!           |
|           W    W   A  A   R    R  NN   N  II  NN   N  G    G  !!!           |
|           W    W  A    A  R    R  N N  N  II  N N  N  G       !!!           |
|           W WW W  AAAAAA  RRRRR   N  N N  II  N  N N  G  GGG   !            |
|           WW  WW  A    A  R   R   N   NN  II  N   NN  G    G                |
|           W    W  A    A  R    R  N    N  II  N    N   GGGG   !!!           |
|     Tetrahedron method does not include variations of the Fermi             |
|     occupations, so forces and stress will be inaccurate. We suggest        |
|     using a different smearing scheme ISMEAR = 1 or 2 for metals in         |
|     relaxations.                                                            |

 total charge

# of ion       s       p       d       tot
    1        0.421   0.199   9.179   9.799
    2        0.413   0.204   9.178   9.794
    3        0.413   0.204   9.178   9.794
    4        0.413   0.204   9.178   9.794
    5        0.423   0.202   9.174   9.799
    6        0.413   0.204   9.178   9.794
    7        0.413   0.204   9.178   9.794
    8        0.413   0.204   9.178   9.794
    9        0.418   0.200   9.178   9.796
   10        0.411   0.270   9.161   9.841
   11        0.408   0.265   9.169   9.842
   12        0.411   0.270   9.161   9.841
   13        0.408   0.265   9.169   9.842
   14        0.408   0.265   9.169   9.842
   15        0.403   0.269   9.164   9.835
   16        0.411   0.270   9.161   9.841
   17        0.403   0.269   9.164   9.835
   18        0.403   0.269   9.164   9.835
   19        0.404   0.266   9.165   9.834
   20        0.441   0.290   9.137   9.868
   21        0.441   0.290   9.137   9.868
   22        0.395   0.271   9.165   9.831
   23        0.441   0.290   9.137   9.868
   24        0.395   0.271   9.165   9.831
   25        0.404   0.266   9.165   9.834
   26        0.404   0.266   9.165   9.834
   27        0.395   0.271   9.165   9.831
   28        0.407   0.207   9.174   9.788
   29        0.451   0.219   9.149   9.819
   30        0.451   0.219   9.149   9.819
   31        0.451   0.219   9.149   9.819
   32        0.451   0.219   9.149   9.819
   33        0.451   0.219   9.149   9.819
   34        0.451   0.219   9.149   9.819
   35        0.405   0.207   9.176   9.789
   36        2.191   5.977   1.559   9.727
   37        0.981   1.522   0.000   2.503
   38        1.618   3.522   0.000   5.139
tot         19.432  19.463 322.279 361.173

 BZINTS: Fermi energy:    0.925753;  407.000000 electrons
         Band energy:-0.159206E+04;  BLOECHL correction:   -0.017958