 vasp.6.2.0 18Jan21 (build Jun 12 2021 23:27:24) complex

 executed on             LinuxIFC date 2022.05.30  16:49:09

 INCAR:
   ISMEAR = -5
   SIGMA = 0.1
   ISPIN = 1
   EDIFF = 1.d-5
   EDIFFG = -0.01
   NSW = 0
   NELM = 150
   ENCUT = 500
   ISIF = 2
   IBRION = 2
   LREAL = Auto
   ALGO = Fast
   ICHARG = 11
   LORBIT = 10
   LCHARG = .F.
   LWAVE = .F.

 POTCAR:    PAW_PBE Ag 02Apr2005
 POTCAR:    PAW_PBE V 08Apr2002
 POTCAR:    PAW_PBE C 08Apr2002
 POTCAR:    PAW_PBE O 08Apr2002
 POTCAR:    PAW_PBE H 15Jun2001
|           W    W    AA    RRRRR   N    N  II  N    N   GGGG   !!!           |
|           W    W   A  A   R    R  NN   N  II  NN   N  G    G  !!!           |
|           W    W  A    A  R    R  N N  N  II  N N  N  G       !!!           |
|           W WW W  AAAAAA  RRRRR   N  N N  II  N  N N  G  GGG   !            |
|           WW  WW  A    A  R   R   N   NN  II  N   NN  G    G                |
|           W    W  A    A  R    R  N    N  II  N    N   GGGG   !!!           |
|     For optimal performance we recommend to set                             |
|       NCORE = 2 up to number-of-cores-per-socket                            |
|     This setting can greatly improve the performance of VASP for DFT.       |
|     The default, NCORE=1 might be grossly inefficient on modern             |
|     multi-core architectures or massively parallel machines. Do your        |
|     Unfortunately you need to use the default for GW and RPA                |
|     calculations (for HF NCORE is supported but not extensively tested      |
|     yet).                                                                   |

 POTCAR:    PAW_PBE Ag 02Apr2005
   VRHFIN =Ag : s1 d10

   TITEL  = PAW_PBE Ag 02Apr2005
   POMASS =  107.868; ZVAL   =   11.000    mass and valenz
   ENMAX  =  249.844; ENMIN  =  187.383 eV

 POTCAR:    PAW_PBE V 08Apr2002
   VRHFIN =V: p6 d4 s1

[...]

 POTCAR:    PAW_PBE C 08Apr2002
   VRHFIN =C: s2p2

[...]

 POTCAR:    PAW_PBE O 08Apr2002
   VRHFIN =O: s2p4

   TITEL  = PAW_PBE O 08Apr2002
   POMASS =   16.000; ZVAL   =    6.000    mass and valenz
   ENMAX  =  400.000; ENMIN  =  300.000 eV

 POTCAR:    PAW_PBE H 15Jun2001
   VRHFIN =H: ultrasoft test

   TITEL  = PAW_PBE H 15Jun2001
   POMASS =    1.000; ZVAL   =    1.000    mass and valenz
   ENMAX  =  250.000; ENMIN  =  200.000 eV

 Optimization of the real space projectors (new method)

 maximal supplied QI-value         = 15.12
 optimisation between [QCUT,QGAM] = [ 11.34, 22.83] = [ 36.00,145.93] Ry
 Optimized for a Real-space Cutoff    1.43 Angstroem

   l    n(q)    QCUT    max X(q) W(low)/X(q) W(high)/X(q)  e(spline)
   2      9    11.338    53.897    0.16E-03    0.20E-03    0.28E-06
   2      9    11.338    52.416    0.16E-03    0.20E-03    0.29E-06
   0     10    11.338   122.045    0.31E-04    0.76E-04    0.15E-06
   0     10    11.338    73.629    0.30E-04    0.72E-04    0.15E-06
   1      9    11.338    15.255    0.20E-03    0.19E-04    0.17E-06
   1      9    11.338     9.562    0.16E-03    0.15E-04    0.14E-06
 Optimization of the real space projectors (new method)

[...]

   l    n(q)    QCUT    max X(q) W(low)/X(q) W(high)/X(q)  e(spline)
   0      7    11.387    20.381    0.39E-03    0.13E-02    0.15E-06
   0      7    11.387    15.268    0.42E-03    0.14E-02    0.17E-06
   1      6    11.387     5.964    0.41E-03    0.11E-02    0.17E-06
   1      6    11.387     5.382    0.39E-03    0.87E-03    0.15E-06
 Optimization of the real space projectors (new method)

 maximal supplied QI-value         = 34.20
 optimisation between [QCUT,QGAM] = [ 11.29, 22.57] = [ 35.68,142.71] Ry
 Optimized for a Real-space Cutoff    1.16 Angstroem

   l    n(q)    QCUT    max X(q) W(low)/X(q) W(high)/X(q)  e(spline)
   0      8    11.287    19.460    0.40E-03    0.73E-03    0.16E-06
   0      8    11.287    12.209    0.38E-03    0.70E-03    0.15E-06
   1      7    11.287     4.655    0.22E-03    0.25E-04    0.22E-06
  PAW_PBE Ag 02Apr2005                  :
  PAW_PBE V 08Apr2002                   :
  PAW_PBE C 08Apr2002                   :
  PAW_PBE O 08Apr2002                   :
  PAW_PBE H 15Jun2001                   :

 POSCAR: Ag-V-COH
  positions in direct lattice
  velocities in cartesian coordinates
 exchange correlation table for  LEXCH =        8
   RHO(1)=    0.500       N(1)  =     2000
   RHO(2)=  100.500       N(2)  =     4000

 VTST: version 3.2, (02/03/18)

 CHAIN: initializing optimizer

 OPT: Using VASP Conjugate-Gradient optimizer
 CHAIN: Read ICHAIN            0

 POSCAR: Ag-V-COH
  positions in direct lattice
  velocities in cartesian coordinates

 ion  position               nearest neighbor table
   1  0.000  0.000  0.199-   2 2.93   8 2.93   7 2.93   6 2.93   4 2.93  12 2.93  16 2.93  10 2.93
                             3 2.93
   2  0.333  0.000  0.199-   1 2.93   8 2.93   9 2.93   3 2.93   4 2.93   5 2.93  10 2.93  17 2.93
                            11 2.93
   3  0.667  0.000  0.199-   9 2.93   2 2.93   5 2.93  11 2.93   7 2.93  18 2.93   1 2.93   6 2.93
                            12 2.93
   4  0.000  0.333  0.199-   5 2.93   6 2.93   2 2.93   1 2.93   7 2.93  13 2.93  15 2.93   9 2.93
                            10 2.93
   5  0.333  0.333  0.199-   4 2.93   3 2.93   7 2.93   2 2.93   8 2.93  14 2.93  13 2.93  11 2.93
                             6 2.93
   6  0.667  0.333  0.199-   4 2.93   9 2.93   1 2.93  15 2.93   8 2.93  12 2.93   3 2.93   5 2.93
                            14 2.93
   7  0.000  0.667  0.199-   8 2.93   1 2.93   5 2.93   3 2.93   4 2.93  16 2.93  18 2.93  13 2.93
                             9 2.93
   8  0.333  0.667  0.199-   7 2.93   1 2.93   2 2.93   9 2.93   5 2.93  16 2.93   6 2.93  17 2.93
                            14 2.93
   9  0.667  0.667  0.199-   3 2.93   2 2.93   8 2.93   6 2.93  17 2.93   4 2.93  15 2.93   7 2.93
                            18 2.93
  10  0.111  0.111  0.289-  20 2.91  19 2.92  26 2.92  12 2.93  16 2.93  15 2.93  17 2.93  13 2.93
                            11 2.93   2 2.93   1 2.93   4 2.93
  11  0.444  0.111  0.289-  21 2.90  20 2.90  27 2.92  14 2.93  17 2.93  18 2.93   3 2.93  12 2.93
                            13 2.93  10 2.93   5 2.93   2 2.93
  12  0.778  0.111  0.289-  21 2.91  25 2.92  19 2.92  10 2.93  16 2.93  18 2.93  15 2.93  11 2.93
                             1 2.93  14 2.93   6 2.93   3 2.93
  13  0.111  0.444  0.289-  20 2.90  23 2.90  22 2.92  15 2.93  14 2.93  18 2.93  10 2.93  11 2.93
                            16 2.93   4 2.93   5 2.93   7 2.93
  14  0.444  0.444  0.289-  23 2.90  21 2.90  24 2.92  13 2.93  11 2.93  16 2.93   5 2.93  12 2.93
                            17 2.93   8 2.93  15 2.93   6 2.93
  15  0.778  0.444  0.289-  24 2.92  22 2.92  19 2.92  13 2.93  10 2.93  12 2.93  17 2.93  18 2.93
                             4 2.93   6 2.93   9 2.93  14 2.93
  16  0.111  0.778  0.289-  23 2.91  26 2.92  25 2.92  18 2.93  12 2.93  10 2.93  14 2.93  17 2.93
                            13 2.93   7 2.93   8 2.93   1 2.93
  17  0.444  0.778  0.289-  27 2.92  24 2.92  26 2.92  11 2.93  10 2.93   9 2.93  18 2.93  15 2.93
                            16 2.93   2 2.93  14 2.93   8 2.93
  18  0.778  0.778  0.289-  22 2.92  27 2.92  25 2.92  16 2.93  12 2.93  13 2.93  11 2.93  17 2.93
                            15 2.93   7 2.93   3 2.93   9 2.93
  19  0.889  0.222  0.378-  28 2.91  15 2.92  10 2.92  12 2.92  24 2.93  22 2.93  26 2.93  25 2.93
                            20 2.94  21 2.94  32 2.96  31 2.96
  20  0.223  0.223  0.378-  36 2.75  13 2.90  11 2.90  10 2.91  21 2.92  23 2.92  31 2.92  29 2.92
                            27 2.93  22 2.93  19 2.94  26 2.94
  21  0.555  0.223  0.378-  36 2.75  11 2.90  14 2.90  12 2.91  20 2.92  23 2.92  30 2.92  32 2.92
                            27 2.93  24 2.93  25 2.94  19 2.94
  22  0.889  0.556  0.378-  18 2.92  15 2.92  35 2.92  13 2.92  24 2.93  27 2.93  25 2.93  19 2.93
                            23 2.93  20 2.93  33 2.94  31 2.94
  23  0.223  0.555  0.378-  36 2.75  14 2.90  13 2.90  16 2.91  21 2.92  20 2.92  34 2.92  33 2.92
                            22 2.93  24 2.93  26 2.94  25 2.94
  24  0.556  0.556  0.378-  15 2.92  17 2.92  35 2.92  14 2.92  27 2.93  22 2.93  19 2.93  26 2.93
                            23 2.93  21 2.93  32 2.94  34 2.94
  25  0.889  0.889  0.378-  28 2.91  18 2.92  16 2.92  12 2.92  22 2.93  27 2.93  26 2.93  19 2.93
                            23 2.94  21 2.94  33 2.96  30 2.96
  26  0.222  0.889  0.378-  28 2.91  17 2.92  16 2.92  10 2.92  27 2.93  24 2.93  25 2.93  19 2.93
                            23 2.94  20 2.94  34 2.96  29 2.96
  27  0.556  0.889  0.378-  17 2.92  18 2.92  35 2.92  11 2.92  24 2.93  22 2.93  26 2.93  25 2.93
                            20 2.93  21 2.93  29 2.94  30 2.94
  28  0.000  0.000  0.468-  26 2.91  25 2.91  19 2.91  29 2.96  34 2.96  33 2.96  32 2.96  31 2.96
                            30 2.96
  29  0.334  0.006  0.469-  30 2.87  31 2.88  36 2.89  20 2.92  27 2.94  35 2.96  28 2.96  26 2.96
                            34 3.04
  30  0.660  0.006  0.469-  29 2.87  32 2.88  36 2.89  21 2.92  27 2.94  35 2.96  28 2.96  25 2.96
                            33 3.04
  31  0.006  0.334  0.469-  33 2.87  29 2.88  36 2.89  20 2.92  22 2.94  35 2.96  28 2.96  19 2.96
                            32 3.04
  32  0.660  0.334  0.469-  34 2.87  30 2.88  36 2.89  21 2.92  24 2.94  35 2.96  28 2.96  19 2.96
                            31 3.04
  33  0.006  0.660  0.469-  31 2.87  34 2.88  36 2.89  23 2.92  22 2.94  35 2.96  28 2.96  25 2.96
                            30 3.04
  34  0.334  0.660  0.469-  32 2.87  33 2.88  36 2.89  23 2.92  24 2.94  35 2.96  28 2.96  26 2.96
                            29 3.04
  35  0.667  0.667  0.468-  24 2.92  27 2.92  22 2.92  30 2.96  32 2.96  29 2.96  34 2.96  31 2.96
                            33 2.96
  36  0.333  0.333  0.460-  37 1.76  21 2.75  20 2.75  23 2.75  31 2.89  33 2.89  30 2.89  29 2.89
                            34 2.89  32 2.89
  37  0.333  0.333  0.526-  38 1.28  36 1.76
  38  0.333  0.333  0.574-  39 0.95  37 1.28
  39  0.333  0.333  0.610-  38 0.95

  LATTYP: Found a hexagonal cell.
 ALAT       =     8.7913665772
 C/A-ratio  =     3.0233954145

  Lattice vectors:

 A1 = (  -4.3956832886,  -7.6135467898,   0.0000000000)
 A2 = (   8.7913665771,   0.0000000000,   0.0000000000)
 A3 = (   0.0000000000,   0.0000000000,  26.5797773968)

Analysis of symmetry for initial positions (statically):
 Subroutine PRICEL returns:
 Original cell was already a primitive cell.

 Routine SETGRP: Setting up the symmetry group for a
 hexagonal supercell.

 Subroutine GETGRP returns: Found  6 space group operations
 (whereof  6 operations were pure point group operations)
 out of a pool of 24 trial point group operations.

The static configuration has the point symmetry C_3v.

Analysis of symmetry for dynamics (positions and initial velocities):
 Subroutine PRICEL returns:
 Original cell was already a primitive cell.

[...]

The dynamic configuration has the point symmetry C_3v.

Analysis of constrained symmetry for selective dynamics:
 Subroutine PRICEL returns:
[...]
     41      -4.8299      2.00000
     42      -4.8211      2.00000
     43      -4.7884      2.00000
     44      -4.7769      2.00000
     45      -4.7754      2.00000
     46      -4.7632      2.00000
     47      -4.7530      2.00000
     48      -4.6636      2.00000
     49      -4.6372      2.00000
     50      -4.6261      2.00000
     51      -4.6216      2.00000
     52      -4.6203      2.00000
     53      -4.6114      2.00000
     54      -4.5964      2.00000
     55      -4.5935      2.00000
     56      -4.5859      2.00000
     57      -4.5738      2.00000
     58      -4.5116      2.00000
     59      -4.5037      2.00000
     60      -4.4942      2.00000
[...]
    238       5.2578      0.00000
    239       5.3745      0.00000
    240       5.4178      0.00000
    241       5.5878      0.00000
    242       5.6536      0.00000
    243       5.7084      0.00000
    244       5.7513      0.00000
    245       5.8226      0.00000
    246       5.8616      0.00000
    247       5.8751      0.00000
    248       5.9154      0.00000
    249       6.1582      0.00000
    250       6.1984      0.00000
    251       6.6766      0.00000
    252       6.7583      0.00000

 soft charge-density along one line, spin component           1
         0         1         2         3         4         5         6         7         8         9
 total charge-density along one line

------------------------ aborting loop because EDIFF is reached ----------------------------------------

 total charge

# of ion       s       p       d       tot
    1        0.419   0.203   9.179   9.801
    2        0.417   0.205   9.177   9.798
    3        0.417   0.205   9.177   9.798
    4        0.417   0.205   9.177   9.798
    5        0.421   0.203   9.175   9.799
    6        0.417   0.205   9.177   9.798
    7        0.417   0.205   9.177   9.798
    8        0.417   0.205   9.177   9.798
    9        0.416   0.203   9.179   9.797
   10        0.408   0.270   9.164   9.842
   11        0.410   0.268   9.167   9.845
   12        0.408   0.270   9.164   9.842
   13        0.410   0.268   9.167   9.845
   14        0.410   0.268   9.167   9.845
   15        0.403   0.271   9.164   9.839
   16        0.408   0.270   9.164   9.842
   17        0.403   0.271   9.164   9.839
   18        0.403   0.271   9.164   9.839
   19        0.402   0.266   9.166   9.834
   20        0.433   0.293   9.143   9.869
   21        0.433   0.293   9.143   9.869
   22        0.396   0.275   9.164   9.836
   23        0.433   0.293   9.143   9.869
   24        0.396   0.275   9.164   9.836
   25        0.402   0.266   9.166   9.834
   26        0.402   0.266   9.166   9.834
   27        0.396   0.275   9.164   9.836
   28        0.413   0.199   9.178   9.790
   29        0.426   0.212   9.164   9.802
   30        0.426   0.212   9.164   9.802
   31        0.426   0.212   9.164   9.802
   32        0.426   0.212   9.164   9.802
   33        0.426   0.212   9.164   9.802
   34        0.426   0.212   9.164   9.802
   35        0.414   0.200   9.176   9.790
   36        0.480   0.624   3.572   4.676
   37        0.930   1.427   0.000   2.356
   38        1.519   3.762   0.000   5.281
   39        0.570   0.139   0.000   0.709
tot         17.996  14.388 324.407 356.791

  FORCE on cell =-STRESS in cart. coord.  units (eV):
  Direction    XX          YY          ZZ          XY          YZ          ZX
  Alpha Z   634.38443   634.38443   634.38443
  Ewald  184028.96628184028.96626************     0.00002    -0.00001     0.00004
  Hartree194072.21889194072.21888************     0.00001    -0.00000     0.00001
  E(xc)   -2098.09324 -2098.09339 -2104.58413     0.00013    -0.00001    -0.00001
  Local  ************************388942.71594     0.00064    -0.00006    -0.00019
  n-local  -353.31951  -336.67707  -347.51353     9.58129    -0.46128     0.56813
  augment  3245.88555  3245.88575  3257.24856    -0.00017    -0.00003    -0.00003
  Kinetic  5014.19707  5016.26220  4988.75395     3.37050     0.89159    -0.30198
  Fock        0.00000     0.00000     0.00000     0.00000     0.00000     0.00000
  Total      -9.00107    -9.00107     0.59499    -0.00000    -0.00000     0.00000
  in kB      -8.10606    -8.10606     0.53583    -0.00000    -0.00000     0.00000

 VOLUME and BASIS-vectors are now :
  energy-cutoff  :      500.00
  volume of cell :     1779.08
      direct lattice vectors                 reciprocal lattice vectors
     8.791366577  0.000000000  0.000000000     0.113747958 -0.065672414  0.000000000
     4.395683289  7.613546790  0.000000000     0.000000000  0.131344829  0.000000000
     0.000000000  0.000000000 26.579777397     0.000000000  0.000000000  0.037622587

  length of vectors
     8.791366577  8.791366577 26.579777397     0.131344829  0.131344829  0.037622587

 FORCES acting on ions
    electron-ion (+dipol)            ewald-force                    non-local-force                 convergence-correction
   0.456E-04 -.284E-04 0.283E+04   -.953E-04 0.593E-04 -.282E+04   -.237E-17 0.160E-17 -.198E+01   -.141E-03 -.188E-03 0.528E-01
   -.253E+00 0.968E-01 0.282E+04   -.623E-01 -.544E-01 -.282E+04   0.107E+00 0.706E-01 -.153E+01   0.205E+00 -.951E-01 0.698E-01
   0.253E+00 0.968E-01 0.282E+04   0.624E-01 -.543E-01 -.282E+04   -.107E+00 0.706E-01 -.153E+01   -.206E+00 -.932E-01 0.706E-01
   -.425E-01 -.267E+00 0.282E+04   -.783E-01 -.267E-01 -.282E+04   0.114E+00 0.569E-01 -.153E+01   0.205E-01 0.226E+00 0.698E-01
   -.402E-05 -.178E-04 0.282E+04   0.981E-04 -.200E-05 -.282E+04   0.341E-18 0.309E-17 -.116E+01   0.622E-02 0.380E-02 0.267E+00
   0.425E-01 -.267E+00 0.282E+04   0.782E-01 -.268E-01 -.282E+04   -.114E+00 0.569E-01 -.153E+01   -.219E-01 0.226E+00 0.706E-01
   0.210E+00 0.170E+00 0.282E+04   -.161E-01 0.811E-01 -.282E+04   0.790E-02 -.128E+00 -.153E+01   -.183E+00 -.131E+00 0.706E-01
   -.210E+00 0.171E+00 0.282E+04   0.160E-01 0.810E-01 -.282E+04   -.790E-02 -.128E+00 -.153E+01   0.185E+00 -.132E+00 0.707E-01
   0.373E-04 -.126E-04 0.283E+04   0.792E-04 -.642E-04 -.282E+04   0.366E-18 -.164E-18 -.185E+01   -.661E-02 -.340E-02 0.115E-01
   0.875E+00 0.505E+00 0.963E+03   -.748E+00 -.432E+00 -.963E+03   -.293E+00 -.169E+00 -.711E+00   0.154E+00 0.892E-01 0.851E+00
   -.290E-04 0.557E+00 0.963E+03   0.409E-04 -.866E+00 -.964E+03   0.108E-11 0.165E+00 -.365E+00   0.654E-02 0.115E+00 0.842E+00
   -.875E+00 0.505E+00 0.963E+03   0.748E+00 -.432E+00 -.963E+03   0.293E+00 -.169E+00 -.711E+00   -.156E+00 0.899E-01 0.851E+00
   0.482E+00 -.278E+00 0.963E+03   -.750E+00 0.433E+00 -.964E+03   0.143E+00 -.825E-01 -.365E+00   0.103E+00 -.517E-01 0.842E+00
   -.482E+00 -.278E+00 0.963E+03   0.750E+00 0.433E+00 -.964E+03   -.143E+00 -.825E-01 -.365E+00   -.921E-01 -.529E-01 0.841E+00
   0.151E-04 0.450E+00 0.964E+03   -.108E-03 -.563E+00 -.964E+03   0.429E-12 0.654E-01 -.749E+00   -.148E-02 0.371E-01 0.744E+00
   -.709E-05 -.101E+01 0.963E+03   0.207E-04 0.864E+00 -.963E+03   0.222E-11 0.338E+00 -.711E+00   -.196E-03 -.180E+00 0.851E+00
   0.390E+00 -.225E+00 0.964E+03   -.487E+00 0.281E+00 -.964E+03   0.566E-01 -.327E-01 -.749E+00   0.313E-01 -.198E-01 0.744E+00
   -.390E+00 -.225E+00 0.964E+03   0.487E+00 0.281E+00 -.964E+03   -.566E-01 -.327E-01 -.749E+00   -.309E-01 -.178E-01 0.746E+00
   0.390E-04 -.319E+01 -.915E+03   -.126E-03 0.297E+01 0.913E+03   0.824E-12 0.125E+00 0.849E+00   -.502E-02 0.994E-01 0.889E+00
   -.138E+02 -.796E+01 -.919E+03   0.144E+02 0.832E+01 0.918E+03   -.101E+01 -.585E+00 -.795E+00   0.276E+00 0.159E+00 0.125E+01
   0.138E+02 -.796E+01 -.919E+03   -.144E+02 0.832E+01 0.918E+03   0.101E+01 -.585E+00 -.795E+00   -.285E+00 0.158E+00 0.125E+01
   -.600E+01 0.347E+01 -.910E+03   0.551E+01 -.318E+01 0.909E+03   0.259E+00 -.150E+00 0.452E+00   0.246E+00 -.140E+00 0.843E+00
   -.532E-04 0.159E+02 -.919E+03   0.385E-04 -.166E+02 0.918E+03   0.768E-11 0.117E+01 -.795E+00   -.541E-02 -.325E+00 0.125E+01
   0.600E+01 0.347E+01 -.910E+03   -.551E+01 -.318E+01 0.909E+03   -.259E+00 -.150E+00 0.452E+00   -.244E+00 -.141E+00 0.843E+00
   0.276E+01 0.159E+01 -.915E+03   -.257E+01 -.148E+01 0.913E+03   -.109E+00 -.627E-01 0.849E+00   -.939E-01 -.544E-01 0.889E+00
   -.276E+01 0.159E+01 -.915E+03   0.257E+01 -.148E+01 0.913E+03   0.109E+00 -.627E-01 0.849E+00   0.833E-01 -.542E-01 0.889E+00
   0.193E-04 -.693E+01 -.910E+03   0.110E-03 0.636E+01 0.909E+03   0.196E-11 0.299E+00 0.452E+00   0.111E-02 0.283E+00 0.843E+00
   0.534E-04 -.366E-04 -.273E+04   -.115E-03 0.774E-04 0.273E+04   0.402E-17 0.297E-17 0.182E+01   -.706E-04 -.176E-03 0.280E+00
   0.845E+01 0.981E+01 -.271E+04   -.807E+01 -.927E+01 0.271E+04   -.707E+00 -.113E+01 0.180E+01   0.313E+00 0.562E+00 0.249E+00
   -.845E+01 0.981E+01 -.271E+04   0.807E+01 -.927E+01 0.271E+04   0.707E+00 -.113E+01 0.180E+01   -.313E+00 0.563E+00 0.249E+00
   0.127E+02 0.241E+01 -.271E+04   -.121E+02 -.236E+01 0.271E+04   -.133E+01 -.485E-01 0.180E+01   0.644E+00 -.100E-01 0.249E+00
   -.127E+02 0.241E+01 -.271E+04   0.121E+02 -.236E+01 0.271E+04   0.133E+01 -.485E-01 0.180E+01   -.644E+00 -.949E-02 0.250E+00
   0.427E+01 -.122E+02 -.271E+04   -.399E+01 0.116E+02 0.271E+04   -.623E+00 0.118E+01 0.180E+01   0.332E+00 -.553E+00 0.249E+00
   -.427E+01 -.122E+02 -.271E+04   0.399E+01 0.116E+02 0.271E+04   0.623E+00 0.118E+01 0.180E+01   -.331E+00 -.553E+00 0.250E+00
   0.241E-04 -.120E-04 -.274E+04   0.105E-03 -.658E-04 0.274E+04   -.400E-17 0.594E-17 0.183E+01   -.618E-02 -.314E-02 0.370E+00
   -.176E-04 -.234E-05 -.108E+04   0.479E-04 0.613E-05 0.108E+04   -.851E-18 0.323E-18 -.175E+01   0.865E-03 0.528E-03 0.238E+00
   -.109E-05 -.723E-04 -.101E+04   0.190E-04 0.270E-06 0.992E+03   0.777E-19 -.176E-18 0.209E+02   0.106E-02 0.651E-03 -.443E+00
   0.238E-03 -.902E-04 -.171E+04   0.919E-05 0.152E-07 0.171E+04   -.510E-18 -.422E-18 -.295E+01   0.380E-02 0.233E-02 -.404E+00
   0.661E-05 -.143E-04 -.330E+03   0.627E-06 -.248E-08 0.339E+03   0.318E-19 -.257E-19 -.873E+01   0.202E-03 0.124E-03 -.553E-01
   0.600E-03 -.857E-03 -.223E+02   -.193E-12 0.883E-13 -.239E-11   -.338E-15 0.563E-17 0.376E+01   -.141E-01 -.476E-02 0.185E+02

 POSITION                                       TOTAL-FORCE (eV/Angst)
      0.00000      0.00000      5.28219         0.000000      0.000000     -0.022816
      2.93046      0.00000      5.28219        -0.002615      0.018995      0.029465
      5.86091      0.00000      5.28219         0.002615      0.018995      0.029465
      1.46523      2.53785      5.28219         0.015143     -0.011763      0.029465
      4.39568      2.53785      5.28219         0.000000      0.000000     -0.022703
      7.32614      2.53785      5.28219        -0.015143     -0.011763      0.029465
      2.93046      5.07570      5.28219         0.017758     -0.007233      0.029465
      5.86091      5.07570      5.28219        -0.017758     -0.007233      0.029465
      8.79137      5.07570      5.28219         0.000000      0.000000      0.021104
      1.46523      0.84595      7.67490        -0.010402     -0.006006     -0.031634
      4.39568      0.84595      7.67490        -0.000000     -0.032858     -0.056727
      7.32614      0.84595      7.67490         0.010402     -0.006006     -0.031634
      2.93046      3.38380      7.67490        -0.028456      0.016429     -0.056727
      5.86091      3.38380      7.67490         0.028456      0.016429     -0.056727
      8.79137      3.38380      7.67490        -0.000000     -0.010371      0.002863
      4.39568      5.92165      7.67490         0.000000      0.012011     -0.031634
      7.32614      5.92165      7.67490        -0.008982      0.005186      0.002863
     10.25659      5.92165      7.67490         0.008982      0.005186      0.002863
      8.79137      1.69254     10.05636         0.000000      0.010729      0.054163
      2.93602      1.69511     10.03837        -0.110268     -0.063663     -0.141697
      5.85534      1.69511     10.03837         0.110268     -0.063663     -0.141697
     10.25423      4.23112     10.05516         0.012362     -0.007137      0.027378
      4.39568      4.22332     10.03837         0.000000      0.127326     -0.141697
      7.32851      4.23112     10.05516        -0.012362     -0.007137      0.027378
     11.72126      6.76728     10.05636        -0.009292     -0.005365      0.054163
      5.86147      6.76728     10.05636         0.009292     -0.005365      0.054163
      8.79137      6.76486     10.05516         0.000000      0.014274      0.027378
      0.00000      0.00000     12.42937         0.000000      0.000000     -0.022579
      2.95945      0.04653     12.45339        -0.018414     -0.019286     -0.006257
      5.83191      0.04653     12.45339         0.018414     -0.019286     -0.006257
      1.52003      2.53970     12.45339        -0.025910     -0.006304     -0.006257
      7.27134      2.53970     12.45339         0.025910     -0.006304     -0.006257
      2.95626      5.02732     12.45339        -0.007495      0.025590     -0.006257
      5.83511      5.02732     12.45339         0.007495      0.025590     -0.006257
      8.79137      5.07570     12.43676         0.000000      0.000000     -0.045072
      4.39568      2.53785     12.21669         0.000000      0.000000      0.365637
      4.39568      2.53785     13.98157         0.000000      0.000000      0.037101
      4.39568      2.53785     15.25828         0.000000      0.000000     -0.023995
      4.39568      2.53785     16.21294         0.000000      0.000000      0.011039
    total drift:                               -0.013485     -0.005615     -0.000913

  FREE ENERGIE OF THE ION-ELECTRON SYSTEM (eV)
  free  energy   TOTEN  =      -113.90988647 eV

  energy  without entropy=     -113.90988647  energy(sigma->0) =     -113.90988647

 stress matrix after NEB project (eV)
     -9.00107     -0.00000      0.00000
     -0.00000     -9.00107     -0.00000
      0.00000     -0.00000      0.59499
  FORCES: max atom, RMS     0.037101    0.007293
  FORCE total and by dimension    0.045543    0.037101
  Stress total and by dimension   12.743332    9.001069
|           W    W    AA    RRRRR   N    N  II  N    N   GGGG   !!!           |
|           W    W   A  A   R    R  NN   N  II  NN   N  G    G  !!!           |
|           W    W  A    A  R    R  N N  N  II  N N  N  G       !!!           |
|           W WW W  AAAAAA  RRRRR   N  N N  II  N  N N  G  GGG   !            |
|           WW  WW  A    A  R   R   N   NN  II  N   NN  G    G                |
|           W    W  A    A  R    R  N    N  II  N    N   GGGG   !!!           |
|     Tetrahedron method does not include variations of the Fermi             |
|     occupations, so forces and stress will be inaccurate. We suggest        |
|     using a different smearing scheme ISMEAR = 1 or 2 for metals in         |
|     relaxations.                                                            |

 total charge

# of ion       s       p       d       tot
    1        0.419   0.203   9.179   9.801
    2        0.417   0.205   9.177   9.798
    3        0.417   0.205   9.177   9.798
    4        0.417   0.205   9.177   9.798
    5        0.421   0.203   9.175   9.799
    6        0.417   0.205   9.177   9.798
    7        0.417   0.205   9.177   9.798
    8        0.417   0.205   9.177   9.798
    9        0.416   0.203   9.179   9.797
   10        0.408   0.270   9.164   9.842
   11        0.410   0.268   9.167   9.845
   12        0.408   0.270   9.164   9.842
   13        0.410   0.268   9.167   9.845
   14        0.410   0.268   9.167   9.845
   15        0.403   0.271   9.164   9.839
   16        0.408   0.270   9.164   9.842
   17        0.403   0.271   9.164   9.839
   18        0.403   0.271   9.164   9.839
   19        0.402   0.266   9.166   9.834
   20        0.433   0.293   9.143   9.869
   21        0.433   0.293   9.143   9.869
   22        0.396   0.275   9.164   9.836
   23        0.433   0.293   9.143   9.869
   24        0.396   0.275   9.164   9.836
   25        0.402   0.266   9.166   9.834
   26        0.402   0.266   9.166   9.834
   27        0.396   0.275   9.164   9.836
   28        0.413   0.199   9.178   9.790
   29        0.426   0.212   9.164   9.802
   30        0.426   0.212   9.164   9.802
   31        0.426   0.212   9.164   9.802
   32        0.426   0.212   9.164   9.802
   33        0.426   0.212   9.164   9.802
   34        0.426   0.212   9.164   9.802
   35        0.414   0.200   9.176   9.790
   36        0.480   0.624   3.572   4.676
   37        0.930   1.427   0.000   2.356
   38        1.519   3.762   0.000   5.281
   39        0.570   0.139   0.000   0.709
tot         17.996  14.388 324.407 356.791

 BZINTS: Fermi energy:    0.393848;  401.000000 electrons
         Band energy:-0.155369E+04;  BLOECHL correction:   -0.034740