 vasp.6.2.0 18Jan21 (build Jun 12 2021 23:27:24) complex

 executed on             LinuxIFC date 2022.05.30  18:27:12

 INCAR:
   ISMEAR = -5
   SIGMA = 0.1
   ISPIN = 1
   EDIFF = 1.d-5
   EDIFFG = -0.01
   NSW = 0
   NELM = 150
   ENCUT = 500
   ISIF = 2
   IBRION = 2
   LREAL = Auto
   ALGO = Fast
   ICHARG = 11
   LORBIT = 10
   LCHARG = .F.
   LWAVE = .F.

 POTCAR:    PAW_PBE Cu 22Jun2005
 POTCAR:    PAW_PBE Pd 04Jan2005
 POTCAR:    PAW_PBE C 08Apr2002
 POTCAR:    PAW_PBE O 08Apr2002
 POTCAR:    PAW_PBE H 15Jun2001
|           W    W    AA    RRRRR   N    N  II  N    N   GGGG   !!!           |
|           W    W   A  A   R    R  NN   N  II  NN   N  G    G  !!!           |
|           W    W  A    A  R    R  N N  N  II  N N  N  G       !!!           |
|           W WW W  AAAAAA  RRRRR   N  N N  II  N  N N  G  GGG   !            |
|           WW  WW  A    A  R   R   N   NN  II  N   NN  G    G                |
|           W    W  A    A  R    R  N    N  II  N    N   GGGG   !!!           |
|     For optimal performance we recommend to set                             |
|       NCORE = 2 up to number-of-cores-per-socket                            |
|     This setting can greatly improve the performance of VASP for DFT.       |
|     The default, NCORE=1 might be grossly inefficient on modern             |
|     multi-core architectures or massively parallel machines. Do your        |
|     Unfortunately you need to use the default for GW and RPA                |
|     calculations (for HF NCORE is supported but not extensively tested      |
|     yet).                                                                   |

 POTCAR:    PAW_PBE Cu 22Jun2005
   VRHFIN =Cu: d10 p1

   TITEL  = PAW_PBE Cu 22Jun2005
   POMASS =   63.546; ZVAL   =   11.000    mass and valenz
   ENMAX  =  295.446; ENMIN  =  221.585 eV

 POTCAR:    PAW_PBE Pd 04Jan2005
   VRHFIN =Pd : s1 d9

   TITEL  = PAW_PBE Pd 04Jan2005
   POMASS =  106.420; ZVAL   =   10.000    mass and valenz
   ENMAX  =  250.925; ENMIN  =  188.194 eV

 POTCAR:    PAW_PBE C 08Apr2002
   VRHFIN =C: s2p2

   TITEL  = PAW_PBE C 08Apr2002
   POMASS =   12.011; ZVAL   =    4.000    mass and valenz
   ENMAX  =  400.000; ENMIN  =  300.000 eV

 POTCAR:    PAW_PBE O 08Apr2002
   VRHFIN =O: s2p4

   TITEL  = PAW_PBE O 08Apr2002
   POMASS =   16.000; ZVAL   =    6.000    mass and valenz
   ENMAX  =  400.000; ENMIN  =  300.000 eV

 POTCAR:    PAW_PBE H 15Jun2001
   VRHFIN =H: ultrasoft test

   TITEL  = PAW_PBE H 15Jun2001
   POMASS =    1.000; ZVAL   =    1.000    mass and valenz
   ENMAX  =  250.000; ENMIN  =  200.000 eV

 Optimization of the real space projectors (new method)

 maximal supplied QI-value         = 16.25
 optimisation between [QCUT,QGAM] = [ 11.38, 22.75] = [ 36.24,144.96] Ry
 Optimized for a Real-space Cutoff    1.52 Angstroem

   l    n(q)    QCUT    max X(q) W(low)/X(q) W(high)/X(q)  e(spline)
   2      9    11.376     4.610    0.21E-03    0.10E-03    0.26E-06
   2      9    11.376     8.522    0.33E-03    0.16E-03    0.37E-06
   0     10    11.376    51.609    0.62E-04    0.20E-04    0.13E-06
   0     10    11.376    27.747    0.54E-04    0.20E-04    0.13E-06
   1     10    11.376    20.408    0.13E-04    0.99E-04    0.19E-06
   1     10    11.376    13.425    0.12E-04    0.87E-04    0.17E-06
 Optimization of the real space projectors (new method)

[...]

   l    n(q)    QCUT    max X(q) W(low)/X(q) W(high)/X(q)  e(spline)
   0      7    11.387    20.381    0.39E-03    0.13E-02    0.15E-06
   0      7    11.387    15.268    0.42E-03    0.14E-02    0.17E-06
   1      6    11.387     5.964    0.41E-03    0.11E-02    0.17E-06
   1      6    11.387     5.382    0.39E-03    0.87E-03    0.15E-06
 Optimization of the real space projectors (new method)

 maximal supplied QI-value         = 34.20
 optimisation between [QCUT,QGAM] = [ 11.29, 22.57] = [ 35.68,142.71] Ry
 Optimized for a Real-space Cutoff    1.16 Angstroem

   l    n(q)    QCUT    max X(q) W(low)/X(q) W(high)/X(q)  e(spline)
   0      8    11.287    19.460    0.40E-03    0.73E-03    0.16E-06
   0      8    11.287    12.209    0.38E-03    0.70E-03    0.15E-06
   1      7    11.287     4.655    0.22E-03    0.25E-04    0.22E-06
  PAW_PBE Cu 22Jun2005                  :
  PAW_PBE Pd 04Jan2005                  :
  PAW_PBE C 08Apr2002                   :
  PAW_PBE O 08Apr2002                   :
  PAW_PBE H 15Jun2001                   :

 POSCAR: Cu-Pd-COH
  positions in direct lattice
  velocities in cartesian coordinates
 exchange correlation table for  LEXCH =        8
   RHO(1)=    0.500       N(1)  =     2000
   RHO(2)=  100.500       N(2)  =     4000

 VTST: version 3.2, (02/03/18)

 CHAIN: initializing optimizer

 OPT: Using VASP Conjugate-Gradient optimizer
 CHAIN: Read ICHAIN            0

 POSCAR: Cu-Pd-COH
  positions in direct lattice
  velocities in cartesian coordinates

 ion  position               nearest neighbor table
   1  0.000  0.000  0.206-   7 2.57   3 2.57   4 2.57   2 2.57   6 2.57   8 2.57  12 2.57  10 2.57
                            16 2.57
   2  0.333  0.000  0.206-   8 2.57   9 2.57   5 2.57   1 2.57   3 2.57  11 2.57   4 2.57  10 2.57
                            17 2.57
   3  0.667  0.000  0.206-   1 2.57   7 2.57   6 2.57   9 2.57   2 2.57  12 2.57   5 2.57  18 2.57
                            11 2.57
   4  0.000  0.333  0.206-   5 2.57   6 2.57   1 2.57   7 2.57   2 2.57  13 2.57   9 2.57  10 2.57
                            15 2.57
   5  0.333  0.333  0.206-   4 2.57   2 2.57   7 2.57  13 2.57   8 2.57   6 2.57   3 2.57  11 2.57
                            14 2.57
   6  0.667  0.333  0.206-   4 2.57   9 2.57  15 2.57   3 2.57   1 2.57   8 2.57  14 2.57   5 2.57
                            12 2.57
   7  0.000  0.667  0.206-   1 2.57   3 2.57  16 2.57  18 2.57   4 2.57   5 2.57   8 2.57   9 2.57
                            13 2.57
   8  0.333  0.667  0.206-   9 2.57   2 2.57  17 2.57   6 2.57   1 2.57   7 2.57   5 2.57  14 2.57
                            16 2.57
   9  0.667  0.667  0.206-   8 2.57   6 2.57   2 2.57  17 2.57   3 2.57   7 2.57   4 2.57  15 2.57
                            18 2.57
  10  0.111  0.111  0.286-  20 2.54  26 2.55  19 2.55  11 2.57  12 2.57  13 2.57   1 2.57   2 2.57
                             4 2.57  15 2.57  16 2.57  17 2.57
  11  0.444  0.111  0.286-  20 2.55  21 2.55  27 2.55  10 2.57  13 2.57   2 2.57  17 2.57  14 2.57
                            12 2.57   5 2.57   3 2.57  18 2.57
  12  0.778  0.111  0.286-  21 2.54  19 2.55  25 2.55  15 2.57  10 2.57  14 2.57  18 2.57   3 2.57
                             1 2.57  16 2.57  11 2.57   6 2.57
  13  0.111  0.444  0.286-  23 2.55  20 2.55  22 2.55  16 2.57  18 2.57  10 2.57  11 2.57  14 2.57
                             5 2.57   4 2.57   7 2.57  15 2.57
  14  0.444  0.444  0.286-  21 2.55  23 2.55  24 2.55  15 2.57  17 2.57  12 2.57  16 2.57  13 2.57
                            11 2.57   6 2.57   8 2.57   5 2.57
  15  0.778  0.444  0.286-  19 2.55  24 2.55  22 2.55  14 2.57  17 2.57  12 2.57   6 2.57  18 2.57
                            10 2.57   9 2.57  13 2.57   4 2.57
  16  0.111  0.778  0.286-  23 2.54  25 2.55  26 2.55  18 2.57  13 2.57   7 2.57  14 2.57  17 2.57
                            12 2.57  10 2.57   8 2.57   1 2.57
  17  0.444  0.778  0.286-  26 2.55  27 2.55  24 2.55  14 2.57  15 2.57   8 2.57   9 2.57  11 2.57
                            16 2.57  18 2.57  10 2.57   2 2.57
  18  0.778  0.778  0.286-  25 2.55  22 2.55  27 2.55  16 2.57  13 2.57   7 2.57  15 2.57  12 2.57
                            17 2.57   9 2.57   3 2.57  11 2.57
  19  0.889  0.222  0.365-  32 2.54  31 2.54  28 2.55  15 2.55  12 2.55  10 2.55  21 2.56  20 2.56
                            22 2.56  24 2.56  25 2.57  26 2.57
  20  0.222  0.222  0.365-  10 2.54  11 2.55  13 2.55  26 2.56  19 2.56  27 2.56  22 2.56  29 2.57
                            31 2.57  23 2.58  21 2.58  36 2.62
  21  0.557  0.222  0.365-  12 2.54  14 2.55  11 2.55  19 2.56  25 2.56  24 2.56  27 2.56  32 2.57
                            30 2.57  20 2.58  23 2.58  36 2.62
  22  0.889  0.555  0.365-  35 2.54  31 2.55  33 2.55  13 2.55  18 2.55  15 2.55  23 2.56  20 2.56
                            19 2.56  25 2.56  24 2.57  27 2.57
  23  0.222  0.557  0.365-  16 2.54  13 2.55  14 2.55  25 2.56  26 2.56  22 2.56  24 2.56  33 2.57
                            34 2.57  20 2.58  21 2.58  36 2.62
  24  0.555  0.555  0.365-  35 2.54  32 2.55  34 2.55  14 2.55  15 2.55  17 2.55  21 2.56  23 2.56
                            19 2.56  26 2.56  22 2.57  27 2.57
  25  0.889  0.889  0.365-  33 2.54  30 2.54  28 2.55  18 2.55  16 2.55  12 2.55  21 2.56  23 2.56
                            22 2.56  27 2.56  19 2.57  26 2.57
  26  0.222  0.889  0.365-  29 2.54  34 2.54  28 2.55  17 2.55  10 2.55  16 2.55  20 2.56  23 2.56
                            27 2.56  24 2.56  25 2.57  19 2.57
  27  0.555  0.889  0.365-  35 2.54  29 2.55  30 2.55  11 2.55  17 2.55  18 2.55  20 2.56  21 2.56
                            26 2.56  25 2.56  24 2.57  22 2.57
  28  0.000  0.000  0.444-  25 2.55  19 2.55  26 2.55  33 2.55  30 2.55  31 2.55  29 2.55  32 2.55
                            34 2.55
  29  0.333  0.996  0.445-  34 2.51  26 2.54  28 2.55  27 2.55  35 2.55  20 2.57  31 2.59  36 2.60
                            30 2.60
  30  0.671  0.996  0.445-  33 2.51  25 2.54  28 2.55  27 2.55  35 2.55  21 2.57  32 2.59  36 2.60
                            29 2.60
  31  0.996  0.333  0.445-  32 2.51  19 2.54  28 2.55  22 2.55  35 2.55  20 2.57  29 2.59  36 2.60
                            33 2.60
  32  0.671  0.333  0.445-  31 2.51  19 2.54  28 2.55  24 2.55  35 2.55  21 2.57  30 2.59  36 2.60
                            34 2.60
  33  0.996  0.671  0.445-  30 2.51  25 2.54  28 2.55  22 2.55  35 2.55  23 2.57  34 2.59  36 2.60
                            31 2.60
  34  0.333  0.671  0.445-  29 2.51  26 2.54  28 2.55  24 2.55  35 2.55  23 2.57  33 2.59  36 2.60
                            32 2.60
  35  0.667  0.667  0.444-  24 2.54  27 2.54  22 2.54  34 2.55  32 2.55  29 2.55  30 2.55  33 2.55
                            31 2.55
  36  0.333  0.333  0.448-  37 1.82  31 2.60  29 2.60  33 2.60  34 2.60  32 2.60  30 2.60  23 2.62
                            20 2.62  21 2.62
  37  0.333  0.333  0.517-  38 1.25  36 1.82
  38  0.333  0.333  0.565-  39 0.97  37 1.25
  39  0.333  0.333  0.602-  38 0.97

  LATTYP: Found a hexagonal cell.
 ALAT       =     7.6967864036
 C/A-ratio  =     3.3950614187

  Lattice vectors:

 A1 = (  -3.8483927580,  -6.6656128093,   0.0000000000)
 A2 = (   7.6967864037,   0.0000000000,   0.0000000000)
 A3 = (   0.0000000000,   0.0000000000,  26.1310625667)

Analysis of symmetry for initial positions (statically):
 Subroutine PRICEL returns:
 Original cell was already a primitive cell.

 Routine SETGRP: Setting up the symmetry group for a
 hexagonal supercell.

 Subroutine GETGRP returns: Found  6 space group operations
 (whereof  6 operations were pure point group operations)
 out of a pool of 24 trial point group operations.

The static configuration has the point symmetry C_3v.

Analysis of symmetry for dynamics (positions and initial velocities):
[...]
     41      -3.8318      2.00000
     42      -3.7859      2.00000
     43      -3.7535      2.00000
     44      -3.6613      2.00000
     45      -3.6586      2.00000
     46      -3.6050      2.00000
     47      -3.5728      2.00000
     48      -3.5654      2.00000
     49      -3.5553      2.00000
     50      -3.5530      2.00000
     51      -3.4638      2.00000
     52      -3.4458      2.00000
     53      -3.4169      2.00000
     54      -3.3732      2.00000
     55      -3.3249      2.00000
     56      -3.3199      2.00000
     57      -3.2804      2.00000
     58      -3.2606      2.00000
     59      -3.2491      2.00000
     60      -3.2302      2.00000
[...]
    238       5.2209      0.00000
    239       5.2527      0.00000
    240       5.4741      0.00000
    241       5.4931      0.00000
    242       5.5291      0.00000
    243       5.6332      0.00000
    244       5.6880      0.00000
    245       5.8271      0.00000
    246       5.8457      0.00000
    247       5.9692      0.00000
    248       6.1223      0.00000
    249       6.2955      0.00000
    250       6.3975      0.00000
    251       6.4856      0.00000
    252       6.8024      0.00000

 soft charge-density along one line, spin component           1
         0         1         2         3         4         5         6         7         8         9
 total charge-density along one line

------------------------ aborting loop because EDIFF is reached ----------------------------------------

 total charge

# of ion       s       p       d       tot
    1        0.445   0.287   9.186   9.918
    2        0.449   0.285   9.187   9.922
    3        0.449   0.285   9.187   9.922
    4        0.449   0.285   9.187   9.922
    5        0.446   0.286   9.189   9.921
    6        0.449   0.285   9.187   9.922
    7        0.449   0.285   9.187   9.922
    8        0.449   0.285   9.187   9.922
    9        0.445   0.288   9.185   9.918
   10        0.443   0.373   9.179   9.995
   11        0.442   0.371   9.179   9.992
   12        0.443   0.373   9.179   9.995
   13        0.442   0.371   9.179   9.992
   14        0.442   0.371   9.179   9.992
   15        0.440   0.371   9.182   9.993
   16        0.443   0.373   9.179   9.995
   17        0.440   0.371   9.182   9.993
   18        0.440   0.371   9.182   9.993
   19        0.446   0.376   9.182  10.003
   20        0.443   0.383   9.176  10.002
   21        0.443   0.383   9.176  10.002
   22        0.440   0.375   9.180   9.995
   23        0.443   0.383   9.176  10.002
   24        0.440   0.375   9.180   9.995
   25        0.446   0.376   9.182  10.003
   26        0.446   0.376   9.182  10.003
   27        0.440   0.375   9.180   9.995
   28        0.457   0.295   9.190   9.942
   29        0.443   0.300   9.198   9.941
   30        0.443   0.300   9.198   9.941
   31        0.443   0.300   9.198   9.941
   32        0.443   0.300   9.198   9.941
   33        0.443   0.300   9.198   9.941
   34        0.443   0.300   9.198   9.941
   35        0.456   0.296   9.190   9.942
   36        0.590   0.801   8.479   9.870
   37        0.945   1.366   0.000   2.311
   38        1.538   3.732   0.000   5.270
   39        0.551   0.126   0.000   0.677
tot         19.188  17.731 329.964 366.883

  FORCE on cell =-STRESS in cart. coord.  units (eV):
  Direction    XX          YY          ZZ          XY          YZ          ZX
  Alpha Z   738.41321   738.41321   738.41321
  Ewald  273201.29986273201.29942************     0.00040     0.00012     0.00020
  Hartree286379.15732286379.15729************     0.00004     0.00006     0.00008
  E(xc)   -2347.86677 -2347.86637 -2350.16163    -0.00034    -0.00003    -0.00005
  Local  ************************572609.80676     0.01884    -0.00060    -0.00100
  n-local  -784.79295  -771.56953  -788.93443     7.29611    -0.03888     0.18341
  augment  3391.63258  3391.65275  3398.29704    -0.01747     0.00035     0.00062
  Kinetic  3484.95462  3484.93711  3438.34806     1.64823     2.10978    -1.39624
  Fock        0.00000     0.00000     0.00000     0.00000     0.00000     0.00000
  Total      -0.75073    -0.75073     4.58139     0.00000    -0.00000    -0.00000
  in kB      -0.89720    -0.89720     5.47522     0.00000    -0.00000    -0.00000

 VOLUME and BASIS-vectors are now :
  energy-cutoff  :      500.00
  volume of cell :     1340.62
      direct lattice vectors                 reciprocal lattice vectors
     7.696786404  0.000000000  0.000000000     0.129924354 -0.075011849  0.000000000
     3.848392758  6.665612809  0.000000000     0.000000000  0.150023716  0.000000000
     0.000000000  0.000000000 26.131062567     0.000000000  0.000000000  0.038268631

  length of vectors
     7.696786404  7.696786404 26.131062567     0.150023716  0.150023716  0.038268631

 FORCES acting on ions
    electron-ion (+dipol)            ewald-force                    non-local-force                 convergence-correction
   -.435E-04 -.906E-06 0.397E+04   0.579E-04 -.442E-05 -.396E+04   -.134E-18 -.514E-17 -.249E+01   -.259E-03 -.117E-03 -.378E+00
   -.252E+00 -.482E-01 0.396E+04   0.343E+00 0.189E+00 -.396E+04   -.616E-01 -.112E+00 -.189E+01   -.326E-01 -.255E-01 -.205E+00
   0.252E+00 -.481E-01 0.396E+04   -.343E+00 0.188E+00 -.396E+04   0.616E-01 -.112E+00 -.189E+01   0.334E-01 -.228E-01 -.204E+00
   -.168E+00 -.194E+00 0.396E+04   0.335E+00 0.203E+00 -.396E+04   -.127E+00 0.252E-02 -.189E+01   -.383E-01 -.156E-01 -.205E+00
   -.698E-04 -.794E-05 0.396E+04   0.116E-03 -.101E-04 -.396E+04   0.322E-19 0.265E-17 -.229E+01   0.122E-01 0.746E-02 -.956E-01
   0.168E+00 -.194E+00 0.396E+04   -.335E+00 0.202E+00 -.396E+04   0.127E+00 0.252E-02 -.189E+01   0.367E-01 -.143E-01 -.204E+00
   0.845E-01 0.243E+00 0.396E+04   -.818E-02 -.391E+00 -.396E+04   -.659E-01 0.109E+00 -.189E+01   -.306E-02 0.403E-01 -.204E+00
   -.844E-01 0.243E+00 0.396E+04   0.791E-02 -.391E+00 -.396E+04   0.659E-01 0.109E+00 -.189E+01   0.662E-02 0.389E-01 -.204E+00
   -.146E-03 -.339E-04 0.396E+04   0.263E-03 0.206E-04 -.396E+04   -.145E-17 -.249E-18 -.217E+01   -.133E-01 -.687E-02 -.194E+00
   -.171E+01 -.987E+00 0.140E+04   0.187E+01 0.108E+01 -.140E+04   -.223E+00 -.129E+00 -.882E+00   0.915E-01 0.528E-01 0.230E+00
   -.904E-04 -.240E+01 0.139E+04   0.191E-03 0.242E+01 -.139E+04   0.663E-08 -.996E-01 -.974E+00   0.113E-01 0.530E-01 0.352E+00
   0.171E+01 -.987E+00 0.140E+04   -.187E+01 0.108E+01 -.140E+04   0.223E+00 -.129E+00 -.882E+00   -.930E-01 0.548E-01 0.230E+00
   -.208E+01 0.120E+01 0.139E+04   0.210E+01 -.121E+01 -.139E+04   -.862E-01 0.498E-01 -.974E+00   0.520E-01 -.159E-01 0.352E+00
   0.208E+01 0.120E+01 0.139E+04   -.210E+01 -.121E+01 -.139E+04   0.862E-01 0.498E-01 -.974E+00   -.278E-01 -.164E-01 0.352E+00
   -.141E-03 -.156E+01 0.140E+04   0.298E-03 0.154E+01 -.140E+04   0.109E-08 -.164E-01 -.499E+00   -.380E-02 0.389E-01 0.249E+00
   -.908E-04 0.197E+01 0.140E+04   0.186E-03 -.216E+01 -.140E+04   -.171E-07 0.257E+00 -.882E+00   -.152E-04 -.109E+00 0.230E+00
   -.135E+01 0.780E+00 0.140E+04   0.133E+01 -.770E+00 -.140E+04   -.142E-01 0.821E-02 -.499E+00   0.325E-01 -.228E-01 0.249E+00
   0.135E+01 0.780E+00 0.140E+04   -.133E+01 -.770E+00 -.140E+04   0.142E-01 0.821E-02 -.499E+00   -.321E-01 -.202E-01 0.249E+00
   -.593E-04 -.873E+00 -.118E+04   0.676E-04 0.769E+00 0.118E+04   -.283E-08 0.425E-01 0.582E+00   0.953E-02 0.567E-01 0.631E+00
   -.214E+02 -.123E+02 -.120E+04   0.216E+02 0.124E+02 0.120E+04   -.277E+00 -.160E+00 -.111E+00   0.137E+00 0.788E-01 0.568E+00
   0.214E+02 -.123E+02 -.120E+04   -.216E+02 0.124E+02 0.120E+04   0.277E+00 -.160E+00 -.111E+00   -.115E+00 0.812E-01 0.568E+00
   -.857E+01 0.495E+01 -.119E+04   0.819E+01 -.473E+01 0.119E+04   0.283E+00 -.163E+00 0.100E+01   0.110E+00 -.669E-01 0.530E+00
   -.741E-04 0.247E+02 -.120E+04   0.148E-03 -.249E+02 0.120E+04   -.213E-07 0.320E+00 -.111E+00   0.119E-01 -.141E+00 0.568E+00
   0.857E+01 0.495E+01 -.119E+04   -.819E+01 -.473E+01 0.119E+04   -.283E+00 -.163E+00 0.100E+01   -.113E+00 -.663E-01 0.530E+00
   0.756E+00 0.437E+00 -.118E+04   -.666E+00 -.385E+00 0.118E+04   -.368E-01 -.213E-01 0.582E+00   -.312E-01 -.180E-01 0.630E+00
   -.756E+00 0.437E+00 -.118E+04   0.666E+00 -.385E+00 0.118E+04   0.368E-01 -.213E-01 0.582E+00   0.542E-01 -.199E-01 0.631E+00
   -.133E-03 -.989E+01 -.119E+04   0.246E-03 0.946E+01 0.119E+04   -.217E-07 0.326E+00 0.100E+01   -.282E-02 0.129E+00 0.530E+00
   -.183E-04 0.273E-04 -.378E+04   0.371E-04 -.341E-04 0.377E+04   0.936E-18 0.217E-17 0.154E+01   0.674E-04 0.905E-04 0.607E+00
   -.261E+01 -.271E+01 -.375E+04   0.174E+01 0.109E+01 0.375E+04   0.698E+00 0.129E+01 0.259E+01   0.519E-01 0.943E-01 0.546E+00
   0.261E+01 -.271E+01 -.375E+04   -.174E+01 0.109E+01 0.375E+04   -.698E+00 0.129E+01 0.259E+01   -.514E-01 0.970E-01 0.547E+00
   -.365E+01 -.908E+00 -.375E+04   0.182E+01 0.964E+00 0.375E+04   0.147E+01 -.399E-01 0.259E+01   0.108E+00 -.224E-02 0.546E+00
   0.365E+01 -.908E+00 -.375E+04   -.182E+01 0.964E+00 0.375E+04   -.147E+01 -.399E-01 0.259E+01   -.109E+00 -.745E-03 0.546E+00
   -.104E+01 0.362E+01 -.375E+04   0.739E-01 -.206E+01 0.375E+04   0.768E+00 -.125E+01 0.259E+01   0.583E-01 -.931E-01 0.547E+00
   0.104E+01 0.362E+01 -.375E+04   -.742E-01 -.206E+01 0.375E+04   -.768E+00 -.125E+01 0.259E+01   -.546E-01 -.943E-01 0.546E+00
   -.153E-03 -.249E-04 -.378E+04   0.260E-03 0.311E-05 0.378E+04   -.704E-17 -.397E-17 0.173E+01   -.136E-01 -.700E-02 0.603E+00
   -.335E-04 -.385E-04 -.326E+04   0.120E-03 0.255E-04 0.326E+04   -.913E-17 -.941E-17 -.921E+00   0.426E-02 0.258E-02 0.646E+00
   -.538E-05 -.741E-04 -.151E+04   0.949E-05 0.460E-05 0.149E+04   -.104E-18 -.142E-19 0.202E+02   0.110E-02 0.666E-03 0.889E-01
   0.230E-03 -.721E-04 -.230E+04   0.218E-05 0.213E-05 0.230E+04   0.677E-18 -.140E-17 -.583E+01   0.337E-02 0.206E-02 -.216E+00
   0.318E-05 -.139E-04 -.408E+03   0.711E-07 0.140E-06 0.417E+03   0.149E-19 0.353E-19 -.821E+01   0.173E-03 0.106E-03 -.407E-01
   -.594E-04 -.207E-03 -.141E+02   -.167E-12 0.224E-13 -.654E-11   -.127E-15 -.459E-15 0.311E+01   0.907E-01 0.495E-01 0.107E+02

 POSITION                                       TOTAL-FORCE (eV/Angst)
      0.00000      0.00000      5.37156         0.000000     -0.000000      0.087892
      2.56560      0.00000      5.37156        -0.003341      0.004307      0.069286
      5.13119      0.00000      5.37156         0.003341      0.004307      0.069286
      1.28280      2.22187      5.37156         0.002059     -0.005047      0.069286
      3.84839      2.22187      5.37156         0.000000      0.000000      0.040384
      6.41399      2.22187      5.37156        -0.002059     -0.005047      0.069286
      2.56560      4.44374      5.37156         0.005400      0.000740      0.069286
      5.13119      4.44374      5.37156        -0.005400      0.000740      0.069286
      7.69679      4.44374      5.37156         0.000000     -0.000000      0.089267
      1.28280      0.74062      7.46636         0.033561      0.019376     -0.074009
      3.84839      0.74062      7.46636         0.000000     -0.028283     -0.141153
      6.41399      0.74062      7.46636        -0.033561      0.019376     -0.074009
      2.56560      2.96249      7.46636        -0.024494      0.014141     -0.141153
      5.13119      2.96249      7.46636         0.024494      0.014141     -0.141153
      7.69679      2.96249      7.46636        -0.000000      0.001089     -0.058073
      3.84839      5.18437      7.46636         0.000000     -0.038753     -0.074009
      6.41399      5.18437      7.46636         0.000943     -0.000544     -0.058073
      8.97958      5.18437      7.46636        -0.000943     -0.000544     -0.058073
      7.69679      1.48223      9.53996         0.000000     -0.011540     -0.006957
      2.55948      1.47772      9.53985         0.035554      0.020527     -0.129005
      5.13731      1.47772      9.53985        -0.035554      0.020527     -0.129005
      8.98047      3.70261      9.54732         0.022557     -0.013023      0.015308
      3.84839      3.71018      9.53985         0.000000     -0.041054     -0.129005
      6.41310      3.70261      9.54732        -0.022557     -0.013023      0.015308
     10.26153      5.92450      9.53996         0.009994      0.005770     -0.006957
      5.13204      5.92450      9.53996        -0.009994      0.005770     -0.006957
      7.69679      5.92601      9.54732        -0.000000      0.026046      0.015308
      0.00000      0.00000     11.61018         0.000000     -0.000000      0.000738
      6.39795      6.64100     11.62214        -0.117808     -0.231110     -0.015658
      8.99562      6.64100     11.62214         0.117808     -0.231110     -0.015658
      8.95025      2.22029     11.62214        -0.259051      0.013530     -0.015658
      6.44333      2.22029     11.62214         0.259051      0.013530     -0.015658
     10.24908      4.46994     11.62214        -0.141243      0.217580     -0.015658
      5.14449      4.46994     11.62214         0.141243      0.217580     -0.015658
      7.69679      4.44374     11.61116         0.000000      0.000000      0.036318
      3.84839      2.22187     11.69545         0.000000     -0.000000      0.622095
      3.84839      2.22187     13.51382         0.000000      0.000000      0.034350
      3.84839      2.22187     14.76831         0.000000     -0.000000     -0.080922
      3.84839      2.22187     15.73800         0.000000      0.000000      0.029779
    total drift:                                0.090681      0.049318     -0.260102

  FREE ENERGIE OF THE ION-ELECTRON SYSTEM (eV)
  free  energy   TOTEN  =      -144.14985231 eV

  energy  without entropy=     -144.14985231  energy(sigma->0) =     -144.14985231

 stress matrix after NEB project (eV)
     -0.75073      0.00000     -0.00000
      0.00000     -0.75073     -0.00000
     -0.00000     -0.00000      4.58139
  FORCES: max atom, RMS     0.080922    0.014863
  FORCE total and by dimension    0.092817    0.080922
  Stress total and by dimension    4.702802    4.581392
|           W    W    AA    RRRRR   N    N  II  N    N   GGGG   !!!           |
|           W    W   A  A   R    R  NN   N  II  NN   N  G    G  !!!           |
|           W    W  A    A  R    R  N N  N  II  N N  N  G       !!!           |
|           W WW W  AAAAAA  RRRRR   N  N N  II  N  N N  G  GGG   !            |
|           WW  WW  A    A  R   R   N   NN  II  N   NN  G    G                |
|           W    W  A    A  R    R  N    N  II  N    N   GGGG   !!!           |
|     Tetrahedron method does not include variations of the Fermi             |
|     occupations, so forces and stress will be inaccurate. We suggest        |
|     using a different smearing scheme ISMEAR = 1 or 2 for metals in         |
|     relaxations.                                                            |

 total charge

# of ion       s       p       d       tot
    1        0.445   0.287   9.186   9.918
    2        0.449   0.285   9.187   9.922
    3        0.449   0.285   9.187   9.922
    4        0.449   0.285   9.187   9.922
    5        0.446   0.286   9.189   9.921
    6        0.449   0.285   9.187   9.922
    7        0.449   0.285   9.187   9.922
    8        0.449   0.285   9.187   9.922
    9        0.445   0.288   9.185   9.918
   10        0.443   0.373   9.179   9.995
   11        0.442   0.371   9.179   9.992
   12        0.443   0.373   9.179   9.995
   13        0.442   0.371   9.179   9.992
   14        0.442   0.371   9.179   9.992
   15        0.440   0.371   9.182   9.993
   16        0.443   0.373   9.179   9.995
   17        0.440   0.371   9.182   9.993
   18        0.440   0.371   9.182   9.993
   19        0.446   0.376   9.182  10.003
   20        0.443   0.383   9.176  10.002
   21        0.443   0.383   9.176  10.002
   22        0.440   0.375   9.180   9.995
   23        0.443   0.383   9.176  10.002
   24        0.440   0.375   9.180   9.995
   25        0.446   0.376   9.182  10.003
   26        0.446   0.376   9.182  10.003
   27        0.440   0.375   9.180   9.995
   28        0.457   0.295   9.190   9.942
   29        0.443   0.300   9.198   9.941
   30        0.443   0.300   9.198   9.941
   31        0.443   0.300   9.198   9.941
   32        0.443   0.300   9.198   9.941
   33        0.443   0.300   9.198   9.941
   34        0.443   0.300   9.198   9.941
   35        0.456   0.296   9.190   9.942
   36        0.590   0.801   8.479   9.870
   37        0.945   1.366   0.000   2.311
   38        1.538   3.732   0.000   5.270
   39        0.551   0.126   0.000   0.677
tot         19.188  17.731 329.964 366.883

 BZINTS: Fermi energy:    0.105165;  406.000000 electrons
         Band energy:-0.120322E+04;  BLOECHL correction:   -0.060272