 vasp.6.2.0 18Jan21 (build Jun 12 2021 23:27:24) complex

 executed on             LinuxIFC date 2022.05.27  05:46:32

 INCAR:
   ISMEAR = -5
   SIGMA = 0.1
   ISPIN = 1
   EDIFF = 1.d-5
   EDIFFG = -0.01
   NSW = 0
   NELM = 150
   ENCUT = 500
   ISIF = 2
   IBRION = 2
   LREAL = Auto
   ALGO = Fast
   ICHARG = 11
   LORBIT = 10
   LCHARG = .F.
   LWAVE = .F.

 POTCAR:    PAW_PBE Ag 02Apr2005
 POTCAR:    PAW_PBE Hf 20Jan2003
 POTCAR:    PAW_PBE C 08Apr2002
 POTCAR:    PAW_PBE O 08Apr2002
|           W    W    AA    RRRRR   N    N  II  N    N   GGGG   !!!           |
|           W    W   A  A   R    R  NN   N  II  NN   N  G    G  !!!           |
|           W    W  A    A  R    R  N N  N  II  N N  N  G       !!!           |
|           W WW W  AAAAAA  RRRRR   N  N N  II  N  N N  G  GGG   !            |
|           WW  WW  A    A  R   R   N   NN  II  N   NN  G    G                |
|           W    W  A    A  R    R  N    N  II  N    N   GGGG   !!!           |
|     For optimal performance we recommend to set                             |
|       NCORE = 2 up to number-of-cores-per-socket                            |
|     This setting can greatly improve the performance of VASP for DFT.       |
|     The default, NCORE=1 might be grossly inefficient on modern             |
|     multi-core architectures or massively parallel machines. Do your        |
|     Unfortunately you need to use the default for GW and RPA                |
|     calculations (for HF NCORE is supported but not extensively tested      |
|     yet).                                                                   |

 POTCAR:    PAW_PBE Ag 02Apr2005
   VRHFIN =Ag : s1 d10

   TITEL  = PAW_PBE Ag 02Apr2005
   POMASS =  107.868; ZVAL   =   11.000    mass and valenz
   ENMAX  =  249.844; ENMIN  =  187.383 eV

 POTCAR:    PAW_PBE Hf 20Jan2003
   VRHFIN =Hf: 6s5d

   TITEL  = PAW_PBE Hf 20Jan2003
   POMASS =  178.490; ZVAL   =    4.000    mass and valenz
   ENMAX  =  220.334; ENMIN  =  165.250 eV

 POTCAR:    PAW_PBE C 08Apr2002
   VRHFIN =C: s2p2

[...]

 POTCAR:    PAW_PBE O 08Apr2002
   VRHFIN =O: s2p4

   TITEL  = PAW_PBE O 08Apr2002
   POMASS =   16.000; ZVAL   =    6.000    mass and valenz
   ENMAX  =  400.000; ENMIN  =  300.000 eV

 Optimization of the real space projectors (new method)

 maximal supplied QI-value         = 15.12
 optimisation between [QCUT,QGAM] = [ 11.34, 22.83] = [ 36.00,145.93] Ry
 Optimized for a Real-space Cutoff    1.43 Angstroem

   l    n(q)    QCUT    max X(q) W(low)/X(q) W(high)/X(q)  e(spline)
   2      9    11.338    53.897    0.16E-03    0.20E-03    0.28E-06
   2      9    11.338    52.416    0.16E-03    0.20E-03    0.29E-06
   0     10    11.338   122.045    0.31E-04    0.76E-04    0.15E-06
   0     10    11.338    73.629    0.30E-04    0.72E-04    0.15E-06
   1      9    11.338    15.255    0.20E-03    0.19E-04    0.17E-06
   1      9    11.338     9.562    0.16E-03    0.15E-04    0.14E-06
 Optimization of the real space projectors (new method)

[...]

   l    n(q)    QCUT    max X(q) W(low)/X(q) W(high)/X(q)  e(spline)
   0      7    11.310   115.676    0.43E-03    0.13E-02    0.19E-06
   0      7    11.310    87.132    0.43E-03    0.13E-02    0.18E-06
   1      6    11.310     4.429    0.42E-03    0.74E-03    0.11E-06
   1      6    11.310     2.733    0.34E-03    0.55E-03    0.92E-07
 Optimization of the real space projectors (new method)

 maximal supplied QI-value         = 24.76
 optimisation between [QCUT,QGAM] = [ 11.39, 22.77] = [ 36.31,145.25] Ry
 Optimized for a Real-space Cutoff    1.00 Angstroem

   l    n(q)    QCUT    max X(q) W(low)/X(q) W(high)/X(q)  e(spline)
   0      7    11.387    20.381    0.39E-03    0.13E-02    0.15E-06
   0      7    11.387    15.268    0.42E-03    0.14E-02    0.17E-06
   1      6    11.387     5.964    0.41E-03    0.11E-02    0.17E-06
   1      6    11.387     5.382    0.39E-03    0.87E-03    0.15E-06
  PAW_PBE Ag 02Apr2005                  :
  PAW_PBE Hf 20Jan2003                  :
  PAW_PBE C 08Apr2002                   :
  PAW_PBE O 08Apr2002                   :

 POSCAR: Ag-Hf-CO
  positions in direct lattice
  velocities in cartesian coordinates
 exchange correlation table for  LEXCH =        8
   RHO(1)=    0.500       N(1)  =     2000
   RHO(2)=  100.500       N(2)  =     4000

 VTST: version 3.2, (02/03/18)

 CHAIN: initializing optimizer

 OPT: Using VASP Conjugate-Gradient optimizer
 CHAIN: Read ICHAIN            0

 POSCAR: Ag-Hf-CO
  positions in direct lattice
  velocities in cartesian coordinates

 ion  position               nearest neighbor table
   1  0.000  0.000  0.238-   2 2.93   8 2.93   7 2.93   6 2.93   4 2.93  12 2.93  16 2.93  10 2.93
                             3 2.93
   2  0.333  0.000  0.238-   1 2.93   8 2.93   9 2.93   3 2.93   4 2.93   5 2.93  10 2.93  17 2.93
                            11 2.93
   3  0.667  0.000  0.238-   9 2.93   2 2.93   5 2.93  11 2.93   7 2.93  18 2.93   1 2.93   6 2.93
                            12 2.93
   4  0.000  0.333  0.238-   5 2.93   6 2.93   2 2.93   1 2.93   7 2.93  13 2.93  15 2.93   9 2.93
                            10 2.93
   5  0.333  0.333  0.238-   4 2.93   3 2.93   7 2.93   2 2.93   8 2.93  14 2.93  13 2.93  11 2.93
                             6 2.93
   6  0.667  0.333  0.238-   4 2.93   9 2.93   1 2.93  15 2.93   8 2.93  12 2.93   3 2.93   5 2.93
                            14 2.93
   7  0.000  0.667  0.238-   8 2.93   1 2.93   5 2.93   3 2.93   4 2.93  16 2.93  18 2.93  13 2.93
                             9 2.93
   8  0.333  0.667  0.238-   7 2.93   1 2.93   2 2.93   9 2.93   5 2.93  16 2.93   6 2.93  17 2.93
                            14 2.93
   9  0.667  0.667  0.238-   3 2.93   2 2.93   8 2.93   6 2.93  17 2.93   4 2.93  15 2.93   7 2.93
                            18 2.93
  10  0.111  0.111  0.346-  20 2.90  19 2.92  26 2.92  12 2.93  16 2.93  15 2.93  17 2.93  13 2.93
                            11 2.93   2 2.93   1 2.93   4 2.93
  11  0.444  0.111  0.346-  21 2.90  20 2.90  14 2.93  17 2.93  18 2.93   3 2.93  12 2.93  13 2.93
                            10 2.93   5 2.93   2 2.93  27 2.93
  12  0.778  0.111  0.346-  21 2.90  25 2.92  19 2.92  10 2.93  16 2.93  18 2.93  15 2.93  11 2.93
                             1 2.93  14 2.93   6 2.93   3 2.93
  13  0.111  0.444  0.346-  20 2.90  23 2.90  15 2.93  14 2.93  18 2.93  10 2.93  11 2.93  16 2.93
                             4 2.93   5 2.93   7 2.93  22 2.93
  14  0.444  0.444  0.346-  23 2.90  21 2.90  13 2.93  11 2.93  16 2.93   5 2.93  12 2.93  17 2.93
                             8 2.93  15 2.93   6 2.93  24 2.93
  15  0.778  0.444  0.346-  19 2.92  24 2.93  22 2.93  13 2.93  10 2.93  12 2.93  17 2.93  18 2.93
                             4 2.93   6 2.93   9 2.93  14 2.93
  16  0.111  0.778  0.346-  23 2.90  26 2.92  25 2.92  18 2.93  12 2.93  10 2.93  14 2.93  17 2.93
                            13 2.93   7 2.93   8 2.93   1 2.93
  17  0.444  0.778  0.346-  26 2.92  27 2.93  24 2.93  11 2.93  10 2.93   9 2.93  18 2.93  15 2.93
                            16 2.93   2 2.93  14 2.93   8 2.93
  18  0.778  0.778  0.346-  25 2.92  22 2.93  27 2.93  16 2.93  12 2.93  13 2.93  11 2.93  17 2.93
                            15 2.93   7 2.93   3 2.93   9 2.93
  19  0.889  0.222  0.454-  10 2.92  12 2.92  15 2.92  20 2.93  21 2.93  26 2.93  25 2.93  24 2.93
                            22 2.93  28 2.94  32 2.98  31 2.98
  20  0.222  0.222  0.452-  36 2.86  10 2.90  13 2.90  11 2.90  19 2.93  26 2.93  27 2.93  22 2.93
                            21 2.94  23 2.94  31 2.97  29 2.97
  21  0.556  0.222  0.452-  36 2.86  12 2.90  11 2.90  14 2.90  25 2.93  19 2.93  27 2.93  24 2.93
                            20 2.94  23 2.94  30 2.97  32 2.97
  22  0.889  0.556  0.454-  24 2.93  27 2.93  18 2.93  15 2.93  25 2.93  19 2.93  13 2.93  23 2.93
                            20 2.93  35 2.94  33 2.96  31 2.96
  23  0.222  0.556  0.452-  36 2.86  16 2.90  14 2.90  13 2.90  26 2.93  25 2.93  22 2.93  24 2.93
                            21 2.94  20 2.94  34 2.97  33 2.97
  24  0.556  0.556  0.454-  27 2.93  22 2.93  15 2.93  17 2.93  19 2.93  26 2.93  14 2.93  23 2.93
                            21 2.93  35 2.94  32 2.96  34 2.96
  25  0.889  0.889  0.454-  16 2.92  12 2.92  18 2.92  23 2.93  21 2.93  26 2.93  19 2.93  22 2.93
                            27 2.93  28 2.94  33 2.98  30 2.98
  26  0.222  0.889  0.454-  16 2.92  10 2.92  17 2.92  23 2.93  20 2.93  25 2.93  19 2.93  27 2.93
                            24 2.93  28 2.94  34 2.98  29 2.98
  27  0.556  0.889  0.454-  24 2.93  22 2.93  17 2.93  18 2.93  26 2.93  25 2.93  11 2.93  20 2.93
                            21 2.93  35 2.94  29 2.96  30 2.96
  28  0.000  0.000  0.562-  26 2.94  25 2.94  19 2.94  29 2.94  34 2.94  33 2.94  32 2.94  31 2.94
                            30 2.94
  29  0.333  0.003  0.563-  30 2.90  31 2.91  36 2.91  35 2.94  28 2.94  27 2.96  20 2.97  26 2.98
                            34 2.98
  30  0.664  0.003  0.563-  29 2.90  32 2.91  36 2.91  35 2.94  28 2.94  27 2.96  21 2.97  25 2.98
                            33 2.98
  31  0.003  0.333  0.563-  33 2.90  29 2.91  36 2.91  35 2.94  28 2.94  22 2.96  20 2.97  19 2.98
                            32 2.98
  32  0.664  0.333  0.563-  34 2.90  30 2.91  36 2.91  35 2.94  28 2.94  24 2.96  21 2.97  19 2.98
                            31 2.98
  33  0.003  0.664  0.563-  31 2.90  34 2.91  36 2.91  35 2.94  28 2.94  22 2.96  23 2.97  25 2.98
                            30 2.98
  34  0.333  0.664  0.563-  32 2.90  33 2.91  36 2.91  35 2.94  28 2.94  24 2.96  23 2.97  26 2.98
                            29 2.98
  35  0.667  0.667  0.563-  30 2.94  29 2.94  32 2.94  34 2.94  31 2.94  33 2.94  24 2.94  27 2.94
                            22 2.94
  36  0.333  0.333  0.556-  37 2.21  21 2.86  20 2.86  23 2.86  31 2.91  33 2.91  30 2.91  29 2.91
                            34 2.91  32 2.91
  37  0.333  0.333  0.656-  38 1.16  36 2.21
  38  0.333  0.333  0.708-  37 1.16

  LATTYP: Found a hexagonal cell.
 ALAT       =     8.7913665772
 C/A-ratio  =     2.5227160501

  Lattice vectors:

 A1 = (  -4.3956832886,  -7.6135467898,   0.0000000000)
 A2 = (   8.7913665771,   0.0000000000,   0.0000000000)
 A3 = (   0.0000000000,   0.0000000000,  22.1781215668)

Analysis of symmetry for initial positions (statically):
 Subroutine PRICEL returns:
 Original cell was already a primitive cell.

 Routine SETGRP: Setting up the symmetry group for a
 hexagonal supercell.

 Subroutine GETGRP returns: Found  6 space group operations
 (whereof  6 operations were pure point group operations)
 out of a pool of 24 trial point group operations.

The static configuration has the point symmetry C_3v.

Analysis of symmetry for dynamics (positions and initial velocities):
 Subroutine PRICEL returns:
 Original cell was already a primitive cell.

[...]

The dynamic configuration has the point symmetry C_3v.

Analysis of constrained symmetry for selective dynamics:
 Subroutine PRICEL returns:
 Original cell was already a primitive cell.

 Routine SETGRP: Setting up the symmetry group for a
 hexagonal supercell.

[...]
     33      -4.5607      2.00000
     34      -4.5598      2.00000
     35      -4.5227      2.00000
     36      -4.5080      2.00000
     37      -4.4947      2.00000
     38      -4.4816      2.00000
     39      -4.4528      2.00000
     40      -4.4430      2.00000
     41      -4.4106      2.00000
     42      -4.3698      2.00000
     43      -4.3404      2.00000
     44      -4.3376      2.00000
     45      -4.3279      2.00000
     46      -4.3171      2.00000
     47      -4.3046      2.00000
     48      -4.2131      2.00000
     49      -4.1935      2.00000
     50      -4.1800      2.00000
     51      -4.1738      2.00000
     52      -4.1626      2.00000
     53      -4.1590      2.00000
     54      -4.1544      2.00000
     55      -4.1494      2.00000
     56      -4.1366      2.00000
     57      -4.1324      2.00000
     58      -4.0722      2.00000
     59      -4.0643      2.00000
     60      -4.0526      2.00000
[...]
    238       6.0524      0.00000
    239       6.2244      0.00000
    240       6.2989      0.00000
    241       6.3441      0.00000
    242       6.3843      0.00000
    243       6.5059      0.00000
    244       7.2505      0.00000
    245       7.2892      0.00000
    246       7.3273      0.00000
    247       7.3964      0.00000
    248       7.4115      0.00000
    249       7.4341      0.00000
    250       7.4474      0.00000
    251       7.6207      0.00000
    252       7.6991      0.00000

 soft charge-density along one line, spin component           1
         0         1         2         3         4         5         6         7         8         9
 total charge-density along one line

------------------------ aborting loop because EDIFF is reached ----------------------------------------

 total charge

# of ion       s       p       d       tot
    1        0.423   0.199   9.178   9.800
    2        0.412   0.204   9.178   9.794
    3        0.412   0.204   9.178   9.794
    4        0.412   0.204   9.178   9.794
    5        0.423   0.203   9.174   9.800
    6        0.412   0.204   9.178   9.794
    7        0.412   0.204   9.178   9.794
    8        0.412   0.204   9.178   9.794
    9        0.419   0.200   9.178   9.797
   10        0.411   0.270   9.161   9.841
   11        0.407   0.267   9.168   9.843
   12        0.411   0.270   9.161   9.841
   13        0.407   0.267   9.168   9.843
   14        0.407   0.267   9.168   9.843
   15        0.403   0.268   9.164   9.835
   16        0.411   0.270   9.161   9.841
   17        0.403   0.268   9.164   9.835
   18        0.403   0.268   9.164   9.835
   19        0.403   0.266   9.163   9.832
   20        0.444   0.298   9.132   9.873
   21        0.444   0.298   9.132   9.873
   22        0.396   0.270   9.165   9.830
   23        0.444   0.298   9.132   9.873
   24        0.396   0.270   9.165   9.830
   25        0.403   0.266   9.163   9.832
   26        0.403   0.266   9.163   9.832
   27        0.396   0.270   9.165   9.830
   28        0.407   0.204   9.175   9.785
   29        0.450   0.221   9.146   9.817
   30        0.450   0.221   9.146   9.817
   31        0.450   0.221   9.146   9.817
   32        0.450   0.221   9.146   9.817
   33        0.450   0.221   9.146   9.817
   34        0.450   0.221   9.146   9.817
   35        0.405   0.204   9.176   9.785
   36        0.549   0.514   1.903   2.966
   37        0.978   1.525   0.000   2.503
   38        1.617   3.523   0.000   5.139
tot         17.781  14.038 322.587 354.405

  FORCE on cell =-STRESS in cart. coord.  units (eV):
  Direction    XX          YY          ZZ          XY          YZ          ZX
  Alpha Z   761.36415   761.36415   761.36415
  Ewald  114929.00135114929.00124************    -0.00000    -0.00001     0.00002
  Hartree125192.75988125192.75984************    -0.00000    -0.00000     0.00000
  E(xc)   -2088.78519 -2088.78523 -2094.41908     0.00004     0.00000     0.00000
  Local  ************************250725.69478     0.00059    -0.00005    -0.00015
  n-local  -336.85469  -319.61213  -338.96410     9.78233    -0.47029     0.51429
  augment  3224.96091  3224.96114  3239.05786    -0.00020     0.00000    -0.00001
  Kinetic  4990.14337  4989.45035  5004.12051     0.45930     0.76083    -0.45870
  Fock        0.00000     0.00000     0.00000     0.00000     0.00000     0.00000
  Total      -8.58647    -8.58647    -0.76588    -0.00000     0.00000     0.00000
  in kB      -9.26738    -9.26738    -0.82662    -0.00000     0.00000     0.00000

 VOLUME and BASIS-vectors are now :
  energy-cutoff  :      500.00
  volume of cell :     1484.46
      direct lattice vectors                 reciprocal lattice vectors
     8.791366577  0.000000000  0.000000000     0.113747958 -0.065672414  0.000000000
     4.395683289  7.613546790  0.000000000     0.000000000  0.131344829  0.000000000
     0.000000000  0.000000000 22.178121567     0.000000000  0.000000000  0.045089481

  length of vectors
     8.791366577  8.791366577 22.178121567     0.131344829  0.131344829  0.045089481

 FORCES acting on ions
    electron-ion (+dipol)            ewald-force                    non-local-force                 convergence-correction
   0.459E-04 -.282E-04 0.248E+04   -.953E-04 0.592E-04 -.248E+04   0.109E-16 0.436E-18 -.176E+01   -.833E-04 -.155E-03 0.998E-01
   -.228E+00 0.288E-01 0.248E+04   0.314E+00 0.979E-01 -.248E+04   0.125E-01 0.123E+00 -.167E+01   -.881E-01 -.243E+00 0.217E+00
   0.228E+00 0.288E-01 0.248E+04   -.314E+00 0.979E-01 -.248E+04   -.125E-01 0.123E+00 -.167E+01   0.875E-01 -.241E+00 0.218E+00
   -.890E-01 -.212E+00 0.248E+04   0.242E+00 0.223E+00 -.248E+04   0.113E+00 -.507E-01 -.167E+01   -.254E+00 0.455E-01 0.217E+00
   -.625E-05 -.192E-04 0.248E+04   0.980E-04 -.199E-05 -.248E+04   0.916E-18 -.587E-18 -.966E+00   0.618E-02 0.378E-02 0.577E+00
   0.890E-01 -.212E+00 0.248E+04   -.242E+00 0.223E+00 -.248E+04   -.113E+00 -.507E-01 -.167E+01   0.253E+00 0.464E-01 0.218E+00
   0.139E+00 0.183E+00 0.248E+04   -.722E-01 -.321E+00 -.248E+04   0.100E+00 -.724E-01 -.167E+01   -.165E+00 0.197E+00 0.218E+00
   -.139E+00 0.183E+00 0.248E+04   0.721E-01 -.321E+00 -.248E+04   -.100E+00 -.724E-01 -.167E+01   0.166E+00 0.196E+00 0.218E+00
   0.370E-04 -.129E-04 0.248E+04   0.792E-04 -.642E-04 -.248E+04   0.373E-17 0.283E-17 -.162E+01   -.663E-02 -.341E-02 0.213E+00
   -.105E+01 -.609E+00 0.827E+03   0.125E+01 0.721E+00 -.826E+03   -.246E+00 -.142E+00 -.647E+00   0.643E-02 0.374E-02 0.754E-01
   -.282E-04 -.136E+01 0.820E+03   0.400E-04 0.137E+01 -.820E+03   0.330E-12 0.503E-01 -.167E+00   0.617E-02 -.983E-01 0.852E-01
   0.105E+01 -.609E+00 0.827E+03   -.125E+01 0.721E+00 -.826E+03   0.246E+00 -.142E+00 -.647E+00   -.770E-02 0.438E-02 0.745E-01
   -.118E+01 0.682E+00 0.820E+03   0.119E+01 -.685E+00 -.820E+03   0.435E-01 -.251E-01 -.167E+00   -.821E-01 0.545E-01 0.852E-01
   0.118E+01 0.682E+00 0.820E+03   -.119E+01 -.685E+00 -.820E+03   -.435E-01 -.251E-01 -.167E+00   0.924E-01 0.536E-01 0.835E-01
   0.150E-04 -.113E+01 0.825E+03   -.107E-03 0.102E+01 -.824E+03   0.256E-12 0.389E-01 -.654E+00   -.126E-02 0.579E-01 0.352E-01
   -.781E-05 0.122E+01 0.827E+03   0.205E-04 -.144E+01 -.826E+03   0.187E-11 0.285E+00 -.647E+00   -.962E-04 -.893E-02 0.745E-01
   -.978E+00 0.565E+00 0.825E+03   0.886E+00 -.512E+00 -.824E+03   0.337E-01 -.195E-01 -.654E+00   0.494E-01 -.300E-01 0.352E-01
   0.978E+00 0.564E+00 0.825E+03   -.886E+00 -.512E+00 -.824E+03   -.337E-01 -.195E-01 -.654E+00   -.493E-01 -.285E-01 0.360E-01
   0.378E-04 -.665E+01 -.831E+03   -.125E-03 0.666E+01 0.831E+03   0.304E-13 0.463E-02 0.761E+00   0.109E-02 -.350E-02 -.256E+00
   -.384E+02 -.222E+02 -.866E+03   0.395E+02 0.228E+02 0.867E+03   -.104E+01 -.599E+00 -.729E+00   -.840E-01 -.485E-01 -.157E+00
   0.384E+02 -.222E+02 -.866E+03   -.395E+02 0.228E+02 0.867E+03   0.104E+01 -.599E+00 -.729E+00   0.731E-01 -.490E-01 -.158E+00
   -.172E+02 0.991E+01 -.838E+03   0.170E+02 -.982E+01 0.838E+03   0.121E+00 -.698E-01 0.391E+00   0.269E-01 -.151E-01 -.316E+00
   -.494E-04 0.444E+02 -.866E+03   0.350E-04 -.456E+02 0.867E+03   0.787E-11 0.120E+01 -.729E+00   -.555E-02 0.885E-01 -.158E+00
   0.172E+02 0.991E+01 -.838E+03   -.170E+02 -.982E+01 0.838E+03   -.121E+00 -.698E-01 0.391E+00   -.253E-01 -.145E-01 -.316E+00
   0.576E+01 0.333E+01 -.831E+03   -.577E+01 -.333E+01 0.831E+03   -.401E-02 -.231E-02 0.761E+00   0.296E-02 0.156E-02 -.257E+00
   -.576E+01 0.333E+01 -.831E+03   0.577E+01 -.333E+01 0.831E+03   0.401E-02 -.231E-02 0.761E+00   -.279E-02 0.258E-02 -.256E+00
   0.192E-04 -.198E+02 -.838E+03   0.110E-03 0.196E+02 0.838E+03   0.916E-12 0.140E+00 0.391E+00   -.311E-03 0.309E-01 -.316E+00
   0.548E-04 -.352E-04 -.241E+04   -.115E-03 0.768E-04 0.241E+04   0.166E-17 -.838E-18 0.175E+01   0.264E-03 0.177E-04 -.407E+00
   -.185E+02 -.369E+02 -.239E+04   0.194E+02 0.382E+02 0.239E+04   -.951E+00 -.143E+01 0.823E+00   -.195E-01 0.931E-02 -.508E+00
   0.185E+02 -.369E+02 -.239E+04   -.194E+02 0.382E+02 0.239E+04   0.951E+00 -.143E+01 0.823E+00   0.186E-01 0.102E-01 -.508E+00
   -.412E+02 0.243E+01 -.239E+04   0.428E+02 -.230E+01 0.239E+04   -.171E+01 -.109E+00 0.823E+00   -.146E-02 -.214E-01 -.508E+00
   0.412E+02 0.243E+01 -.239E+04   -.428E+02 -.230E+01 0.239E+04   0.171E+01 -.109E+00 0.823E+00   0.155E-02 -.204E-01 -.507E+00
   -.227E+02 0.344E+02 -.239E+04   0.234E+02 -.359E+02 0.239E+04   -.763E+00 0.154E+01 0.823E+00   0.186E-01 0.116E-01 -.508E+00
   0.227E+02 0.344E+02 -.239E+04   -.234E+02 -.359E+02 0.239E+04   0.763E+00 0.154E+01 0.823E+00   -.173E-01 0.116E-01 -.507E+00
   0.253E-04 -.126E-04 -.242E+04   0.103E-03 -.654E-04 0.241E+04   0.250E-17 0.290E-17 0.190E+01   -.633E-02 -.322E-02 -.343E+00
   -.137E-04 0.264E-05 -.797E+03   0.378E-04 0.404E-05 0.799E+03   -.318E-17 -.127E-17 -.133E+01   0.112E-03 0.713E-04 -.196E+00
   0.327E-05 -.789E-04 -.722E+03   0.122E-04 0.104E-06 0.703E+03   0.211E-18 0.652E-18 0.196E+02   0.100E-02 0.614E-03 -.611E-01
   0.237E-03 -.937E-04 -.136E+04   0.631E-05 0.314E-08 0.142E+04   0.340E-18 0.214E-19 -.589E+02   0.364E-02 0.223E-02 0.960E-01
   0.578E-03 -.853E-03 0.530E+02   0.331E-13 -.118E-13 0.682E-12   0.222E-15 0.668E-15 -.495E+02   -.141E-02 0.254E-02 -.337E+01

 POSITION                                       TOTAL-FORCE (eV/Angst)
      0.00000      0.00000      5.28219        -0.000000      0.000000     -0.013612
      2.93046      0.00000      5.28219         0.010899      0.007544      0.026440
      5.86091      0.00000      5.28219        -0.010899      0.007544      0.026440
      1.46523      2.53785      5.28219         0.011983      0.005667      0.026440
      4.39568      2.53785      5.28219        -0.000000     -0.000000     -0.008887
      7.32614      2.53785      5.28219        -0.011983      0.005667      0.026440
      2.93046      5.07570      5.28219         0.001084     -0.013211      0.026440
      5.86091      5.07570      5.28219        -0.001084     -0.013211      0.026440
      8.79137      5.07570      5.28219        -0.000000     -0.000000      0.006124
      1.46523      0.84595      7.67490        -0.045212     -0.026103     -0.074988
      4.39568      0.84595      7.67490        -0.000000     -0.044923     -0.073330
      7.32614      0.84595      7.67490         0.045212     -0.026103     -0.074988
      2.93046      3.38380      7.67490        -0.038904      0.022461     -0.073330
      5.86091      3.38380      7.67490         0.038904      0.022461     -0.073330
      8.79137      3.38380      7.67490        -0.000000     -0.009327      0.011399
      4.39568      5.92165      7.67490         0.000000      0.052206     -0.074988
      7.32614      5.92165      7.67490        -0.008077      0.004663      0.011399
     10.25659      5.92165      7.67490         0.008077      0.004663      0.011399
      8.79137      1.69178     10.05827         0.000000      0.004550      0.044979
      2.92613      1.68940     10.03306        -0.064992     -0.037523     -0.092760
      5.86523      1.68940     10.03306         0.064992     -0.037523     -0.092760
     10.25456      4.23092     10.06776         0.002078     -0.001200      0.044561
      4.39568      4.23474     10.03306         0.000000      0.075047     -0.092760
      7.32817      4.23092     10.06776        -0.002078     -0.001200      0.044561
     11.72193      6.76766     10.05827        -0.003940     -0.002275      0.044979
      5.86080      6.76766     10.05827         0.003940     -0.002275      0.044979
      8.79137      6.76525     10.06776         0.000000      0.002400      0.044561
      0.00000      0.00000     12.45716        -0.000000      0.000000      0.000686
      2.94326      0.02074     12.49530        -0.025205     -0.043732      0.004542
      5.84810      0.02074     12.49530         0.025205     -0.043732      0.004542
      1.48959      2.53857     12.49530        -0.050476      0.000038      0.004542
      7.30177      2.53857     12.49530         0.050476      0.000038      0.004542
      2.94201      5.05424     12.49530        -0.025271      0.043695      0.004542
      5.84935      5.05424     12.49530         0.025271      0.043695      0.004542
      8.79137      5.07570     12.47846        -0.000000     -0.000000     -0.016619
      4.39568      2.53785     12.33403        -0.000000      0.000000      0.313476
      4.39568      2.53785     14.54515        -0.000000     -0.000000     -0.080979
      4.39568      2.53785     15.70941        -0.000000     -0.000000      0.034339
    total drift:                               -0.000830      0.001683      0.154773

  FREE ENERGIE OF THE ION-ELECTRON SYSTEM (eV)
  free  energy   TOTEN  =      -114.03119064 eV

  energy  without entropy=     -114.03119064  energy(sigma->0) =     -114.03119064

 stress matrix after NEB project (eV)
     -8.58647     -0.00000      0.00000
     -0.00000     -8.58647     -0.00000
      0.00000      0.00000     -0.76588
  FORCES: max atom, RMS     0.080979    0.014269
  FORCE total and by dimension    0.087959    0.080979
  Stress total and by dimension   12.167231    8.586470
|           W    W    AA    RRRRR   N    N  II  N    N   GGGG   !!!           |
|           W    W   A  A   R    R  NN   N  II  NN   N  G    G  !!!           |
|           W    W  A    A  R    R  N N  N  II  N N  N  G       !!!           |
|           W WW W  AAAAAA  RRRRR   N  N N  II  N  N N  G  GGG   !            |
|           WW  WW  A    A  R   R   N   NN  II  N   NN  G    G                |
|           W    W  A    A  R    R  N    N  II  N    N   GGGG   !!!           |
|     Tetrahedron method does not include variations of the Fermi             |
|     occupations, so forces and stress will be inaccurate. We suggest        |
|     using a different smearing scheme ISMEAR = 1 or 2 for metals in         |
|     relaxations.                                                            |

 total charge

# of ion       s       p       d       tot
    1        0.423   0.199   9.178   9.800
    2        0.412   0.204   9.178   9.794
    3        0.412   0.204   9.178   9.794
    4        0.412   0.204   9.178   9.794
    5        0.423   0.203   9.174   9.800
    6        0.412   0.204   9.178   9.794
    7        0.412   0.204   9.178   9.794
    8        0.412   0.204   9.178   9.794
    9        0.419   0.200   9.178   9.797
   10        0.411   0.270   9.161   9.841
   11        0.407   0.267   9.168   9.843
   12        0.411   0.270   9.161   9.841
   13        0.407   0.267   9.168   9.843
   14        0.407   0.267   9.168   9.843
   15        0.403   0.268   9.164   9.835
   16        0.411   0.270   9.161   9.841
   17        0.403   0.268   9.164   9.835
   18        0.403   0.268   9.164   9.835
   19        0.403   0.266   9.163   9.832
   20        0.444   0.298   9.132   9.873
   21        0.444   0.298   9.132   9.873
   22        0.396   0.270   9.165   9.830
   23        0.444   0.298   9.132   9.873
   24        0.396   0.270   9.165   9.830
   25        0.403   0.266   9.163   9.832
   26        0.403   0.266   9.163   9.832
   27        0.396   0.270   9.165   9.830
   28        0.407   0.204   9.175   9.785
   29        0.450   0.221   9.146   9.817
   30        0.450   0.221   9.146   9.817
   31        0.450   0.221   9.146   9.817
   32        0.450   0.221   9.146   9.817
   33        0.450   0.221   9.146   9.817
   34        0.450   0.221   9.146   9.817
   35        0.405   0.204   9.176   9.785
   36        0.549   0.514   1.903   2.966
   37        0.978   1.525   0.000   2.503
   38        1.617   3.523   0.000   5.139
tot         17.781  14.038 322.587 354.405

 BZINTS: Fermi energy:    0.876131;  399.000000 electrons
         Band energy:-0.136448E+04;  BLOECHL correction:   -0.019446