 vasp.6.2.0 18Jan21 (build Jun 12 2021 23:27:24) complex

 executed on             LinuxIFC date 2022.05.26  19:27:33

 INCAR:
   ISMEAR = -5
   SIGMA = 0.1
   ISPIN = 1
   EDIFF = 1.d-5
   EDIFFG = -0.01
   NSW = 0
   NELM = 150
   ENCUT = 500
   ISIF = 2
   IBRION = 2
   LREAL = Auto
   ALGO = Fast
   ICHARG = 11
   LORBIT = 10
   LCHARG = .F.
   LWAVE = .F.

 POTCAR:    PAW_PBE Au 04Oct2007
 POTCAR:    PAW_PBE Ru 04Feb2005
 POTCAR:    PAW_PBE O 08Apr2002
|           W    W    AA    RRRRR   N    N  II  N    N   GGGG   !!!           |
|           W    W   A  A   R    R  NN   N  II  NN   N  G    G  !!!           |
|           W    W  A    A  R    R  N N  N  II  N N  N  G       !!!           |
|           W WW W  AAAAAA  RRRRR   N  N N  II  N  N N  G  GGG   !            |
|           WW  WW  A    A  R   R   N   NN  II  N   NN  G    G                |
|           W    W  A    A  R    R  N    N  II  N    N   GGGG   !!!           |
|     For optimal performance we recommend to set                             |
|       NCORE = 2 up to number-of-cores-per-socket                            |
|     This setting can greatly improve the performance of VASP for DFT.       |
|     The default, NCORE=1 might be grossly inefficient on modern             |
|     multi-core architectures or massively parallel machines. Do your        |
|     Unfortunately you need to use the default for GW and RPA                |
|     calculations (for HF NCORE is supported but not extensively tested      |
|     yet).                                                                   |

 POTCAR:    PAW_PBE Au 04Oct2007
   VRHFIN =Au: s1d10

   TITEL  = PAW_PBE Au 04Oct2007
   POMASS =  196.966; ZVAL   =   11.000    mass and valenz
   ENMAX  =  229.943; ENMIN  =  172.457 eV

 POTCAR:    PAW_PBE Ru 04Feb2005
   VRHFIN =Ru: s1 d7

   TITEL  = PAW_PBE Ru 04Feb2005
   POMASS =  101.070; ZVAL   =    8.000    mass and valenz
   ENMAX  =  213.271; ENMIN  =  159.953 eV

 POTCAR:    PAW_PBE O 08Apr2002
   VRHFIN =O: s2p4

   TITEL  = PAW_PBE O 08Apr2002
   POMASS =   16.000; ZVAL   =    6.000    mass and valenz
   ENMAX  =  400.000; ENMIN  =  300.000 eV

 Optimization of the real space projectors (new method)

 maximal supplied QI-value         = 15.12
 optimisation between [QCUT,QGAM] = [ 11.34, 22.83] = [ 36.00,145.93] Ry
 Optimized for a Real-space Cutoff    1.39 Angstroem

   l    n(q)    QCUT    max X(q) W(low)/X(q) W(high)/X(q)  e(spline)
   2      9    11.338    60.898    0.39E-03    0.42E-03    0.21E-06
   2      9    11.338    58.894    0.40E-03    0.42E-03    0.22E-06
   0      9    11.338   109.617    0.13E-03    0.20E-04    0.13E-06
   0      9    11.338    75.026    0.13E-03    0.20E-04    0.13E-06
   1      9    11.338    16.344    0.33E-04    0.24E-03    0.18E-06
   1      9    11.338    10.160    0.26E-04    0.19E-03    0.15E-06
 Optimization of the real space projectors (new method)

[...]

   l    n(q)    QCUT    max X(q) W(low)/X(q) W(high)/X(q)  e(spline)
   2      9    11.327    61.733    0.26E-03    0.14E-03    0.16E-06
   2      9    11.327    59.886    0.26E-03    0.14E-03    0.17E-06
   0     10    11.327    23.358    0.19E-03    0.14E-04    0.46E-06
   0     10    11.327    11.320    0.15E-03    0.11E-04    0.37E-06
   1     10    11.327    14.765    0.49E-04    0.26E-03    0.24E-06
   1     10    11.327     8.283    0.37E-04    0.20E-03    0.18E-06
 Optimization of the real space projectors (new method)

 maximal supplied QI-value         = 24.76
 optimisation between [QCUT,QGAM] = [ 11.39, 22.77] = [ 36.31,145.25] Ry
 Optimized for a Real-space Cutoff    1.00 Angstroem

   l    n(q)    QCUT    max X(q) W(low)/X(q) W(high)/X(q)  e(spline)
   0      7    11.387    20.381    0.39E-03    0.13E-02    0.15E-06
   0      7    11.387    15.268    0.42E-03    0.14E-02    0.17E-06
   1      6    11.387     5.964    0.41E-03    0.11E-02    0.17E-06
   1      6    11.387     5.382    0.39E-03    0.87E-03    0.15E-06
  PAW_PBE Au 04Oct2007                  :
  PAW_PBE Ru 04Feb2005                  :
  PAW_PBE O 08Apr2002                   :

 POSCAR: Au-Ru-O
  positions in direct lattice
  velocities in cartesian coordinates
 exchange correlation table for  LEXCH =        8
   RHO(1)=    0.500       N(1)  =     2000
   RHO(2)=  100.500       N(2)  =     4000

 VTST: version 3.2, (02/03/18)

 CHAIN: initializing optimizer

 OPT: Using VASP Conjugate-Gradient optimizer
 CHAIN: Read ICHAIN            0

 POSCAR: Au-Ru-O
  positions in direct lattice
  velocities in cartesian coordinates

 ion  position               nearest neighbor table
   1  0.000  0.000  0.238-  16 2.94  12 2.94   6 2.94   8 2.94   7 2.94   3 2.94  10 2.94   4 2.94
                             2 2.94
   2  0.333  0.000  0.238-   9 2.94  11 2.94  17 2.94  10 2.94   8 2.94   4 2.94   5 2.94   1 2.94
                             3 2.94
   3  0.667  0.000  0.238-   7 2.94  18 2.94  12 2.94   1 2.94  11 2.94   5 2.94   6 2.94   9 2.94
                             2 2.94
   4  0.000  0.333  0.238-  10 2.94   6 2.94   5 2.94  13 2.94   2 2.94  15 2.94   9 2.94   1 2.94
                             7 2.94
   5  0.333  0.333  0.238-  13 2.94   7 2.94  11 2.94   4 2.94   2 2.94  14 2.94   3 2.94   8 2.94
                             6 2.94
   6  0.667  0.333  0.238-  15 2.94  14 2.94   1 2.94  12 2.94   4 2.94   9 2.94   8 2.94   3 2.94
                             5 2.94
   7  0.000  0.667  0.238-  18 2.94   3 2.94  16 2.94   5 2.94   1 2.94  13 2.94   8 2.94   4 2.94
                             9 2.94
   8  0.333  0.667  0.238-   9 2.94  17 2.94   1 2.94   2 2.94  14 2.94  16 2.94   6 2.94   7 2.94
                             5 2.94
   9  0.667  0.667  0.238-   2 2.94   8 2.94  17 2.94   6 2.94  15 2.94   4 2.94   3 2.94  18 2.94
                             7 2.94
  10  0.111  0.111  0.346-  20 2.91  26 2.94  19 2.94  11 2.94  17 2.94   2 2.94   4 2.94   1 2.94
                            12 2.94  16 2.94  13 2.94  15 2.94
  11  0.444  0.111  0.346-  20 2.91  21 2.91  27 2.94  13 2.94   2 2.94  10 2.94  17 2.94   5 2.94
                             3 2.94  18 2.94  14 2.94  12 2.94
  12  0.778  0.111  0.346-  21 2.91  25 2.94  19 2.94  16 2.94  18 2.94   1 2.94  14 2.94  15 2.94
                             3 2.94   6 2.94  10 2.94  11 2.94
  13  0.111  0.444  0.346-  23 2.91  20 2.91  22 2.94   5 2.94  18 2.94  11 2.94   7 2.94   4 2.94
                            16 2.94  10 2.94  14 2.94  15 2.94
  14  0.444  0.444  0.346-  21 2.91  23 2.91  24 2.94  15 2.94   6 2.94  12 2.94   8 2.94  17 2.94
                             5 2.94  16 2.94  13 2.94  11 2.94
  15  0.778  0.444  0.346-  24 2.92  22 2.92  19 2.94  14 2.94   6 2.94  17 2.94  12 2.94   9 2.94
                             4 2.94  10 2.94  13 2.94  18 2.94
  16  0.111  0.778  0.346-  23 2.91  25 2.94  26 2.94  18 2.94  12 2.94   7 2.94   1 2.94   8 2.94
                            13 2.94  10 2.94  14 2.94  17 2.94
  17  0.444  0.778  0.346-  27 2.92  24 2.92  26 2.94   9 2.94  15 2.94   2 2.94  10 2.94  11 2.94
                             8 2.94  14 2.94  16 2.94  18 2.94
  18  0.778  0.778  0.346-  22 2.92  27 2.92  25 2.94  16 2.94   7 2.94  13 2.94  12 2.94   3 2.94
                            11 2.94   9 2.94  15 2.94  17 2.94
  19  0.889  0.222  0.454-  15 2.94  10 2.94  12 2.94  24 2.94  22 2.94  26 2.94  25 2.94  21 2.94
                            20 2.94  28 2.95  32 2.97  31 2.97
  20  0.223  0.223  0.452-  36 2.78  11 2.91  13 2.91  10 2.91  23 2.93  21 2.93  29 2.94  31 2.94
                            26 2.94  19 2.94  27 2.95  22 2.95
  21  0.555  0.223  0.452-  36 2.78  14 2.91  11 2.91  12 2.91  20 2.93  23 2.93  30 2.94  32 2.94
                            25 2.94  19 2.94  27 2.95  24 2.95
  22  0.887  0.557  0.453-  24 2.91  27 2.91  18 2.92  15 2.92  13 2.94  25 2.94  19 2.94  23 2.95
                            20 2.95  35 2.96  33 2.96  31 2.96
  23  0.223  0.555  0.452-  36 2.78  13 2.91  14 2.91  16 2.91  20 2.93  21 2.93  33 2.94  34 2.94
                            25 2.94  26 2.94  22 2.95  24 2.95
  24  0.557  0.557  0.453-  27 2.91  22 2.91  15 2.92  17 2.92  14 2.94  26 2.94  19 2.94  21 2.95
                            23 2.95  35 2.96  32 2.96  34 2.96
  25  0.889  0.889  0.454-  18 2.94  16 2.94  12 2.94  22 2.94  27 2.94  19 2.94  26 2.94  23 2.94
                            21 2.94  28 2.95  33 2.97  30 2.97
  26  0.222  0.889  0.454-  17 2.94  10 2.94  16 2.94  27 2.94  24 2.94  19 2.94  25 2.94  20 2.94
                            23 2.94  28 2.95  29 2.97  34 2.97
  27  0.557  0.887  0.453-  24 2.91  22 2.91  17 2.92  18 2.92  11 2.94  26 2.94  25 2.94  20 2.95
                            21 2.95  35 2.96  29 2.96  30 2.96
  28  0.000  0.000  0.563-  25 2.95  19 2.95  26 2.95  34 2.97  32 2.97  33 2.97  30 2.97  31 2.97
                            29 2.97
  29  0.333  0.007  0.562-  31 2.88  30 2.88  36 2.89  20 2.94  27 2.96  28 2.97  35 2.97  26 2.97
                            34 3.05
  30  0.660  0.007  0.562-  32 2.88  29 2.88  36 2.89  21 2.94  27 2.96  28 2.97  35 2.97  25 2.97
                            33 3.05
  31  0.007  0.333  0.562-  29 2.88  33 2.88  36 2.89  20 2.94  22 2.96  28 2.97  35 2.97  19 2.97
                            32 3.05
  32  0.660  0.333  0.562-  30 2.88  34 2.88  36 2.89  21 2.94  24 2.96  28 2.97  35 2.97  19 2.97
                            31 3.05
  33  0.007  0.660  0.562-  34 2.88  31 2.88  36 2.89  23 2.94  22 2.96  28 2.97  35 2.97  25 2.97
                            30 3.05
  34  0.333  0.660  0.562-  33 2.88  32 2.88  36 2.89  23 2.94  24 2.96  28 2.97  35 2.97  26 2.97
                            29 3.05
  35  0.667  0.667  0.563-  24 2.96  27 2.96  22 2.96  29 2.97  34 2.97  32 2.97  31 2.97  30 2.97
                            33 2.97
  36  0.333  0.333  0.552-  37 1.71  20 2.78  23 2.78  21 2.78  33 2.89  31 2.89  29 2.89  30 2.89
                            34 2.89  32 2.89
  37  0.333  0.333  0.628-  36 1.71

  LATTYP: Found a hexagonal cell.
 ALAT       =     8.8135128021
 C/A-ratio  =     2.5184286595

  Lattice vectors:

 A1 = (  -4.4067569092,  -7.6327256898,   0.0000000000)
 A2 = (   8.8135128021,   0.0000000000,   0.0000000000)
 A3 = (   0.0000000000,   0.0000000000,  22.1962032318)

Analysis of symmetry for initial positions (statically):
 Subroutine PRICEL returns:
 Original cell was already a primitive cell.

 Routine SETGRP: Setting up the symmetry group for a
 hexagonal supercell.

 Subroutine GETGRP returns: Found  6 space group operations
 (whereof  6 operations were pure point group operations)
 out of a pool of 24 trial point group operations.

The static configuration has the point symmetry C_3v.

Analysis of symmetry for dynamics (positions and initial velocities):
 Subroutine PRICEL returns:
 Original cell was already a primitive cell.

[...]

The dynamic configuration has the point symmetry C_3v.

Analysis of constrained symmetry for selective dynamics:
 Subroutine PRICEL returns:
 Original cell was already a primitive cell.

 Routine SETGRP: Setting up the symmetry group for a
 hexagonal supercell.

 Subroutine GETGRP returns: Found  6 space group operations
[...]
     24      -5.0717      2.00000
     25      -5.0501      2.00000
     26      -5.0366      2.00000
     27      -4.9886      2.00000
     28      -4.9178      2.00000
     29      -4.9085      2.00000
     30      -4.8048      2.00000
     31      -4.7819      2.00000
     32      -4.7589      2.00000
     33      -4.7407      2.00000
     34      -4.7366      2.00000
     35      -4.7138      2.00000
     36      -4.6624      2.00000
     37      -4.6372      2.00000
     38      -4.6000      2.00000
     39      -4.5495      2.00000
     40      -4.5203      2.00000
     41      -4.5061      2.00000
     42      -4.4803      2.00000
     43      -4.4200      2.00000
     44      -4.3804      2.00000
     45      -4.3019      2.00000
     46      -4.2624      2.00000
     47      -4.2499      2.00000
     48      -4.2161      2.00000
     49      -4.1720      2.00000
     50      -4.1404      2.00000
     51      -4.1265      2.00000
     52      -4.1098      2.00000
     53      -4.0809      2.00000
     54      -4.0740      2.00000
     55      -4.0591      2.00000
     56      -4.0106      2.00000
     57      -3.9967      2.00000
     58      -3.9725      2.00000
     59      -3.9509      2.00000
     60      -3.9360      2.00000
[...]
    238       6.5372      0.00000
    239       6.5432      0.00000
    240       6.5784      0.00000
    241       6.6830      0.00000
    242       6.8105      0.00000
    243       6.8609      0.00000
    244       6.8932      0.00000
    245       6.9250      0.00000
    246       7.2061      0.00000
    247       7.2372      0.00000
    248       7.3612      0.00000
    249       7.5847      0.00000
    250       7.6930      0.00000
    251       7.7908      0.00000
    252       7.8413      0.00000

 soft charge-density along one line, spin component           1
         0         1         2         3         4         5         6         7         8         9
 total charge-density along one line

------------------------ aborting loop because EDIFF is reached ----------------------------------------

 total charge

# of ion       s       p       d       tot
    1        0.547   0.237   8.768   9.552
    2        0.543   0.241   8.764   9.549
    3        0.543   0.241   8.764   9.549
    4        0.543   0.241   8.764   9.549
    5        0.545   0.240   8.763   9.549
    6        0.543   0.241   8.764   9.549
    7        0.543   0.241   8.764   9.549
    8        0.543   0.241   8.764   9.549
    9        0.541   0.241   8.764   9.546
   10        0.524   0.308   8.770   9.602
   11        0.518   0.312   8.775   9.605
   12        0.524   0.308   8.770   9.602
   13        0.518   0.312   8.775   9.605
   14        0.518   0.312   8.775   9.605
   15        0.515   0.309   8.775   9.599
   16        0.524   0.308   8.770   9.602
   17        0.515   0.309   8.775   9.599
   18        0.515   0.309   8.775   9.599
   19        0.516   0.301   8.777   9.593
   20        0.552   0.334   8.744   9.631
   21        0.552   0.334   8.744   9.631
   22        0.509   0.309   8.775   9.593
   23        0.552   0.334   8.744   9.631
   24        0.509   0.309   8.775   9.593
   25        0.516   0.301   8.777   9.593
   26        0.516   0.301   8.777   9.593
   27        0.509   0.309   8.775   9.593
   28        0.544   0.226   8.768   9.538
   29        0.542   0.241   8.768   9.551
   30        0.542   0.241   8.768   9.551
   31        0.542   0.241   8.768   9.551
   32        0.542   0.241   8.768   9.551
   33        0.542   0.241   8.768   9.551
   34        0.542   0.241   8.768   9.551
   35        0.536   0.227   8.770   9.533
   36        0.561   0.739   6.638   7.938
   37        1.613   3.236   0.000   4.849
tot         20.804  13.652 313.512 347.968

  FORCE on cell =-STRESS in cart. coord.  units (eV):
  Direction    XX          YY          ZZ          XY          YZ          ZX
  Alpha Z  1011.86876  1011.86876  1011.86876
  Ewald  119526.11394119526.11436************    -0.00032    -0.00009    -0.00013
  Hartree128272.87098128272.87098************     0.00001    -0.00002    -0.00003
  E(xc)   -1795.19697 -1795.19697 -1801.49783    -0.00000     0.00000     0.00000
  Local  ************************260232.98661     0.00203     0.00002    -0.00002
  n-local   -95.00341   -42.13003   -32.24587    25.75468    -1.32319     1.66744
  augment  2421.66563  2421.66716  2425.37197    -0.00133     0.00002     0.00006
  Kinetic  5573.33629  5582.70213  5600.07521     5.33396     0.25275     0.38345
  Fock        0.00000     0.00000     0.00000     0.00000     0.00000     0.00000
  Total     -18.93070   -18.93069     2.39227    -0.00000     0.00000    -0.00000
  in kB     -20.31280   -20.31280     2.56693    -0.00000     0.00000    -0.00000

 VOLUME and BASIS-vectors are now :
  energy-cutoff  :      500.00
  volume of cell :     1493.16
      direct lattice vectors                 reciprocal lattice vectors
     8.813512802  0.000000000  0.000000000     0.113462137 -0.065507406  0.000000000
     4.406756909  7.632725690  0.000000000     0.000000000  0.131014796  0.000000000
     0.000000000  0.000000000 22.196203232     0.000000000  0.000000000  0.045052750

  length of vectors
     8.813512802  8.813512802 22.196203232     0.131014796  0.131014796  0.045052750

 FORCES acting on ions
    electron-ion (+dipol)            ewald-force                    non-local-force                 convergence-correction
   -.195E-04 -.162E-04 0.249E+04   0.519E-04 0.434E-04 -.249E+04   0.364E-17 -.601E-18 -.781E+00   -.182E-03 -.119E-03 -.200E+00
   0.413E+00 0.330E+00 0.249E+04   -.495E+00 -.374E+00 -.249E+04   0.318E-01 0.874E-01 -.308E+00   0.469E-01 -.370E-01 -.260E+00
   -.413E+00 0.330E+00 0.249E+04   0.495E+00 -.374E+00 -.249E+04   -.318E-01 0.874E-01 -.308E+00   -.466E-01 -.351E-01 -.260E+00
   0.492E+00 0.193E+00 0.249E+04   -.571E+00 -.241E+00 -.249E+04   0.916E-01 -.161E-01 -.308E+00   -.858E-02 0.591E-01 -.260E+00
   0.913E-05 -.230E-04 0.249E+04   0.951E-04 0.173E-05 -.249E+04   0.239E-17 0.157E-17 -.237E+00   0.424E-02 0.258E-02 -.229E+00
   -.492E+00 0.193E+00 0.249E+04   0.571E+00 -.241E+00 -.249E+04   -.916E-01 -.161E-01 -.308E+00   0.708E-02 0.600E-01 -.259E+00
   0.792E-01 -.523E+00 0.249E+04   -.768E-01 0.615E+00 -.249E+04   0.598E-01 -.713E-01 -.308E+00   -.537E-01 -.228E-01 -.260E+00
   -.793E-01 -.523E+00 0.249E+04   0.767E-01 0.615E+00 -.249E+04   -.598E-01 -.713E-01 -.308E+00   0.555E-01 -.239E-01 -.259E+00
   0.194E-04 -.416E-04 0.249E+04   0.166E-03 -.201E-04 -.249E+04   -.363E-17 0.808E-18 -.475E+00   -.461E-02 -.238E-02 -.226E+00
   0.497E+01 0.287E+01 0.847E+03   -.454E+01 -.262E+01 -.846E+03   -.357E+00 -.206E+00 -.638E+00   -.512E-01 -.297E-01 -.199E-01
   0.143E-04 0.487E+01 0.853E+03   0.148E-03 -.499E+01 -.852E+03   0.510E-08 0.765E-01 -.259E+00   0.364E-02 -.201E-01 0.969E-02
   -.497E+01 0.287E+01 0.847E+03   0.454E+01 -.262E+01 -.846E+03   0.357E+00 -.206E+00 -.638E+00   0.501E-01 -.286E-01 -.209E-01
   0.422E+01 -.244E+01 0.853E+03   -.432E+01 0.249E+01 -.852E+03   0.663E-01 -.383E-01 -.259E+00   -.153E-01 0.135E-01 0.969E-02
   -.422E+01 -.244E+01 0.853E+03   0.432E+01 0.249E+01 -.852E+03   -.663E-01 -.383E-01 -.259E+00   0.227E-01 0.130E-01 0.874E-02
   0.311E-04 0.263E+01 0.848E+03   0.236E-03 -.274E+01 -.848E+03   0.299E-09 0.449E-02 -.463E+00   -.209E-02 0.638E-01 -.940E-02
   -.212E-04 -.574E+01 0.847E+03   0.163E-03 0.525E+01 -.846E+03   0.275E-07 0.413E+00 -.638E+00   0.386E-04 0.576E-01 -.209E-01
   0.228E+01 -.132E+01 0.848E+03   -.238E+01 0.137E+01 -.848E+03   0.389E-02 -.224E-02 -.463E+00   0.545E-01 -.333E-01 -.937E-02
   -.228E+01 -.132E+01 0.848E+03   0.238E+01 0.137E+01 -.848E+03   -.389E-02 -.224E-02 -.463E+00   -.545E-01 -.317E-01 -.946E-02
   -.412E-04 0.239E+01 -.830E+03   0.535E-04 -.262E+01 0.829E+03   0.466E-08 0.700E-01 0.607E+00   0.343E-02 0.108E+00 0.187E+00
   0.145E+02 0.836E+01 -.792E+03   -.136E+02 -.783E+01 0.792E+03   -.100E+01 -.579E+00 -.723E+00   0.932E-01 0.537E-01 0.359E+00
   -.145E+02 0.836E+01 -.792E+03   0.136E+02 -.783E+01 0.792E+03   0.100E+01 -.579E+00 -.723E+00   -.939E-01 0.548E-01 0.359E+00
   0.345E+00 -.199E+00 -.819E+03   -.670E+00 0.386E+00 0.818E+03   0.402E+00 -.232E+00 0.667E+00   -.330E-01 0.177E-01 0.229E+00
   -.111E-04 -.167E+02 -.792E+03   0.142E-03 0.157E+02 0.792E+03   0.771E-07 0.116E+01 -.723E+00   0.269E-03 -.109E+00 0.359E+00
   -.345E+00 -.199E+00 -.819E+03   0.669E+00 0.386E+00 0.818E+03   -.402E+00 -.232E+00 0.667E+00   0.326E-01 0.189E-01 0.229E+00
   -.207E+01 -.120E+01 -.830E+03   0.227E+01 0.131E+01 0.829E+03   -.606E-01 -.350E-01 0.607E+00   -.885E-01 -.512E-01 0.186E+00
   0.207E+01 -.120E+01 -.830E+03   -.227E+01 0.131E+01 0.829E+03   0.606E-01 -.350E-01 0.607E+00   0.957E-01 -.511E-01 0.187E+00
   0.988E-05 0.398E+00 -.819E+03   0.199E-03 -.773E+00 0.818E+03   0.309E-07 0.464E+00 0.667E+00   -.175E-02 -.375E-01 0.229E+00
   -.118E-04 -.126E-04 -.246E+04   0.287E-04 0.340E-04 0.246E+04   -.108E-17 0.509E-17 0.489E+00   0.232E-03 0.115E-03 0.325E+00
   0.254E+02 0.432E+02 -.244E+04   -.254E+02 -.434E+02 0.244E+04   -.354E+00 -.420E+00 0.491E+00   0.154E+00 0.166E+00 0.318E+00
   -.254E+02 0.432E+02 -.244E+04   0.254E+02 -.434E+02 0.244E+04   0.354E+00 -.420E+00 0.491E+00   -.154E+00 0.167E+00 0.319E+00
   0.501E+02 0.356E+00 -.244E+04   -.503E+02 -.278E+00 0.244E+04   -.541E+00 -.968E-01 0.491E+00   0.221E+00 0.504E-01 0.318E+00
   -.501E+02 0.356E+00 -.244E+04   0.503E+02 -.278E+00 0.244E+04   0.541E+00 -.968E-01 0.491E+00   -.222E+00 0.516E-01 0.319E+00
   0.248E+02 -.436E+02 -.244E+04   -.249E+02 0.437E+02 0.244E+04   -.187E+00 0.517E+00 0.491E+00   0.680E-01 -.217E+00 0.319E+00
   -.248E+02 -.436E+02 -.244E+04   0.249E+02 0.437E+02 0.244E+04   0.187E+00 0.517E+00 0.491E+00   -.661E-01 -.218E+00 0.319E+00
   0.317E-04 -.287E-04 -.247E+04   0.144E-03 -.492E-04 0.247E+04   0.296E-17 0.283E-17 0.640E+00   -.461E-02 -.237E-02 0.256E+00
   0.634E-05 -.689E-05 -.150E+04   0.824E-04 0.740E-05 0.151E+04   0.267E-17 -.404E-17 -.655E+01   0.204E-02 0.125E-02 0.486E+00
   0.182E-03 -.994E-04 -.165E+04   0.244E-04 0.156E-05 0.168E+04   -.429E-17 -.281E-17 -.308E+02   0.357E-02 0.218E-02 -.122E+00
   -.534E-03 -.846E-03 0.366E+02   0.273E-13 -.327E-13 0.409E-11   0.196E-15 -.115E-15 -.390E+02   0.178E-01 0.110E-01 0.290E+01

 POSITION                                       TOTAL-FORCE (eV/Angst)
      0.00000      0.00000      5.28038         0.000000      0.000000     -0.135311
      2.93784      0.00000      5.28038        -0.002411      0.007139     -0.056489
      5.87568      0.00000      5.28038         0.002411      0.007139     -0.056489
      1.46892      2.54424      5.28038         0.004976     -0.005658     -0.056489
      4.40676      2.54424      5.28038         0.000000      0.000000     -0.096520
      7.34459      2.54424      5.28038        -0.004976     -0.005658     -0.056489
      2.93784      5.08848      5.28038         0.007388     -0.001481     -0.056489
      5.87568      5.08848      5.28038        -0.007388     -0.001481     -0.056489
      8.81351      5.08848      5.28038         0.000000      0.000000     -0.085336
      1.46892      0.84808      7.67911         0.021173      0.012224      0.125644
      4.40676      0.84808      7.67911        -0.000000     -0.061296      0.042409
      7.34459      0.84808      7.67911        -0.021173      0.012224      0.125644
      2.93784      3.39232      7.67911        -0.053084      0.030648      0.042409
      5.87568      3.39232      7.67911         0.053084      0.030648      0.042409
      8.81351      3.39232      7.67911        -0.000000     -0.042991      0.101995
      4.40676      5.93656      7.67911        -0.000000     -0.024448      0.125644
      7.34459      5.93656      7.67911        -0.037232      0.021496      0.101995
     10.28243      5.93656      7.67911         0.037232      0.021496      0.101995
      8.81351      1.69681     10.07567        -0.000000     -0.052909     -0.052177
      2.94232      1.69875     10.04120         0.006082      0.003512     -0.054097
      5.87120      1.69875     10.04120        -0.006082      0.003512     -0.054097
     10.26751      4.24902     10.06295         0.044434     -0.025654     -0.022649
      4.40676      4.23523     10.04120        -0.000000     -0.007023     -0.054097
      7.35952      4.24902     10.06295        -0.044434     -0.025654     -0.022649
     11.75079      6.78432     10.07567         0.045820      0.026454     -0.052177
      5.87624      6.78432     10.07567        -0.045820      0.026454     -0.052177
      8.81351      6.76742     10.06295         0.000000      0.051308     -0.022649
      0.00000      0.00000     12.49459         0.000000      0.000000     -0.015359
      2.96623      0.05046     12.47837        -0.214488     -0.434646     -0.180308
      5.84728      0.05046     12.47837         0.214488     -0.434646     -0.180308
      1.52682      2.54360     12.47837        -0.483658      0.031571     -0.180308
      7.28669      2.54360     12.47837         0.483658      0.031571     -0.180308
      2.96734      5.03866     12.47837        -0.269171      0.403075     -0.180308
      5.84617      5.03866     12.47837         0.269171      0.403075     -0.180308
      8.81351      5.08848     12.49555        -0.000000     -0.000000      0.045764
      4.40676      2.54424     12.24198        -0.000000     -0.000000      1.284955
      4.40676      2.54424     13.94713         0.000000     -0.000000     -0.000781
    total drift:                                0.017267      0.010143      0.441176

  FREE ENERGIE OF THE ION-ELECTRON SYSTEM (eV)
  free  energy   TOTEN  =      -120.42496707 eV

  energy  without entropy=     -120.42496707  energy(sigma->0) =     -120.42496707

 stress matrix after NEB project (eV)
    -18.93070     -0.00000     -0.00000
     -0.00000    -18.93069      0.00000
      0.00000      0.00000      2.39227
  FORCES: max atom, RMS     0.000781    0.000128
  FORCE total and by dimension    0.000781    0.000781
  Stress total and by dimension   26.878716   18.930695
|           W    W    AA    RRRRR   N    N  II  N    N   GGGG   !!!           |
|           W    W   A  A   R    R  NN   N  II  NN   N  G    G  !!!           |
|           W    W  A    A  R    R  N N  N  II  N N  N  G       !!!           |
|           W WW W  AAAAAA  RRRRR   N  N N  II  N  N N  G  GGG   !            |
|           WW  WW  A    A  R   R   N   NN  II  N   NN  G    G                |
|           W    W  A    A  R    R  N    N  II  N    N   GGGG   !!!           |
|     Tetrahedron method does not include variations of the Fermi             |
|     occupations, so forces and stress will be inaccurate. We suggest        |
|     using a different smearing scheme ISMEAR = 1 or 2 for metals in         |
|     relaxations.                                                            |

 total charge

# of ion       s       p       d       tot
    1        0.547   0.237   8.768   9.552
    2        0.543   0.241   8.764   9.549
    3        0.543   0.241   8.764   9.549
    4        0.543   0.241   8.764   9.549
    5        0.545   0.240   8.763   9.549
    6        0.543   0.241   8.764   9.549
    7        0.543   0.241   8.764   9.549
    8        0.543   0.241   8.764   9.549
    9        0.541   0.241   8.764   9.546
   10        0.524   0.308   8.770   9.602
   11        0.518   0.312   8.775   9.605
   12        0.524   0.308   8.770   9.602
   13        0.518   0.312   8.775   9.605
   14        0.518   0.312   8.775   9.605
   15        0.515   0.309   8.775   9.599
   16        0.524   0.308   8.770   9.602
   17        0.515   0.309   8.775   9.599
   18        0.515   0.309   8.775   9.599
   19        0.516   0.301   8.777   9.593
   20        0.552   0.334   8.744   9.631
   21        0.552   0.334   8.744   9.631
   22        0.509   0.309   8.775   9.593
   23        0.552   0.334   8.744   9.631
   24        0.509   0.309   8.775   9.593
   25        0.516   0.301   8.777   9.593
   26        0.516   0.301   8.777   9.593
   27        0.509   0.309   8.775   9.593
   28        0.544   0.226   8.768   9.538
   29        0.542   0.241   8.768   9.551
   30        0.542   0.241   8.768   9.551
   31        0.542   0.241   8.768   9.551
   32        0.542   0.241   8.768   9.551
   33        0.542   0.241   8.768   9.551
   34        0.542   0.241   8.768   9.551
   35        0.536   0.227   8.770   9.533
   36        0.561   0.739   6.638   7.938
   37        1.613   3.236   0.000   4.849
tot         20.804  13.652 313.512 347.968

 BZINTS: Fermi energy:    0.707000;  399.000000 electrons
         Band energy:-0.123104E+04;  BLOECHL correction:   -0.066684