 vasp.6.2.0 18Jan21 (build Jun 12 2021 23:27:24) complex

 executed on             LinuxIFC date 2022.05.30  17:04:45

 INCAR:
   ISMEAR = -5
   SIGMA = 0.1
   ISPIN = 1
   EDIFF = 1.d-5
   EDIFFG = -0.01
   NSW = 0
   NELM = 150
   ENCUT = 500
   ISIF = 2
   IBRION = 2
   LREAL = Auto
   ALGO = Fast
   ICHARG = 11
   LORBIT = 10
   LCHARG = .F.
   LWAVE = .F.

 POTCAR:    PAW_PBE Ag 02Apr2005
 POTCAR:    PAW_PBE Co 02Aug2007
 POTCAR:    PAW_PBE O 08Apr2002
|           W    W    AA    RRRRR   N    N  II  N    N   GGGG   !!!           |
|           W    W   A  A   R    R  NN   N  II  NN   N  G    G  !!!           |
|           W    W  A    A  R    R  N N  N  II  N N  N  G       !!!           |
|           W WW W  AAAAAA  RRRRR   N  N N  II  N  N N  G  GGG   !            |
|           WW  WW  A    A  R   R   N   NN  II  N   NN  G    G                |
|           W    W  A    A  R    R  N    N  II  N    N   GGGG   !!!           |
|     For optimal performance we recommend to set                             |
|       NCORE = 2 up to number-of-cores-per-socket                            |
|     This setting can greatly improve the performance of VASP for DFT.       |
|     The default, NCORE=1 might be grossly inefficient on modern             |
|     multi-core architectures or massively parallel machines. Do your        |
|     Unfortunately you need to use the default for GW and RPA                |
|     calculations (for HF NCORE is supported but not extensively tested      |
|     yet).                                                                   |

 POTCAR:    PAW_PBE Ag 02Apr2005
   VRHFIN =Ag : s1 d10

   TITEL  = PAW_PBE Ag 02Apr2005
   POMASS =  107.868; ZVAL   =   11.000    mass and valenz
   ENMAX  =  249.844; ENMIN  =  187.383 eV

 POTCAR:    PAW_PBE Co 02Aug2007
   VRHFIN =Co: d8 s1

   TITEL  = PAW_PBE Co 02Aug2007
   POMASS =   58.933; ZVAL   =    9.000    mass and valenz
   ENMAX  =  267.968; ENMIN  =  200.976 eV

 POTCAR:    PAW_PBE O 08Apr2002
   VRHFIN =O: s2p4

   TITEL  = PAW_PBE O 08Apr2002
   POMASS =   16.000; ZVAL   =    6.000    mass and valenz
   ENMAX  =  400.000; ENMIN  =  300.000 eV

 Optimization of the real space projectors (new method)

 maximal supplied QI-value         = 15.12
 optimisation between [QCUT,QGAM] = [ 11.34, 22.83] = [ 36.00,145.93] Ry
 Optimized for a Real-space Cutoff    1.43 Angstroem

   l    n(q)    QCUT    max X(q) W(low)/X(q) W(high)/X(q)  e(spline)
   2      9    11.338    53.897    0.16E-03    0.20E-03    0.28E-06
   2      9    11.338    52.416    0.16E-03    0.20E-03    0.29E-06
   0     10    11.338   122.045    0.31E-04    0.76E-04    0.15E-06
   0     10    11.338    73.629    0.30E-04    0.72E-04    0.15E-06
   1      9    11.338    15.255    0.20E-03    0.19E-04    0.17E-06
   1      9    11.338     9.562    0.16E-03    0.15E-04    0.14E-06
 Optimization of the real space projectors (new method)

[...]

   l    n(q)    QCUT    max X(q) W(low)/X(q) W(high)/X(q)  e(spline)
   2      8    11.376    65.824    0.20E-03    0.32E-04    0.13E-06
   2      8    11.376    61.429    0.20E-03    0.33E-04    0.14E-06
   0      9    11.376    56.174    0.76E-04    0.11E-03    0.19E-06
   0      9    11.376    31.263    0.69E-04    0.99E-04    0.17E-06
   1      9    11.376    19.828    0.35E-03    0.11E-03    0.12E-06
   1      9    11.376    15.139    0.29E-03    0.94E-04    0.10E-06
 Optimization of the real space projectors (new method)

 maximal supplied QI-value         = 24.76
 optimisation between [QCUT,QGAM] = [ 11.39, 22.77] = [ 36.31,145.25] Ry
 Optimized for a Real-space Cutoff    1.00 Angstroem

   l    n(q)    QCUT    max X(q) W(low)/X(q) W(high)/X(q)  e(spline)
   0      7    11.387    20.381    0.39E-03    0.13E-02    0.15E-06
   0      7    11.387    15.268    0.42E-03    0.14E-02    0.17E-06
   1      6    11.387     5.964    0.41E-03    0.11E-02    0.17E-06
   1      6    11.387     5.382    0.39E-03    0.87E-03    0.15E-06
  PAW_PBE Ag 02Apr2005                  :
  PAW_PBE Co 02Aug2007                  :
  PAW_PBE O 08Apr2002                   :

 POSCAR: Ag-Co-O2
  positions in direct lattice
  velocities in cartesian coordinates
 exchange correlation table for  LEXCH =        8
   RHO(1)=    0.500       N(1)  =     2000
   RHO(2)=  100.500       N(2)  =     4000

 VTST: version 3.2, (02/03/18)

 CHAIN: initializing optimizer

 OPT: Using VASP Conjugate-Gradient optimizer
 CHAIN: Read ICHAIN            0

 POSCAR: Ag-Co-O2
  positions in direct lattice
  velocities in cartesian coordinates

 ion  position               nearest neighbor table
   1  0.000  0.000  0.217-   2 2.93   8 2.93   7 2.93   6 2.93   4 2.93  12 2.93  16 2.93  10 2.93
                             3 2.93
   2  0.333  0.000  0.217-   1 2.93   8 2.93   9 2.93   3 2.93   4 2.93   5 2.93  10 2.93  17 2.93
                            11 2.93
   3  0.667  0.000  0.217-   9 2.93   2 2.93   5 2.93  11 2.93   7 2.93  18 2.93   1 2.93   6 2.93
                            12 2.93
   4  0.000  0.333  0.217-   5 2.93   6 2.93   2 2.93   1 2.93   7 2.93  13 2.93  15 2.93   9 2.93
                            10 2.93
   5  0.333  0.333  0.217-   4 2.93   3 2.93   7 2.93   2 2.93   8 2.93  14 2.93  13 2.93  11 2.93
                             6 2.93
   6  0.667  0.333  0.217-   4 2.93   9 2.93   1 2.93  15 2.93   8 2.93  12 2.93   3 2.93   5 2.93
                            14 2.93
   7  0.000  0.667  0.217-   8 2.93   1 2.93   5 2.93   3 2.93   4 2.93  16 2.93  18 2.93  13 2.93
                             9 2.93
   8  0.333  0.667  0.217-   7 2.93   1 2.93   2 2.93   9 2.93   5 2.93  16 2.93   6 2.93  17 2.93
                            14 2.93
   9  0.667  0.667  0.217-   3 2.93   2 2.93   8 2.93   6 2.93  17 2.93   4 2.93  15 2.93   7 2.93
                            18 2.93
  10  0.111  0.111  0.315-  20 2.92  19 2.93  26 2.93  12 2.93  16 2.93  15 2.93  17 2.93  13 2.93
                            11 2.93   2 2.93   1 2.93   4 2.93
  11  0.444  0.111  0.315-  21 2.90  20 2.90  27 2.92  14 2.93  17 2.93  18 2.93   3 2.93  12 2.93
                            13 2.93  10 2.93   5 2.93   2 2.93
  12  0.778  0.111  0.315-  21 2.92  25 2.93  19 2.93  10 2.93  16 2.93  18 2.93  15 2.93  11 2.93
                             1 2.93  14 2.93   6 2.93   3 2.93
  13  0.111  0.444  0.315-  20 2.90  23 2.90  22 2.92  15 2.93  14 2.93  18 2.93  10 2.93  11 2.93
                            16 2.93   4 2.93   5 2.93   7 2.93
  14  0.444  0.444  0.315-  23 2.90  21 2.90  24 2.92  13 2.93  11 2.93  16 2.93   5 2.93  12 2.93
                            17 2.93   8 2.93  15 2.93   6 2.93
  15  0.778  0.444  0.315-  24 2.91  22 2.91  19 2.92  13 2.93  10 2.93  12 2.93  17 2.93  18 2.93
                             4 2.93   6 2.93   9 2.93  14 2.93
  16  0.111  0.778  0.315-  23 2.92  26 2.93  25 2.93  18 2.93  12 2.93  10 2.93  14 2.93  17 2.93
                            13 2.93   7 2.93   8 2.93   1 2.93
  17  0.444  0.778  0.315-  27 2.91  24 2.91  26 2.92  11 2.93  10 2.93   9 2.93  18 2.93  15 2.93
                            16 2.93   2 2.93  14 2.93   8 2.93
  18  0.778  0.778  0.315-  22 2.91  27 2.91  25 2.92  16 2.93  12 2.93  13 2.93  11 2.93  17 2.93
                            15 2.93   7 2.93   3 2.93   9 2.93
  19  0.889  0.222  0.413-  28 2.91  15 2.92  10 2.93  12 2.93  24 2.93  22 2.93  26 2.93  25 2.93
                            32 2.94  31 2.94  20 2.94  21 2.94
  20  0.223  0.223  0.412-  36 2.69  31 2.89  29 2.89  13 2.90  11 2.90  21 2.91  23 2.91  10 2.92
                            27 2.93  22 2.93  19 2.94  26 2.94
  21  0.554  0.223  0.412-  36 2.69  30 2.89  32 2.89  11 2.90  14 2.90  20 2.91  23 2.91  12 2.92
                            27 2.93  24 2.93  25 2.94  19 2.94
  22  0.888  0.556  0.413-  35 2.91  33 2.91  31 2.91  18 2.91  15 2.91  13 2.92  24 2.92  27 2.92
                            25 2.93  19 2.93  23 2.93  20 2.93
  23  0.223  0.554  0.412-  36 2.69  34 2.89  33 2.89  14 2.90  13 2.90  21 2.91  20 2.91  16 2.92
                            22 2.93  24 2.93  26 2.94  25 2.94
  24  0.556  0.556  0.413-  35 2.91  32 2.91  34 2.91  15 2.91  17 2.91  14 2.92  27 2.92  22 2.92
                            19 2.93  26 2.93  23 2.93  21 2.93
  25  0.889  0.889  0.413-  28 2.91  18 2.92  16 2.93  12 2.93  22 2.93  27 2.93  26 2.93  19 2.93
                            33 2.94  30 2.94  23 2.94  21 2.94
  26  0.222  0.889  0.413-  28 2.91  17 2.92  16 2.93  10 2.93  27 2.93  24 2.93  25 2.93  19 2.93
                            34 2.94  29 2.94  23 2.94  20 2.94
  27  0.556  0.888  0.413-  35 2.91  29 2.91  30 2.91  17 2.91  18 2.91  11 2.92  24 2.92  22 2.92
                            26 2.93  25 2.93  20 2.93  21 2.93
  28  0.000  0.000  0.510-  26 2.91  25 2.91  19 2.91  29 2.97  34 2.97  33 2.97  32 2.97  31 2.97
                            30 2.97
  29  0.333  0.008  0.510-  31 2.86  30 2.86  36 2.87  20 2.89  27 2.91  26 2.94  28 2.97  35 2.97
                            34 3.07
  30  0.659  0.008  0.510-  32 2.86  29 2.86  36 2.87  21 2.89  27 2.91  25 2.94  28 2.97  35 2.97
                            33 3.07
  31  0.008  0.333  0.510-  37 2.59  29 2.86  33 2.86  36 2.87  20 2.89  22 2.91  19 2.94  28 2.97
                            35 2.97  32 3.07
  32  0.659  0.333  0.510-  38 2.59  30 2.86  34 2.86  36 2.87  21 2.89  24 2.91  19 2.94  28 2.97
                            35 2.97  31 3.07
  33  0.008  0.659  0.510-  34 2.86  31 2.86  36 2.87  23 2.89  22 2.91  25 2.94  28 2.97  35 2.97
                            30 3.07
  34  0.333  0.659  0.510-  33 2.86  32 2.86  36 2.87  23 2.89  24 2.91  26 2.94  28 2.97  35 2.97
                            29 3.07
  35  0.667  0.667  0.510-  24 2.91  27 2.91  22 2.91  32 2.97  30 2.97  29 2.97  34 2.97  31 2.97
                            33 2.97
  36  0.333  0.333  0.498-  38 1.88  37 1.88  21 2.69  20 2.69  23 2.69  31 2.87  30 2.87  33 2.87
                            29 2.87  34 2.87  32 2.87
  37  0.252  0.333  0.569-  38 1.43  36 1.88  31 2.59
  38  0.415  0.333  0.569-  37 1.43  36 1.88  32 2.59

  LATTYP: Found a hexagonal cell.
 ALAT       =     8.7913665772
 C/A-ratio  =     2.7711238095

  Lattice vectors:

 A1 = (  -4.3956832886,  -7.6135467898,   0.0000000000)
 A2 = (   8.7913665771,   0.0000000000,   0.0000000000)
 A3 = (   0.0000000000,   0.0000000000,  24.3619652401)

Analysis of symmetry for initial positions (statically):
 Subroutine PRICEL returns:
 Original cell was already a primitive cell.

 Routine SETGRP: Setting up the symmetry group for a
 hexagonal supercell.

 Subroutine GETGRP returns: Found  2 space group operations
 (whereof  2 operations were pure point group operations)
 out of a pool of 24 trial point group operations.

The static configuration has the point symmetry C_1h.

Analysis of symmetry for dynamics (positions and initial velocities):
 Subroutine PRICEL returns:
 Original cell was already a primitive cell.

[...]

The dynamic configuration has the point symmetry C_1h.

Analysis of constrained symmetry for selective dynamics:
 Subroutine PRICEL returns:
 Original cell was already a primitive cell.

 Routine SETGRP: Setting up the symmetry group for a
[...]
     33      -5.0571      2.00000
     34      -5.0336      2.00000
     35      -5.0298      2.00000
     36      -5.0201      2.00000
     37      -4.9680      2.00000
     38      -4.9313      2.00000
     39      -4.8973      2.00000
     40      -4.8818      2.00000
     41      -4.8594      2.00000
     42      -4.8371      2.00000
     43      -4.8271      2.00000
     44      -4.8173      2.00000
     45      -4.8016      2.00000
     46      -4.8002      2.00000
     47      -4.7495      2.00000
     48      -4.7150      2.00000
     49      -4.6850      2.00000
     50      -4.6761      2.00000
     51      -4.6676      2.00000
     52      -4.6633      2.00000
     53      -4.6601      2.00000
     54      -4.6406      2.00000
     55      -4.6374      2.00000
     56      -4.6236      2.00000
     57      -4.6129      2.00000
     58      -4.5498      2.00000
     59      -4.5418      2.00000
     60      -4.5290      2.00000
[...]
    238       5.4773      0.00000
    239       5.5609      0.00000
    240       5.7267      0.00000
    241       5.8141      0.00000
    242       5.8419      0.00000
    243       5.9115      0.00000
    244       6.1842      0.00000
    245       6.3962      0.00000
    246       6.4343      0.00000
    247       6.5412      0.00000
    248       6.5860      0.00000
    249       6.7019      0.00000
    250       6.7204      0.00000
    251       6.7782      0.00000
    252       6.8343      0.00000

 soft charge-density along one line, spin component           1
         0         1         2         3         4         5         6         7         8         9
 total charge-density along one line

------------------------ aborting loop because EDIFF is reached ----------------------------------------

 total charge

# of ion       s       p       d       tot
    1        0.416   0.202   9.177   9.795
    2        0.417   0.202   9.177   9.795
    3        0.417   0.202   9.177   9.795
    4        0.418   0.203   9.177   9.797
    5        0.416   0.203   9.175   9.795
    6        0.418   0.203   9.177   9.797
    7        0.416   0.203   9.176   9.795
    8        0.416   0.203   9.176   9.795
    9        0.414   0.203   9.178   9.794
   10        0.406   0.268   9.163   9.837
   11        0.408   0.267   9.167   9.842
   12        0.406   0.268   9.163   9.837
   13        0.408   0.268   9.166   9.842
   14        0.408   0.268   9.166   9.842
   15        0.400   0.272   9.163   9.835
   16        0.405   0.268   9.164   9.837
   17        0.400   0.270   9.165   9.835
   18        0.400   0.270   9.165   9.835
   19        0.399   0.266   9.168   9.833
   20        0.424   0.292   9.147   9.864
   21        0.424   0.292   9.147   9.864
   22        0.398   0.275   9.165   9.838
   23        0.418   0.296   9.150   9.864
   24        0.398   0.275   9.165   9.838
   25        0.400   0.267   9.165   9.833
   26        0.400   0.267   9.165   9.833
   27        0.399   0.273   9.165   9.838
   28        0.414   0.192   9.181   9.788
   29        0.400   0.199   9.189   9.788
   30        0.400   0.199   9.189   9.788
   31        0.395   0.203   9.192   9.789
   32        0.395   0.203   9.192   9.789
   33        0.399   0.199   9.191   9.788
   34        0.399   0.199   9.191   9.788
   35        0.412   0.193   9.181   9.786
   36        0.376   0.410   7.412   8.198
   37        1.604   3.272   0.000   4.876
   38        1.604   3.272   0.000   4.876
tot         17.847  15.290 328.429 361.565

  FORCE on cell =-STRESS in cart. coord.  units (eV):
  Direction    XX          YY          ZZ          XY          YZ          ZX
  Alpha Z   697.09537   697.09537   697.09537
  Ewald  156685.43284156258.00708************     0.00008     0.39394     0.00009
  Hartree166802.94853166582.54300************     0.00004     0.18075     0.00004
  E(xc)   -2133.93961 -2134.97583 -2139.34600    -0.00005    -0.01320     0.00001
  Local  ************************334153.35269     0.00115    -0.81618    -0.00023
  n-local  -371.65064  -378.36135  -380.86005     2.10918    -0.00790     0.09410
  augment  3386.99678  3398.25482  3392.95543    -0.00024     0.25533     0.00004
  Kinetic  5079.83880  5134.43489  5124.92924     1.04084     0.12572    -0.01285
  Fock        0.00000     0.00000     0.00000     0.00000     0.00000     0.00000
  Total      -2.63690    -3.86353     1.97724    -0.00000     0.11846     0.00000
  in kB      -2.59088    -3.79612     1.94273    -0.00000     0.11639     0.00000

 VOLUME and BASIS-vectors are now :
  energy-cutoff  :      500.00
  volume of cell :     1630.63
      direct lattice vectors                 reciprocal lattice vectors
     8.791366577  0.000000000  0.000000000     0.113747958 -0.065672414  0.000000000
     4.395683289  7.613546790  0.000000000     0.000000000  0.131344829  0.000000000
     0.000000000  0.000000000 24.361965240     0.000000000  0.000000000  0.041047592

  length of vectors
     8.791366577  8.791366577 24.361965240     0.131344829  0.131344829  0.041047592

 FORCES acting on ions
    electron-ion (+dipol)            ewald-force                    non-local-force                 convergence-correction
   0.461E-04 0.682E-01 0.272E+04   -.954E-04 -.335E-01 -.272E+04   0.169E-12 0.258E-01 -.228E+01   -.200E-03 -.556E-01 -.210E+00
   0.673E+00 0.853E+00 0.272E+04   -.734E+00 -.846E+00 -.272E+04   0.111E-01 0.307E-01 -.166E+01   0.533E-01 -.227E-01 -.234E+00
   -.672E+00 0.853E+00 0.272E+04   0.734E+00 -.846E+00 -.272E+04   -.111E-01 0.307E-01 -.166E+01   -.538E-01 -.208E-01 -.233E+00
   0.861E+00 0.218E+00 0.272E+04   -.107E+01 -.228E+00 -.272E+04   0.103E+00 0.778E-02 -.167E+01   0.112E+00 -.122E-02 -.265E+00
   -.782E-05 0.131E+00 0.272E+04   0.981E-04 0.141E-02 -.272E+04   -.442E-12 -.672E-01 -.151E+01   0.626E-02 -.605E-01 -.224E+00
   -.861E+00 0.218E+00 0.272E+04   0.107E+01 -.228E+00 -.272E+04   -.103E+00 0.778E-02 -.167E+01   -.114E+00 -.395E-03 -.265E+00
   0.439E+00 -.108E+01 0.272E+04   -.336E+00 0.107E+01 -.272E+04   -.354E-01 -.308E-01 -.173E+01   -.476E-01 0.275E-01 -.312E+00
   -.439E+00 -.108E+01 0.272E+04   0.336E+00 0.107E+01 -.272E+04   0.354E-01 -.308E-01 -.173E+01   0.492E-01 0.264E-01 -.312E+00
   0.362E-04 -.173E+00 0.272E+04   0.792E-04 0.321E-01 -.272E+04   0.126E-12 0.192E-01 -.202E+01   -.659E-02 0.113E+00 -.256E+00
   0.690E+01 0.431E+01 0.969E+03   -.648E+01 -.400E+01 -.968E+03   -.400E+00 -.216E+00 -.752E+00   0.103E-03 -.828E-01 -.585E+00
   -.268E-04 0.902E+01 0.982E+03   0.420E-04 -.895E+01 -.981E+03   0.206E-12 0.313E-01 -.438E+00   0.686E-02 -.135E+00 -.707E+00
   -.690E+01 0.431E+01 0.969E+03   0.648E+01 -.400E+01 -.968E+03   0.400E+00 -.216E+00 -.752E+00   -.219E-02 -.820E-01 -.584E+00
   0.745E+01 -.452E+01 0.982E+03   -.751E+01 0.453E+01 -.981E+03   0.697E-01 -.212E-01 -.426E+00   -.402E-01 0.213E-01 -.663E+00
   -.745E+01 -.452E+01 0.982E+03   0.751E+01 0.453E+01 -.981E+03   -.697E-01 -.212E-01 -.426E+00   0.507E-01 0.197E-01 -.665E+00
   0.166E-04 0.922E+00 0.970E+03   -.109E-03 -.101E+01 -.969E+03   0.243E-12 0.370E-01 -.774E+00   -.175E-02 0.393E-01 -.629E+00
   -.847E-05 -.800E+01 0.969E+03   0.208E-04 0.755E+01 -.968E+03   0.231E-11 0.352E+00 -.797E+00   -.349E-03 0.803E-01 -.574E+00
   0.950E+00 -.772E+00 0.970E+03   -.102E+01 0.679E+00 -.969E+03   0.170E-01 0.211E-01 -.632E+00   0.395E-01 0.820E-01 -.633E+00
   -.950E+00 -.772E+00 0.970E+03   0.102E+01 0.679E+00 -.969E+03   -.170E-01 0.211E-01 -.632E+00   -.388E-01 0.843E-01 -.631E+00
   0.427E-04 0.557E+01 -.823E+03   -.131E-03 -.562E+01 0.824E+03   0.126E-11 0.192E+00 0.790E+00   -.656E-02 -.126E+00 -.821E+00
   0.452E+02 0.281E+02 -.748E+03   -.439E+02 -.271E+02 0.751E+03   -.103E+01 -.701E+00 -.119E+01   -.333E+00 -.266E+00 -.138E+01
   -.452E+02 0.281E+02 -.748E+03   0.439E+02 -.271E+02 0.751E+03   0.103E+01 -.701E+00 -.119E+01   0.334E+00 -.268E+00 -.138E+01
   0.209E+02 -.139E+02 -.806E+03   -.209E+02 0.138E+02 0.806E+03   0.176E+00 -.126E+00 0.565E+00   -.198E+00 0.159E+00 -.891E+00
   -.581E-04 -.548E+02 -.751E+03   0.485E-04 0.532E+02 0.754E+03   0.778E-11 0.118E+01 -.902E+00   -.650E-03 0.459E+00 -.132E+01
   -.209E+02 -.139E+02 -.806E+03   0.209E+02 0.138E+02 0.806E+03   -.176E+00 -.126E+00 0.565E+00   0.209E+00 0.157E+00 -.890E+00
   -.413E+01 -.155E+01 -.826E+03   0.405E+01 0.155E+01 0.826E+03   -.188E-01 -.452E-01 0.735E+00   0.821E-01 0.376E-01 -.842E+00
   0.413E+01 -.155E+01 -.826E+03   -.405E+01 0.155E+01 0.826E+03   0.188E-01 -.452E-01 0.735E+00   -.945E-01 0.370E-01 -.841E+00
   0.205E-04 0.242E+02 -.808E+03   0.109E-03 -.241E+02 0.808E+03   0.137E-11 0.209E+00 0.651E+00   0.710E-02 -.198E+00 -.893E+00
   0.547E-04 0.606E+01 -.263E+04   -.117E-03 -.603E+01 0.263E+04   -.220E-12 -.334E-01 0.191E+01   -.409E-03 -.236E-01 -.458E+00
   0.587E+02 0.120E+03 -.259E+04   -.581E+02 -.119E+03 0.259E+04   -.169E+00 0.324E+00 0.274E+01   -.575E+00 -.100E+01 -.695E+00
   -.587E+02 0.120E+03 -.259E+04   0.581E+02 -.119E+03 0.259E+04   0.169E+00 0.324E+00 0.274E+01   0.575E+00 -.100E+01 -.696E+00
   0.149E+03 -.168E+00 -.257E+04   -.149E+03 0.278E+00 0.257E+04   0.434E+00 -.587E-01 0.303E+01   -.111E+01 -.374E-01 -.693E+00
   -.149E+03 -.168E+00 -.257E+04   0.149E+03 0.277E+00 0.257E+04   -.434E+00 -.587E-01 0.303E+01   0.111E+01 -.373E-01 -.694E+00
   0.583E+02 -.119E+03 -.259E+04   -.578E+02 0.119E+03 0.259E+04   -.120E+00 -.260E+00 0.276E+01   -.557E+00 0.104E+01 -.682E+00
   -.583E+02 -.119E+03 -.259E+04   0.578E+02 0.119E+03 0.259E+04   0.120E+00 -.260E+00 0.276E+01   0.557E+00 0.104E+01 -.681E+00
   0.183E-04 -.594E+01 -.263E+04   0.108E-03 0.581E+01 0.263E+04   0.683E-12 0.104E+00 0.194E+01   -.604E-02 0.314E-01 -.457E+00
   -.438E-04 -.882E+00 -.169E+04   0.866E-04 0.881E+00 0.169E+04   0.402E-12 0.612E-01 0.135E+01   0.584E-02 -.268E-01 -.213E+01
   0.221E+03 0.254E-01 -.181E+04   -.253E+03 0.893E-01 0.182E+04   0.323E+02 -.878E-01 -.168E+02   -.102E+01 -.304E-01 0.645E+00
   -.221E+03 0.253E-01 -.181E+04   0.253E+03 0.893E-01 0.182E+04   -.323E+02 -.878E-01 -.168E+02   0.102E+01 -.304E-01 0.644E+00
   0.646E-03 0.257E+00 0.551E+02   -.568E-13 -.188E-12 0.455E-12   -.137E-11 -.208E+00 -.321E+02   0.128E-01 -.462E-01 -.231E+02

 POSITION                                       TOTAL-FORCE (eV/Angst)
      0.00000      0.00000      5.28219         0.000000      0.004883      0.020008
      2.93046      0.00000      5.28219         0.003446      0.016032      0.037138
      5.86091      0.00000      5.28219        -0.003446      0.016032      0.037138
      1.46523      2.53785      5.28219         0.006206     -0.003214      0.038989
      4.39568      2.53785      5.28219         0.000000      0.004930      0.022436
      7.32614      2.53785      5.28219        -0.006206     -0.003214      0.038989
      2.93046      5.07570      5.28219         0.019078     -0.013611      0.048677
      5.86091      5.07570      5.28219        -0.019078     -0.013611      0.048677
      8.79137      5.07570      5.28219        -0.000000     -0.009028      0.029919
      1.46523      0.84595      7.67490         0.019568      0.007459     -0.001580
      4.39568      0.84595      7.67490        -0.000000     -0.034483     -0.082968
      7.32614      0.84595      7.67490        -0.019568      0.007459     -0.001580
      2.93046      3.38380      7.67490        -0.032116      0.009571     -0.089703
      5.86091      3.38380      7.67490         0.032116      0.009571     -0.089703
      8.79137      3.38380      7.67490        -0.000000     -0.009805     -0.008796
      4.39568      5.92165      7.67490        -0.000000     -0.024588     -0.000713
      7.32614      5.92165      7.67490        -0.014947      0.011225      0.000190
     10.25659      5.92165      7.67490         0.014947      0.011225      0.000190
      8.79137      1.69398     10.06180         0.000000      0.017009      0.041221
      2.94231      1.69874     10.03918        -0.032100      0.008705     -0.054136
      5.84906      1.69874     10.03918         0.032100      0.008705     -0.054136
     10.25255      4.23208     10.04993         0.053334     -0.037360      0.008825
      4.39568      4.21606     10.03918        -0.000000     -0.009284     -0.055443
      7.33018      4.23208     10.04993        -0.053334     -0.037360      0.008825
     11.72002      6.76656     10.06180        -0.010087     -0.005855      0.038050
      5.86271      6.76656     10.06180         0.010087     -0.005855      0.038050
      8.79137      6.76293     10.04993         0.000000      0.037044      0.020389
      0.00000      0.00000     12.42562        -0.000000     -0.018428      0.005861
      2.96563      0.06260     12.41952        -0.132284     -0.234854     -0.087127
      5.82574      0.06260     12.41952         0.132284     -0.234854     -0.087127
      1.53702      2.53701     12.41952        -0.503307      0.013231     -0.228280
      7.25434      2.53701     12.41952         0.503307      0.013231     -0.228280
      2.96708      5.01394     12.41952        -0.149457      0.230054     -0.077589
      5.82429      5.01394     12.41952         0.149457      0.230054     -0.077589
      8.79137      5.07570     12.42127         0.000000      0.013299      0.005825
      4.39568      2.53785     12.13550         0.000000      0.032985      0.789949
      3.68160      2.53391     13.87232        -0.128294     -0.003650     -0.027300
      5.10977      2.53391     13.87232         0.128294     -0.003650     -0.027300
    total drift:                                0.013397      0.003044     -0.143599

  FREE ENERGIE OF THE ION-ELECTRON SYSTEM (eV)
  free  energy   TOTEN  =      -105.22233278 eV

  energy  without entropy=     -105.22233278  energy(sigma->0) =     -105.22233278

 stress matrix after NEB project (eV)
     -2.63690     -0.00000      0.00000
     -0.00000     -3.86353      0.11846
      0.00000      0.11846      1.97724
  FORCES: max atom, RMS     0.131217    0.030103
  FORCE total and by dimension    0.185569    0.128294
  Stress total and by dimension    5.081107    3.863534
|           W    W    AA    RRRRR   N    N  II  N    N   GGGG   !!!           |
|           W    W   A  A   R    R  NN   N  II  NN   N  G    G  !!!           |
|           W    W  A    A  R    R  N N  N  II  N N  N  G       !!!           |
|           W WW W  AAAAAA  RRRRR   N  N N  II  N  N N  G  GGG   !            |
|           WW  WW  A    A  R   R   N   NN  II  N   NN  G    G                |
|           W    W  A    A  R    R  N    N  II  N    N   GGGG   !!!           |
|     Tetrahedron method does not include variations of the Fermi             |
|     occupations, so forces and stress will be inaccurate. We suggest        |
|     using a different smearing scheme ISMEAR = 1 or 2 for metals in         |
|     relaxations.                                                            |

 total charge

# of ion       s       p       d       tot
    1        0.416   0.202   9.177   9.795
    2        0.417   0.202   9.177   9.795
    3        0.417   0.202   9.177   9.795
    4        0.418   0.203   9.177   9.797
    5        0.416   0.203   9.175   9.795
    6        0.418   0.203   9.177   9.797
    7        0.416   0.203   9.176   9.795
    8        0.416   0.203   9.176   9.795
    9        0.414   0.203   9.178   9.794
   10        0.406   0.268   9.163   9.837
   11        0.408   0.267   9.167   9.842
   12        0.406   0.268   9.163   9.837
   13        0.408   0.268   9.166   9.842
   14        0.408   0.268   9.166   9.842
   15        0.400   0.272   9.163   9.835
   16        0.405   0.268   9.164   9.837
   17        0.400   0.270   9.165   9.835
   18        0.400   0.270   9.165   9.835
   19        0.399   0.266   9.168   9.833
   20        0.424   0.292   9.147   9.864
   21        0.424   0.292   9.147   9.864
   22        0.398   0.275   9.165   9.838
   23        0.418   0.296   9.150   9.864
   24        0.398   0.275   9.165   9.838
   25        0.400   0.267   9.165   9.833
   26        0.400   0.267   9.165   9.833
   27        0.399   0.273   9.165   9.838
   28        0.414   0.192   9.181   9.788
   29        0.400   0.199   9.189   9.788
   30        0.400   0.199   9.189   9.788
   31        0.395   0.203   9.192   9.789
   32        0.395   0.203   9.192   9.789
   33        0.399   0.199   9.191   9.788
   34        0.399   0.199   9.191   9.788
   35        0.412   0.193   9.181   9.786
   36        0.376   0.410   7.412   8.198
   37        1.604   3.272   0.000   4.876
   38        1.604   3.272   0.000   4.876
tot         17.847  15.290 328.429 361.565

 BZINTS: Fermi energy:    0.318134;  406.000000 electrons
         Band energy:-0.157409E+04;  BLOECHL correction:   -0.032276