 vasp.6.2.0 18Jan21 (build Jun 12 2021 23:27:24) complex

 executed on             LinuxIFC date 2022.05.30  17:22:59

 INCAR:
   ISMEAR = -5
   SIGMA = 0.1
   ISPIN = 1
   EDIFF = 1.d-5
   EDIFFG = -0.01
   NSW = 0
   NELM = 150
   ENCUT = 500
   ISIF = 2
   IBRION = 2
   LREAL = Auto
   ALGO = Fast
   ICHARG = 11
   LORBIT = 10
   LCHARG = .F.
   LWAVE = .F.

 POTCAR:    PAW_PBE Ag 02Apr2005
 POTCAR:    PAW_PBE Rh 04Feb2005
 POTCAR:    PAW_PBE C 08Apr2002
 POTCAR:    PAW_PBE O 08Apr2002
 POTCAR:    PAW_PBE H 15Jun2001
|           W    W    AA    RRRRR   N    N  II  N    N   GGGG   !!!           |
|           W    W   A  A   R    R  NN   N  II  NN   N  G    G  !!!           |
|           W    W  A    A  R    R  N N  N  II  N N  N  G       !!!           |
|           W WW W  AAAAAA  RRRRR   N  N N  II  N  N N  G  GGG   !            |
|           WW  WW  A    A  R   R   N   NN  II  N   NN  G    G                |
|           W    W  A    A  R    R  N    N  II  N    N   GGGG   !!!           |
|     For optimal performance we recommend to set                             |
|       NCORE = 2 up to number-of-cores-per-socket                            |
|     This setting can greatly improve the performance of VASP for DFT.       |
|     The default, NCORE=1 might be grossly inefficient on modern             |
|     multi-core architectures or massively parallel machines. Do your        |
|     Unfortunately you need to use the default for GW and RPA                |
|     calculations (for HF NCORE is supported but not extensively tested      |
|     yet).                                                                   |

 POTCAR:    PAW_PBE Ag 02Apr2005
   VRHFIN =Ag : s1 d10

   TITEL  = PAW_PBE Ag 02Apr2005
   POMASS =  107.868; ZVAL   =   11.000    mass and valenz
   ENMAX  =  249.844; ENMIN  =  187.383 eV

 POTCAR:    PAW_PBE Rh 04Feb2005
   VRHFIN =Rh: s1 d8

   TITEL  = PAW_PBE Rh 04Feb2005
   POMASS =  102.906; ZVAL   =    9.000    mass and valenz
   ENMAX  =  228.996; ENMIN  =  171.747 eV

 POTCAR:    PAW_PBE C 08Apr2002
   VRHFIN =C: s2p2

[...]

 POTCAR:    PAW_PBE O 08Apr2002
   VRHFIN =O: s2p4

   TITEL  = PAW_PBE O 08Apr2002
   POMASS =   16.000; ZVAL   =    6.000    mass and valenz
   ENMAX  =  400.000; ENMIN  =  300.000 eV

 POTCAR:    PAW_PBE H 15Jun2001
   VRHFIN =H: ultrasoft test

   TITEL  = PAW_PBE H 15Jun2001
   POMASS =    1.000; ZVAL   =    1.000    mass and valenz
   ENMAX  =  250.000; ENMIN  =  200.000 eV

 Optimization of the real space projectors (new method)

 maximal supplied QI-value         = 15.12
 optimisation between [QCUT,QGAM] = [ 11.34, 22.83] = [ 36.00,145.93] Ry
 Optimized for a Real-space Cutoff    1.43 Angstroem

   l    n(q)    QCUT    max X(q) W(low)/X(q) W(high)/X(q)  e(spline)
   2      9    11.338    53.897    0.16E-03    0.20E-03    0.28E-06
   2      9    11.338    52.416    0.16E-03    0.20E-03    0.29E-06
   0     10    11.338   122.045    0.31E-04    0.76E-04    0.15E-06
   0     10    11.338    73.629    0.30E-04    0.72E-04    0.15E-06
   1      9    11.338    15.255    0.20E-03    0.19E-04    0.17E-06
   1      9    11.338     9.562    0.16E-03    0.15E-04    0.14E-06
 Optimization of the real space projectors (new method)

[...]

   l    n(q)    QCUT    max X(q) W(low)/X(q) W(high)/X(q)  e(spline)
   0      7    11.387    20.381    0.39E-03    0.13E-02    0.15E-06
   0      7    11.387    15.268    0.42E-03    0.14E-02    0.17E-06
   1      6    11.387     5.964    0.41E-03    0.11E-02    0.17E-06
   1      6    11.387     5.382    0.39E-03    0.87E-03    0.15E-06
 Optimization of the real space projectors (new method)

 maximal supplied QI-value         = 34.20
 optimisation between [QCUT,QGAM] = [ 11.29, 22.57] = [ 35.68,142.71] Ry
 Optimized for a Real-space Cutoff    1.16 Angstroem

   l    n(q)    QCUT    max X(q) W(low)/X(q) W(high)/X(q)  e(spline)
   0      8    11.287    19.460    0.40E-03    0.73E-03    0.16E-06
   0      8    11.287    12.209    0.38E-03    0.70E-03    0.15E-06
   1      7    11.287     4.655    0.22E-03    0.25E-04    0.22E-06
  PAW_PBE Ag 02Apr2005                  :
  PAW_PBE Rh 04Feb2005                  :
  PAW_PBE C 08Apr2002                   :
  PAW_PBE O 08Apr2002                   :
  PAW_PBE H 15Jun2001                   :

 POSCAR: Ag-Rh-COH
  positions in direct lattice
  velocities in cartesian coordinates
 exchange correlation table for  LEXCH =        8
   RHO(1)=    0.500       N(1)  =     2000
   RHO(2)=  100.500       N(2)  =     4000

 VTST: version 3.2, (02/03/18)

 CHAIN: initializing optimizer

 OPT: Using VASP Conjugate-Gradient optimizer
 CHAIN: Read ICHAIN            0

 POSCAR: Ag-Rh-COH
  positions in direct lattice
  velocities in cartesian coordinates

 ion  position               nearest neighbor table
   1  0.000  0.000  0.199-   2 2.93   8 2.93   7 2.93   6 2.93   4 2.93  12 2.93  16 2.93  10 2.93
                             3 2.93
   2  0.333  0.000  0.199-   1 2.93   8 2.93   9 2.93   3 2.93   4 2.93   5 2.93  10 2.93  17 2.93
                            11 2.93
   3  0.667  0.000  0.199-   9 2.93   2 2.93   5 2.93  11 2.93   7 2.93  18 2.93   1 2.93   6 2.93
                            12 2.93
   4  0.000  0.333  0.199-   5 2.93   6 2.93   2 2.93   1 2.93   7 2.93  13 2.93  15 2.93   9 2.93
                            10 2.93
   5  0.333  0.333  0.199-   4 2.93   3 2.93   7 2.93   2 2.93   8 2.93  14 2.93  13 2.93  11 2.93
                             6 2.93
   6  0.667  0.333  0.199-   4 2.93   9 2.93   1 2.93  15 2.93   8 2.93  12 2.93   3 2.93   5 2.93
                            14 2.93
   7  0.000  0.667  0.199-   8 2.93   1 2.93   5 2.93   3 2.93   4 2.93  16 2.93  18 2.93  13 2.93
                             9 2.93
   8  0.333  0.667  0.199-   7 2.93   1 2.93   2 2.93   9 2.93   5 2.93  16 2.93   6 2.93  17 2.93
                            14 2.93
   9  0.667  0.667  0.199-   3 2.93   2 2.93   8 2.93   6 2.93  17 2.93   4 2.93  15 2.93   7 2.93
                            18 2.93
  10  0.111  0.111  0.289-  20 2.90  19 2.93  26 2.93  12 2.93  16 2.93  15 2.93  17 2.93  13 2.93
                            11 2.93   2 2.93   1 2.93   4 2.93
  11  0.444  0.111  0.289-  21 2.90  20 2.90  27 2.92  14 2.93  17 2.93  18 2.93   3 2.93  12 2.93
                            13 2.93  10 2.93   5 2.93   2 2.93
  12  0.778  0.111  0.289-  21 2.90  25 2.93  19 2.93  10 2.93  16 2.93  18 2.93  15 2.93  11 2.93
                             1 2.93  14 2.93   6 2.93   3 2.93
  13  0.111  0.444  0.289-  20 2.90  23 2.90  22 2.92  15 2.93  14 2.93  18 2.93  10 2.93  11 2.93
                            16 2.93   4 2.93   5 2.93   7 2.93
  14  0.444  0.444  0.289-  23 2.90  21 2.90  24 2.92  13 2.93  11 2.93  16 2.93   5 2.93  12 2.93
                            17 2.93   8 2.93  15 2.93   6 2.93
  15  0.778  0.444  0.289-  24 2.92  22 2.92  19 2.92  13 2.93  10 2.93  12 2.93  17 2.93  18 2.93
                             4 2.93   6 2.93   9 2.93  14 2.93
  16  0.111  0.778  0.289-  23 2.90  26 2.93  25 2.93  18 2.93  12 2.93  10 2.93  14 2.93  17 2.93
                            13 2.93   7 2.93   8 2.93   1 2.93
  17  0.444  0.778  0.289-  27 2.92  24 2.92  26 2.92  11 2.93  10 2.93   9 2.93  18 2.93  15 2.93
                            16 2.93   2 2.93  14 2.93   8 2.93
  18  0.778  0.778  0.289-  22 2.92  27 2.92  25 2.92  16 2.93  12 2.93  13 2.93  11 2.93  17 2.93
                            15 2.93   7 2.93   3 2.93   9 2.93
  19  0.889  0.223  0.379-  28 2.91  15 2.92  10 2.93  12 2.93  24 2.93  22 2.93  32 2.93  31 2.93
                            20 2.93  21 2.93  26 2.94  25 2.94
  20  0.222  0.222  0.377-  36 2.78  13 2.90  11 2.90  10 2.90  31 2.91  29 2.91  21 2.92  23 2.92
                            27 2.93  22 2.93  19 2.93  26 2.93
  21  0.555  0.222  0.377-  36 2.78  11 2.90  14 2.90  12 2.90  30 2.91  32 2.91  20 2.92  23 2.92
                            27 2.93  24 2.93  25 2.93  19 2.93
  22  0.889  0.556  0.378-  35 2.90  18 2.92  15 2.92  13 2.92  33 2.92  31 2.92  25 2.93  19 2.93
                            24 2.93  27 2.93  23 2.93  20 2.93
  23  0.222  0.555  0.377-  36 2.78  14 2.90  13 2.90  16 2.90  34 2.91  33 2.91  21 2.92  20 2.92
                            22 2.93  24 2.93  26 2.93  25 2.93
  24  0.556  0.556  0.378-  35 2.90  15 2.92  17 2.92  14 2.92  32 2.92  34 2.92  19 2.93  26 2.93
                            27 2.93  22 2.93  23 2.93  21 2.93
  25  0.889  0.889  0.379-  28 2.91  18 2.92  16 2.93  12 2.93  22 2.93  27 2.93  33 2.93  30 2.93
                            23 2.93  21 2.93  26 2.94  19 2.94
  26  0.223  0.889  0.379-  28 2.91  17 2.92  16 2.93  10 2.93  27 2.93  24 2.93  34 2.93  29 2.93
                            23 2.93  20 2.93  25 2.94  19 2.94
  27  0.556  0.889  0.378-  35 2.90  17 2.92  18 2.92  11 2.92  29 2.92  30 2.92  26 2.93  25 2.93
                            24 2.93  22 2.93  20 2.93  21 2.93
  28  0.000  0.000  0.467-  26 2.91  25 2.91  19 2.91  29 2.95  34 2.95  33 2.95  32 2.95  31 2.95
                            30 2.95
  29  0.333  0.005  0.468-  31 2.88  30 2.89  36 2.89  20 2.91  27 2.92  26 2.93  28 2.95  35 2.95
                            34 3.02
  30  0.662  0.005  0.468-  32 2.88  29 2.89  36 2.89  21 2.91  27 2.92  25 2.93  28 2.95  35 2.95
                            33 3.02
  31  0.005  0.333  0.468-  29 2.88  33 2.89  36 2.89  20 2.91  22 2.92  19 2.93  28 2.95  35 2.95
                            32 3.02
  32  0.662  0.333  0.468-  30 2.88  34 2.89  36 2.89  21 2.91  24 2.92  19 2.93  28 2.95  35 2.95
                            31 3.02
  33  0.005  0.662  0.468-  34 2.88  31 2.89  36 2.89  23 2.91  22 2.92  25 2.93  28 2.95  35 2.95
                            30 3.02
  34  0.333  0.662  0.468-  33 2.88  32 2.89  36 2.89  23 2.91  24 2.92  26 2.93  28 2.95  35 2.95
                            29 3.02
  35  0.667  0.667  0.467-  24 2.90  27 2.90  22 2.90  30 2.95  32 2.95  29 2.95  34 2.95  31 2.95
                            33 2.95
  36  0.333  0.333  0.460-  37 1.74  21 2.78  20 2.78  23 2.78  31 2.89  30 2.89  33 2.89  29 2.89
                            34 2.89  32 2.89
  37  0.333  0.333  0.526-  38 1.26  36 1.74
  38  0.333  0.333  0.573-  39 0.97  37 1.26
  39  0.333  0.333  0.610-  38 0.97

  LATTYP: Found a hexagonal cell.
 ALAT       =     8.7913665772
 C/A-ratio  =     3.0233954145

  Lattice vectors:

 A1 = (  -4.3956832886,  -7.6135467898,   0.0000000000)
 A2 = (   8.7913665771,   0.0000000000,   0.0000000000)
 A3 = (   0.0000000000,   0.0000000000,  26.5797773968)

Analysis of symmetry for initial positions (statically):
 Subroutine PRICEL returns:
 Original cell was already a primitive cell.

 Routine SETGRP: Setting up the symmetry group for a
 hexagonal supercell.

 Subroutine GETGRP returns: Found  6 space group operations
 (whereof  6 operations were pure point group operations)
 out of a pool of 24 trial point group operations.

The static configuration has the point symmetry C_3v.

Analysis of symmetry for dynamics (positions and initial velocities):
 Subroutine PRICEL returns:
 Original cell was already a primitive cell.

[...]

[...]
     41      -4.6292      2.00000
     42      -4.6128      2.00000
     43      -4.5806      2.00000
     44      -4.5667      2.00000
     45      -4.5636      2.00000
     46      -4.5495      2.00000
     47      -4.5343      2.00000
     48      -4.4473      2.00000
     49      -4.4186      2.00000
     50      -4.4083      2.00000
     51      -4.4024      2.00000
     52      -4.3990      2.00000
     53      -4.3938      2.00000
     54      -4.3799      2.00000
     55      -4.3720      2.00000
     56      -4.3673      2.00000
     57      -4.3549      2.00000
     58      -4.2842      2.00000
     59      -4.2764      2.00000
     60      -4.2688      2.00000
[...]
    238       5.2996      0.00000
    239       5.3907      0.00000
    240       5.5422      0.00000
    241       5.5769      0.00000
    242       5.7342      0.00000
    243       5.8098      0.00000
    244       5.8315      0.00000
    245       5.8524      0.00000
    246       5.8995      0.00000
    247       5.9370      0.00000
    248       5.9666      0.00000
    249       6.0408      0.00000
    250       6.1543      0.00000
    251       6.5575      0.00000
    252       6.8566      0.00000

 soft charge-density along one line, spin component           1
         0         1         2         3         4         5         6         7         8         9
 total charge-density along one line

------------------------ aborting loop because EDIFF is reached ----------------------------------------

 total charge

# of ion       s       p       d       tot
    1        0.415   0.204   9.177   9.796
    2        0.419   0.204   9.177   9.799
    3        0.419   0.204   9.177   9.799
    4        0.419   0.204   9.177   9.799
    5        0.418   0.204   9.176   9.797
    6        0.419   0.204   9.177   9.799
    7        0.419   0.204   9.177   9.799
    8        0.419   0.204   9.177   9.799
    9        0.414   0.206   9.177   9.796
   10        0.407   0.268   9.164   9.840
   11        0.409   0.269   9.166   9.843
   12        0.407   0.268   9.164   9.840
   13        0.409   0.269   9.166   9.843
   14        0.409   0.269   9.166   9.843
   15        0.400   0.271   9.165   9.837
   16        0.407   0.268   9.164   9.840
   17        0.400   0.271   9.165   9.837
   18        0.400   0.271   9.165   9.837
   19        0.406   0.267   9.167   9.840
   20        0.425   0.291   9.152   9.868
   21        0.425   0.291   9.152   9.868
   22        0.398   0.276   9.164   9.838
   23        0.425   0.291   9.152   9.868
   24        0.398   0.276   9.164   9.838
   25        0.406   0.267   9.167   9.840
   26        0.406   0.267   9.167   9.840
   27        0.398   0.276   9.164   9.838
   28        0.421   0.200   9.179   9.799
   29        0.406   0.214   9.181   9.801
   30        0.406   0.214   9.181   9.801
   31        0.406   0.214   9.181   9.801
   32        0.406   0.214   9.181   9.801
   33        0.406   0.214   9.181   9.801
   34        0.406   0.214   9.181   9.801
   35        0.419   0.200   9.179   9.799
   36        0.499   0.596   7.564   8.659
   37        0.934   1.419   0.000   2.354
   38        1.534   3.744   0.000   5.278
   39        0.553   0.128   0.000   0.682
tot         17.889  14.334 328.531 360.755

  FORCE on cell =-STRESS in cart. coord.  units (eV):
  Direction    XX          YY          ZZ          XY          YZ          ZX
  Alpha Z   640.62871   640.62871   640.62871
  Ewald  187771.15973187771.15981************     0.00004     0.00000     0.00005
  Hartree198016.57348198016.57351************     0.00002     0.00000     0.00002
  E(xc)   -2120.46756 -2120.46772 -2124.01491     0.00014    -0.00001    -0.00002
  Local  ************************396774.16191     0.00061    -0.00007    -0.00021
  n-local  -352.71087  -335.81324  -340.75147    10.44108    -0.36771     0.43366
  augment  3289.90055  3289.90082  3285.80999    -0.00023    -0.00005    -0.00006
  Kinetic  5101.99366  5103.96096  5047.01288     3.94658     1.25423    -0.50728
  Fock        0.00000     0.00000     0.00000     0.00000     0.00000     0.00000
  Total      -6.64120    -6.64120     0.41139    -0.00000     0.00000    -0.00000
  in kB      -5.98084    -5.98084     0.37049    -0.00000     0.00000    -0.00000

 VOLUME and BASIS-vectors are now :
  energy-cutoff  :      500.00
  volume of cell :     1779.08
      direct lattice vectors                 reciprocal lattice vectors
     8.791366577  0.000000000  0.000000000     0.113747958 -0.065672414  0.000000000
     4.395683289  7.613546790  0.000000000     0.000000000  0.131344829  0.000000000
     0.000000000  0.000000000 26.579777397     0.000000000  0.000000000  0.037622587

  length of vectors
     8.791366577  8.791366577 26.579777397     0.131344829  0.131344829  0.037622587

 FORCES acting on ions
    electron-ion (+dipol)            ewald-force                    non-local-force                 convergence-correction
   0.455E-04 -.285E-04 0.286E+04   -.954E-04 0.593E-04 -.285E+04   0.719E-18 -.313E-17 -.230E+01   -.171E-03 -.165E-03 -.204E-01
   0.360E+00 0.389E+00 0.286E+04   -.441E+00 -.530E+00 -.285E+04   0.264E-01 0.504E-01 -.157E+01   0.590E-01 0.101E+00 -.581E-01
   -.360E+00 0.389E+00 0.286E+04   0.441E+00 -.530E+00 -.285E+04   -.264E-01 0.504E-01 -.157E+01   -.595E-01 0.103E+00 -.572E-01
   0.517E+00 0.117E+00 0.286E+04   -.680E+00 -.116E+00 -.285E+04   0.569E-01 -.231E-02 -.157E+01   0.117E+00 0.838E-03 -.580E-01
   -.428E-05 -.179E-04 0.286E+04   0.981E-04 -.199E-05 -.286E+04   -.100E-17 -.132E-17 -.152E+01   0.625E-02 0.382E-02 -.802E-01
   -.517E+00 0.117E+00 0.286E+04   0.680E+00 -.116E+00 -.285E+04   -.569E-01 -.231E-02 -.157E+01   -.119E+00 0.169E-02 -.571E-01
   0.157E+00 -.506E+00 0.286E+04   -.239E+00 0.647E+00 -.285E+04   0.304E-01 -.481E-01 -.157E+01   0.597E-01 -.102E+00 -.572E-01
   -.157E+00 -.506E+00 0.286E+04   0.239E+00 0.647E+00 -.285E+04   -.304E-01 -.481E-01 -.157E+01   -.581E-01 -.103E+00 -.572E-01
   0.371E-04 -.125E-04 0.286E+04   0.792E-04 -.643E-04 -.285E+04   0.461E-17 -.161E-17 -.195E+01   -.661E-02 -.343E-02 0.194E-02
   0.514E+01 0.297E+01 0.100E+04   -.474E+01 -.274E+01 -.100E+04   -.414E+00 -.239E+00 -.773E+00   0.368E-01 0.214E-01 0.134E+00
   -.293E-04 0.499E+01 0.101E+04   0.414E-04 -.526E+01 -.101E+04   0.661E-12 0.101E+00 -.485E+00   0.661E-02 0.119E+00 0.133E+00
   -.514E+01 0.297E+01 0.100E+04   0.474E+01 -.274E+01 -.100E+04   0.414E+00 -.239E+00 -.773E+00   -.387E-01 0.224E-01 0.134E+00
   0.432E+01 -.249E+01 0.101E+04   -.455E+01 0.263E+01 -.101E+04   0.872E-01 -.503E-01 -.485E+00   0.107E+00 -.539E-01 0.134E+00
   -.432E+01 -.249E+01 0.101E+04   0.455E+01 0.263E+01 -.101E+04   -.872E-01 -.503E-01 -.485E+00   -.958E-01 -.553E-01 0.132E+00
   0.159E-04 0.512E+00 0.100E+04   -.109E-03 -.503E+00 -.100E+04   -.807E-13 -.123E-01 -.675E+00   -.171E-02 -.114E-01 0.128E+00
   -.741E-05 -.593E+01 0.100E+04   0.206E-04 0.548E+01 -.100E+04   0.314E-11 0.478E+00 -.773E+00   -.237E-03 -.446E-01 0.134E+00
   0.443E+00 -.256E+00 0.100E+04   -.436E+00 0.252E+00 -.100E+04   -.106E-01 0.614E-02 -.675E+00   -.106E-01 0.417E-02 0.128E+00
   -.443E+00 -.256E+00 0.100E+04   0.436E+00 0.252E+00 -.100E+04   0.106E-01 0.614E-02 -.675E+00   0.111E-01 0.632E-02 0.129E+00
   0.409E-04 0.289E+01 -.881E+03   -.129E-03 -.290E+01 0.880E+03   -.135E-12 -.205E-01 0.605E+00   -.659E-02 0.256E-01 -.391E-02
   0.180E+02 0.104E+02 -.840E+03   -.171E+02 -.987E+01 0.840E+03   -.103E+01 -.592E+00 -.109E+01   0.824E-01 0.484E-01 0.416E-01
   -.180E+02 0.104E+02 -.840E+03   0.171E+02 -.987E+01 0.840E+03   0.103E+01 -.592E+00 -.109E+01   -.809E-01 0.470E-01 0.410E-01
   0.837E+01 -.483E+01 -.870E+03   -.861E+01 0.497E+01 0.869E+03   0.233E+00 -.135E+00 0.606E+00   0.389E-01 -.207E-01 -.127E-01
   -.572E-04 -.207E+02 -.840E+03   0.445E-04 0.197E+02 0.840E+03   0.778E-11 0.118E+01 -.109E+01   -.542E-02 -.103E+00 0.410E-01
   -.837E+01 -.483E+01 -.870E+03   0.861E+01 0.497E+01 0.869E+03   -.233E+00 -.135E+00 0.606E+00   -.373E-01 -.222E-01 -.121E-01
   -.250E+01 -.144E+01 -.881E+03   0.251E+01 0.145E+01 0.880E+03   0.178E-01 0.103E-01 0.605E+00   -.298E-01 -.166E-01 -.381E-02
   0.250E+01 -.144E+01 -.881E+03   -.251E+01 0.145E+01 0.880E+03   -.178E-01 0.103E-01 0.605E+00   0.190E-01 -.175E-01 -.386E-02
   0.201E-04 0.967E+01 -.870E+03   0.110E-03 -.994E+01 0.869E+03   0.177E-11 0.269E+00 0.606E+00   0.995E-03 0.434E-01 -.127E-01
   0.539E-04 -.376E-04 -.275E+04   -.117E-03 0.787E-04 0.275E+04   0.424E-18 0.499E-17 0.160E+01   -.152E-02 -.732E-03 0.588E-01
   0.308E+02 0.539E+02 -.272E+04   -.307E+02 -.540E+02 0.272E+04   -.188E+00 -.228E+00 0.207E+01   0.478E-01 0.836E-01 0.458E-01
   -.308E+02 0.539E+02 -.272E+04   0.307E+02 -.540E+02 0.272E+04   0.188E+00 -.228E+00 0.207E+01   -.376E-01 0.849E-01 0.450E-01
   0.621E+02 -.293E+00 -.272E+04   -.621E+02 0.362E+00 0.272E+04   -.292E+00 -.489E-01 0.207E+01   0.964E-01 -.132E-03 0.456E-01
   -.621E+02 -.293E+00 -.272E+04   0.621E+02 0.362E+00 0.272E+04   0.292E+00 -.489E-01 0.207E+01   -.870E-01 0.151E-03 0.453E-01
   0.313E+02 -.536E+02 -.272E+04   -.314E+02 0.536E+02 0.272E+04   -.103E+00 0.277E+00 0.207E+01   0.549E-01 -.747E-01 0.450E-01
   -.313E+02 -.536E+02 -.272E+04   0.314E+02 0.536E+02 0.272E+04   0.103E+00 0.277E+00 0.207E+01   -.435E-01 -.755E-01 0.459E-01
   0.217E-04 -.104E-04 -.275E+04   0.107E-03 -.668E-04 0.274E+04   0.419E-18 0.238E-17 0.171E+01   -.747E-02 -.402E-02 0.198E-01
   0.178E-04 -.853E-05 -.195E+04   0.860E-04 0.106E-04 0.196E+04   -.123E-16 0.570E-17 -.525E+01   0.221E-02 0.161E-02 0.217E-01
   0.970E-06 -.752E-04 -.109E+04   0.186E-04 0.268E-06 0.107E+04   0.117E-17 -.604E-18 0.189E+02   0.104E-02 0.646E-03 -.248E-01
   0.240E-03 -.912E-04 -.176E+04   0.919E-05 0.136E-07 0.177E+04   0.278E-17 0.124E-17 -.558E+01   0.379E-02 0.232E-02 -.468E-01
   0.666E-05 -.139E-04 -.334E+03   0.623E-06 -.285E-08 0.342E+03   0.507E-19 0.113E-20 -.831E+01   0.199E-03 0.122E-03 -.959E-02
   0.678E-03 -.848E-03 0.403E+01   -.177E-12 -.664E-13 0.210E-11   -.202E-15 0.231E-15 -.512E+01   0.238E-01 0.120E-01 0.111E+01

 POSITION                                       TOTAL-FORCE (eV/Angst)
      0.00000      0.00000      5.28219        -0.000000      0.000000      0.041014
      2.93046      0.00000      5.28219         0.005390      0.010655      0.045206
      5.86091      0.00000      5.28219        -0.005390      0.010655      0.045206
      1.46523      2.53785      5.28219         0.011922     -0.000660      0.045206
      4.39568      2.53785      5.28219         0.000000      0.000000      0.025881
      7.32614      2.53785      5.28219        -0.011922     -0.000660      0.045206
      2.93046      5.07570      5.28219         0.006533     -0.009995      0.045206
      5.86091      5.07570      5.28219        -0.006533     -0.009995      0.045206
      8.79137      5.07570      5.28219        -0.000000      0.000000      0.043636
      1.46523      0.84595      7.67490         0.018140      0.010473     -0.012111
      4.39568      0.84595      7.67490        -0.000000     -0.050160     -0.099101
      7.32614      0.84595      7.67490        -0.018140      0.010473     -0.012111
      2.93046      3.38380      7.67490        -0.043440      0.025080     -0.099101
      5.86091      3.38380      7.67490         0.043440      0.025080     -0.099101
      8.79137      3.38380      7.67490        -0.000000     -0.015492      0.004457
      4.39568      5.92165      7.67490        -0.000000     -0.020947     -0.012111
      7.32614      5.92165      7.67490        -0.013417      0.007746      0.004457
     10.25659      5.92165      7.67490         0.013417      0.007746      0.004457
      8.79137      1.69615     10.06050        -0.000000     -0.000196     -0.003848
      2.93321      1.69349     10.03240        -0.081261     -0.046916     -0.217407
      5.85816      1.69349     10.03240         0.081261     -0.046916     -0.217407
     10.25564      4.23030     10.05204         0.032223     -0.018604     -0.020184
      4.39568      4.22657     10.03240         0.000000      0.093832     -0.217407
      7.32709      4.23030     10.05204        -0.032223     -0.018604     -0.020184
     11.71814      6.76547     10.06050         0.000170      0.000098     -0.003848
      5.86459      6.76547     10.06050        -0.000170      0.000098     -0.003848
      8.79137      6.76650     10.05204         0.000000      0.037208     -0.020184
      0.00000      0.00000     12.42190         0.000000      0.000000      0.020799
      2.95118      0.03878     12.42853        -0.099153     -0.205949     -0.044745
      5.84018      0.03878     12.42853         0.099153     -0.205949     -0.044745
      1.50917      2.53641     12.42853        -0.227933      0.017105     -0.044745
      7.28219      2.53641     12.42853         0.227933      0.017105     -0.044745
      2.95367      5.03836     12.42853        -0.128780      0.188843     -0.044745
      5.83769      5.03836     12.42853         0.128780      0.188843     -0.044745
      8.79137      5.07570     12.41313         0.000000      0.000000      0.041779
      4.39568      2.53785     12.23685         0.000000      0.000000      0.904380
      4.39568      2.53785     13.98052         0.000000      0.000000     -0.021771
      4.39568      2.53785     15.23992        -0.000000      0.000000     -0.004418
      4.39568      2.53785     16.20674        -0.000000      0.000000     -0.009483
    total drift:                                0.024442      0.011166      0.022258

  FREE ENERGIE OF THE ION-ELECTRON SYSTEM (eV)
  free  energy   TOTEN  =      -113.22928788 eV

  energy  without entropy=     -113.22928788  energy(sigma->0) =     -113.22928788

 stress matrix after NEB project (eV)
     -6.64120     -0.00000     -0.00000
     -0.00000     -6.64120      0.00000
     -0.00000      0.00000      0.41139
  FORCES: max atom, RMS     0.021771    0.003868
  FORCE total and by dimension    0.024154    0.021771
  Stress total and by dimension    9.401080    6.641200
|           W    W    AA    RRRRR   N    N  II  N    N   GGGG   !!!           |
|           W    W   A  A   R    R  NN   N  II  NN   N  G    G  !!!           |
|           W    W  A    A  R    R  N N  N  II  N N  N  G       !!!           |
|           W WW W  AAAAAA  RRRRR   N  N N  II  N  N N  G  GGG   !            |
|           WW  WW  A    A  R   R   N   NN  II  N   NN  G    G                |
|           W    W  A    A  R    R  N    N  II  N    N   GGGG   !!!           |
|     Tetrahedron method does not include variations of the Fermi             |
|     occupations, so forces and stress will be inaccurate. We suggest        |
|     using a different smearing scheme ISMEAR = 1 or 2 for metals in         |
|     relaxations.                                                            |

 total charge

# of ion       s       p       d       tot
    1        0.415   0.204   9.177   9.796
    2        0.419   0.204   9.177   9.799
    3        0.419   0.204   9.177   9.799
    4        0.419   0.204   9.177   9.799
    5        0.418   0.204   9.176   9.797
    6        0.419   0.204   9.177   9.799
    7        0.419   0.204   9.177   9.799
    8        0.419   0.204   9.177   9.799
    9        0.414   0.206   9.177   9.796
   10        0.407   0.268   9.164   9.840
   11        0.409   0.269   9.166   9.843
   12        0.407   0.268   9.164   9.840
   13        0.409   0.269   9.166   9.843
   14        0.409   0.269   9.166   9.843
   15        0.400   0.271   9.165   9.837
   16        0.407   0.268   9.164   9.840
   17        0.400   0.271   9.165   9.837
   18        0.400   0.271   9.165   9.837
   19        0.406   0.267   9.167   9.840
   20        0.425   0.291   9.152   9.868
   21        0.425   0.291   9.152   9.868
   22        0.398   0.276   9.164   9.838
   23        0.425   0.291   9.152   9.868
   24        0.398   0.276   9.164   9.838
   25        0.406   0.267   9.167   9.840
   26        0.406   0.267   9.167   9.840
   27        0.398   0.276   9.164   9.838
   28        0.421   0.200   9.179   9.799
   29        0.406   0.214   9.181   9.801
   30        0.406   0.214   9.181   9.801
   31        0.406   0.214   9.181   9.801
   32        0.406   0.214   9.181   9.801
   33        0.406   0.214   9.181   9.801
   34        0.406   0.214   9.181   9.801
   35        0.419   0.200   9.179   9.799
   36        0.499   0.596   7.564   8.659
   37        0.934   1.419   0.000   2.354
   38        1.534   3.744   0.000   5.278
   39        0.553   0.128   0.000   0.682
tot         17.889  14.334 328.531 360.755

 BZINTS: Fermi energy:    0.602708;  405.000000 electrons
         Band energy:-0.149321E+04;  BLOECHL correction:   -0.052479