 vasp.6.2.0 18Jan21 (build Jun 12 2021 23:27:24) complex

 executed on             LinuxIFC date 2022.05.26  19:36:32

 INCAR:
   ISMEAR = -5
   SIGMA = 0.1
   ISPIN = 1
   EDIFF = 1.d-5
   EDIFFG = -0.01
   NSW = 0
   NELM = 150
   ENCUT = 500
   ISIF = 2
   IBRION = 2
   LREAL = Auto
   ALGO = Fast
   ICHARG = 11
   LORBIT = 10
   LCHARG = .F.
   LWAVE = .F.

 POTCAR:    PAW_PBE Au 04Oct2007
 POTCAR:    PAW_PBE Pt 04Feb2005
 POTCAR:    PAW_PBE O 08Apr2002
|           W    W    AA    RRRRR   N    N  II  N    N   GGGG   !!!           |
|           W    W   A  A   R    R  NN   N  II  NN   N  G    G  !!!           |
|           W    W  A    A  R    R  N N  N  II  N N  N  G       !!!           |
|           W WW W  AAAAAA  RRRRR   N  N N  II  N  N N  G  GGG   !            |
|           WW  WW  A    A  R   R   N   NN  II  N   NN  G    G                |
|           W    W  A    A  R    R  N    N  II  N    N   GGGG   !!!           |
|     For optimal performance we recommend to set                             |
|       NCORE = 2 up to number-of-cores-per-socket                            |
|     This setting can greatly improve the performance of VASP for DFT.       |
|     The default, NCORE=1 might be grossly inefficient on modern             |
|     multi-core architectures or massively parallel machines. Do your        |
|     Unfortunately you need to use the default for GW and RPA                |
|     calculations (for HF NCORE is supported but not extensively tested      |
|     yet).                                                                   |

 POTCAR:    PAW_PBE Au 04Oct2007
   VRHFIN =Au: s1d10

   TITEL  = PAW_PBE Au 04Oct2007
   POMASS =  196.966; ZVAL   =   11.000    mass and valenz
   ENMAX  =  229.943; ENMIN  =  172.457 eV

 POTCAR:    PAW_PBE Pt 04Feb2005
   VRHFIN =Pt: s1d9

   TITEL  = PAW_PBE Pt 04Feb2005
   POMASS =  195.080; ZVAL   =   10.000    mass and valenz
   ENMAX  =  230.283; ENMIN  =  172.712 eV

 POTCAR:    PAW_PBE O 08Apr2002
   VRHFIN =O: s2p4

   TITEL  = PAW_PBE O 08Apr2002
   POMASS =   16.000; ZVAL   =    6.000    mass and valenz
   ENMAX  =  400.000; ENMIN  =  300.000 eV

 Optimization of the real space projectors (new method)

 maximal supplied QI-value         = 15.12
 optimisation between [QCUT,QGAM] = [ 11.34, 22.83] = [ 36.00,145.93] Ry
 Optimized for a Real-space Cutoff    1.39 Angstroem

   l    n(q)    QCUT    max X(q) W(low)/X(q) W(high)/X(q)  e(spline)
   2      9    11.338    60.898    0.39E-03    0.42E-03    0.21E-06
   2      9    11.338    58.894    0.40E-03    0.42E-03    0.22E-06
   0      9    11.338   109.617    0.13E-03    0.20E-04    0.13E-06
   0      9    11.338    75.026    0.13E-03    0.20E-04    0.13E-06
   1      9    11.338    16.344    0.33E-04    0.24E-03    0.18E-06
   1      9    11.338    10.160    0.26E-04    0.19E-03    0.15E-06
 Optimization of the real space projectors (new method)

[...]

   l    n(q)    QCUT    max X(q) W(low)/X(q) W(high)/X(q)  e(spline)
   2      9    11.346    66.195    0.31E-03    0.12E-04    0.29E-06
   2      9    11.346    64.643    0.32E-03    0.12E-04    0.29E-06
   0     10    11.346    95.520    0.90E-04    0.16E-04    0.19E-06
   0     10    11.346    63.403    0.87E-04    0.15E-04    0.19E-06
   1     10    11.346    19.961    0.17E-03    0.21E-03    0.11E-06
   1     10    11.346    13.289    0.14E-03    0.18E-03    0.89E-07
 Optimization of the real space projectors (new method)

 maximal supplied QI-value         = 24.76
 optimisation between [QCUT,QGAM] = [ 11.39, 22.77] = [ 36.31,145.25] Ry
 Optimized for a Real-space Cutoff    1.00 Angstroem

   l    n(q)    QCUT    max X(q) W(low)/X(q) W(high)/X(q)  e(spline)
   0      7    11.387    20.381    0.39E-03    0.13E-02    0.15E-06
   0      7    11.387    15.268    0.42E-03    0.14E-02    0.17E-06
   1      6    11.387     5.964    0.41E-03    0.11E-02    0.17E-06
   1      6    11.387     5.382    0.39E-03    0.87E-03    0.15E-06
  PAW_PBE Au 04Oct2007                  :
  PAW_PBE Pt 04Feb2005                  :
  PAW_PBE O 08Apr2002                   :

 POSCAR: Au-Pt-O
  positions in direct lattice
  velocities in cartesian coordinates
 exchange correlation table for  LEXCH =        8
   RHO(1)=    0.500       N(1)  =     2000
   RHO(2)=  100.500       N(2)  =     4000

 VTST: version 3.2, (02/03/18)

 CHAIN: initializing optimizer

 OPT: Using VASP Conjugate-Gradient optimizer
 CHAIN: Read ICHAIN            0

 POSCAR: Au-Pt-O
  positions in direct lattice
  velocities in cartesian coordinates

 ion  position               nearest neighbor table
   1  0.000  0.000  0.238-  16 2.94  12 2.94   6 2.94   8 2.94   7 2.94   3 2.94  10 2.94   4 2.94
                             2 2.94
   2  0.333  0.000  0.238-   9 2.94  11 2.94  17 2.94  10 2.94   8 2.94   4 2.94   5 2.94   1 2.94
                             3 2.94
   3  0.667  0.000  0.238-   7 2.94  18 2.94  12 2.94   1 2.94  11 2.94   5 2.94   6 2.94   9 2.94
                             2 2.94
   4  0.000  0.333  0.238-  10 2.94   6 2.94   5 2.94  13 2.94   2 2.94  15 2.94   9 2.94   1 2.94
                             7 2.94
   5  0.333  0.333  0.238-  13 2.94   7 2.94  11 2.94   4 2.94   2 2.94  14 2.94   3 2.94   8 2.94
                             6 2.94
   6  0.667  0.333  0.238-  15 2.94  14 2.94   1 2.94  12 2.94   4 2.94   9 2.94   8 2.94   3 2.94
                             5 2.94
   7  0.000  0.667  0.238-  18 2.94   3 2.94  16 2.94   5 2.94   1 2.94  13 2.94   8 2.94   4 2.94
                             9 2.94
   8  0.333  0.667  0.238-   9 2.94  17 2.94   1 2.94   2 2.94  14 2.94  16 2.94   6 2.94   7 2.94
                             5 2.94
   9  0.667  0.667  0.238-   2 2.94   8 2.94  17 2.94   6 2.94  15 2.94   4 2.94   3 2.94  18 2.94
                             7 2.94
  10  0.111  0.111  0.346-  20 2.91  26 2.93  19 2.93  11 2.94  17 2.94   2 2.94   4 2.94   1 2.94
                            12 2.94  16 2.94  13 2.94  15 2.94
  11  0.444  0.111  0.346-  20 2.92  21 2.92  27 2.93  13 2.94   2 2.94  10 2.94  17 2.94   5 2.94
                             3 2.94  18 2.94  14 2.94  12 2.94
  12  0.778  0.111  0.346-  21 2.91  25 2.93  19 2.93  16 2.94  18 2.94   1 2.94  14 2.94  15 2.94
                             3 2.94   6 2.94  10 2.94  11 2.94
  13  0.111  0.444  0.346-  23 2.92  20 2.92  22 2.93   5 2.94  18 2.94  11 2.94   7 2.94   4 2.94
                            16 2.94  10 2.94  14 2.94  15 2.94
  14  0.444  0.444  0.346-  21 2.92  23 2.92  24 2.93  15 2.94   6 2.94  12 2.94   8 2.94  17 2.94
                             5 2.94  16 2.94  13 2.94  11 2.94
  15  0.778  0.444  0.346-  24 2.93  22 2.93  19 2.93  14 2.94   6 2.94  17 2.94  12 2.94   9 2.94
                             4 2.94  10 2.94  13 2.94  18 2.94
  16  0.111  0.778  0.346-  23 2.91  25 2.93  26 2.93  18 2.94  12 2.94   7 2.94   1 2.94   8 2.94
                            13 2.94  10 2.94  14 2.94  17 2.94
  17  0.444  0.778  0.346-  27 2.93  24 2.93  26 2.93   9 2.94  15 2.94   2 2.94  10 2.94  11 2.94
                             8 2.94  14 2.94  16 2.94  18 2.94
  18  0.778  0.778  0.346-  22 2.93  27 2.93  25 2.93  16 2.94   7 2.94  13 2.94  12 2.94   3 2.94
                            11 2.94   9 2.94  15 2.94  17 2.94
  19  0.889  0.222  0.454-  21 2.93  20 2.93  15 2.93  10 2.93  12 2.93  24 2.94  22 2.94  26 2.94
                            25 2.94  28 2.96  32 2.96  31 2.96
  20  0.221  0.221  0.453-  36 2.82  10 2.91  11 2.92  13 2.92  26 2.93  19 2.93  27 2.94  22 2.94
                            23 2.96  21 2.96  29 2.96  31 2.96
  21  0.557  0.221  0.453-  36 2.82  12 2.91  14 2.92  11 2.92  25 2.93  19 2.93  24 2.94  27 2.94
                            20 2.96  23 2.96  30 2.96  32 2.96
  22  0.888  0.556  0.454-  18 2.93  15 2.93  24 2.93  27 2.93  13 2.93  25 2.94  19 2.94  23 2.94
                            20 2.94  35 2.96  33 2.96  31 2.96
  23  0.221  0.557  0.453-  36 2.82  16 2.91  13 2.92  14 2.92  25 2.93  26 2.93  22 2.94  24 2.94
                            20 2.96  21 2.96  33 2.96  34 2.96
  24  0.556  0.556  0.454-  15 2.93  17 2.93  27 2.93  22 2.93  14 2.93  26 2.94  19 2.94  21 2.94
                            23 2.94  35 2.96  32 2.96  34 2.96
  25  0.889  0.889  0.454-  23 2.93  21 2.93  18 2.93  16 2.93  12 2.93  22 2.94  27 2.94  19 2.94
                            26 2.94  28 2.96  33 2.96  30 2.96
  26  0.222  0.889  0.454-  20 2.93  23 2.93  17 2.93  10 2.93  16 2.93  27 2.94  24 2.94  19 2.94
                            25 2.94  28 2.96  29 2.96  34 2.96
  27  0.556  0.888  0.454-  17 2.93  18 2.93  24 2.93  22 2.93  11 2.93  26 2.94  25 2.94  20 2.94
                            21 2.94  35 2.96  29 2.96  30 2.96
  28  0.000  0.000  0.563-  34 2.95  32 2.95  33 2.95  30 2.95  31 2.95  29 2.95  25 2.96  19 2.96
                            26 2.96
  29  0.333  0.002  0.563-  30 2.92  31 2.92  36 2.93  35 2.95  28 2.95  27 2.96  20 2.96  26 2.96
                            34 2.98
  30  0.664  0.002  0.563-  29 2.92  32 2.92  36 2.93  35 2.95  28 2.95  27 2.96  21 2.96  25 2.96
                            33 2.98
  31  0.002  0.333  0.563-  33 2.92  29 2.92  36 2.93  35 2.95  28 2.95  22 2.96  20 2.96  19 2.96
                            32 2.98
  32  0.664  0.333  0.563-  34 2.92  30 2.92  36 2.93  35 2.95  28 2.95  24 2.96  21 2.96  19 2.96
                            31 2.98
  33  0.002  0.664  0.563-  31 2.92  34 2.92  36 2.93  35 2.95  28 2.95  22 2.96  23 2.96  25 2.96
                            30 2.98
  34  0.333  0.664  0.563-  32 2.92  33 2.92  36 2.93  35 2.95  28 2.95  24 2.96  23 2.96  26 2.96
                            29 2.98
  35  0.667  0.667  0.563-  29 2.95  34 2.95  32 2.95  31 2.95  30 2.95  33 2.95  24 2.96  27 2.96
                            22 2.96
  36  0.333  0.333  0.554-  37 1.85  20 2.82  23 2.82  21 2.82  33 2.93  31 2.93  29 2.93  30 2.93
                            34 2.93  32 2.93
  37  0.333  0.333  0.637-  36 1.85

  LATTYP: Found a hexagonal cell.
 ALAT       =     8.8135128021
 C/A-ratio  =     2.5184286595

  Lattice vectors:

 A1 = (  -4.4067569092,  -7.6327256898,   0.0000000000)
 A2 = (   8.8135128021,   0.0000000000,   0.0000000000)
 A3 = (   0.0000000000,   0.0000000000,  22.1962032318)

Analysis of symmetry for initial positions (statically):
 Subroutine PRICEL returns:
 Original cell was already a primitive cell.

 Routine SETGRP: Setting up the symmetry group for a
 hexagonal supercell.

 Subroutine GETGRP returns: Found  6 space group operations
 (whereof  6 operations were pure point group operations)
 out of a pool of 24 trial point group operations.

The static configuration has the point symmetry C_3v.

Analysis of symmetry for dynamics (positions and initial velocities):
 Subroutine PRICEL returns:
 Original cell was already a primitive cell.

[...]

The dynamic configuration has the point symmetry C_3v.

Analysis of constrained symmetry for selective dynamics:
 Subroutine PRICEL returns:
 Original cell was already a primitive cell.

 Routine SETGRP: Setting up the symmetry group for a
 hexagonal supercell.

 Subroutine GETGRP returns: Found  6 space group operations
[...]
     24      -5.1554      2.00000
     25      -5.1257      2.00000
     26      -5.1123      2.00000
     27      -5.0595      2.00000
     28      -4.9912      2.00000
     29      -4.9713      2.00000
     30      -4.8856      2.00000
     31      -4.8484      2.00000
     32      -4.8397      2.00000
     33      -4.8307      2.00000
     34      -4.8140      2.00000
     35      -4.7956      2.00000
     36      -4.7304      2.00000
     37      -4.7182      2.00000
     38      -4.6704      2.00000
     39      -4.5872      2.00000
     40      -4.5510      2.00000
     41      -4.5013      2.00000
     42      -4.4651      2.00000
     43      -4.4526      2.00000
     44      -4.4390      2.00000
     45      -4.3596      2.00000
     46      -4.3430      2.00000
     47      -4.2854      2.00000
     48      -4.2406      2.00000
     49      -4.2087      2.00000
     50      -4.1849      2.00000
     51      -4.1842      2.00000
     52      -4.1749      2.00000
     53      -4.1632      2.00000
     54      -4.1110      2.00000
     55      -4.0910      2.00000
     56      -4.0700      2.00000
     57      -4.0338      2.00000
     58      -4.0223      2.00000
     59      -4.0059      2.00000
     60      -4.0027      2.00000
[...]
    238       6.4451      0.00000
    239       6.5181      0.00000
    240       6.5933      0.00000
    241       6.6749      0.00000
    242       6.7116      0.00000
    243       6.7731      0.00000
    244       6.8343      0.00000
    245       6.9553      0.00000
    246       7.1166      0.00000
    247       7.1315      0.00000
    248       7.2493      0.00000
    249       7.4333      0.00000
    250       7.7033      0.00000
    251       7.7712      0.00000
    252       7.8943      0.00000

 soft charge-density along one line, spin component           1
         0         1         2         3         4         5         6         7         8         9
 total charge-density along one line

------------------------ aborting loop because EDIFF is reached ----------------------------------------

 total charge

# of ion       s       p       d       tot
    1        0.544   0.239   8.771   9.554
    2        0.545   0.241   8.766   9.551
    3        0.545   0.241   8.766   9.551
    4        0.545   0.241   8.766   9.551
    5        0.542   0.242   8.764   9.548
    6        0.545   0.241   8.766   9.551
    7        0.545   0.241   8.766   9.551
    8        0.545   0.241   8.766   9.551
    9        0.540   0.241   8.765   9.546
   10        0.521   0.310   8.773   9.605
   11        0.519   0.309   8.776   9.604
   12        0.521   0.310   8.773   9.605
   13        0.519   0.309   8.776   9.604
   14        0.519   0.309   8.776   9.604
   15        0.515   0.307   8.780   9.603
   16        0.521   0.310   8.773   9.605
   17        0.515   0.307   8.780   9.603
   18        0.515   0.307   8.780   9.603
   19        0.515   0.306   8.772   9.593
   20        0.534   0.323   8.758   9.616
   21        0.534   0.323   8.758   9.616
   22        0.514   0.304   8.778   9.596
   23        0.534   0.323   8.758   9.616
   24        0.514   0.304   8.778   9.596
   25        0.515   0.306   8.772   9.593
   26        0.515   0.306   8.772   9.593
   27        0.514   0.304   8.778   9.596
   28        0.543   0.229   8.772   9.544
   29        0.526   0.233   8.775   9.534
   30        0.526   0.233   8.775   9.534
   31        0.526   0.233   8.775   9.534
   32        0.526   0.233   8.775   9.534
   33        0.526   0.233   8.775   9.534
   34        0.526   0.233   8.775   9.534
   35        0.538   0.233   8.766   9.538
   36        0.652   0.580   7.949   9.181
   37        1.604   3.172   0.000   4.776
tot         20.745  13.359 314.940 349.044

  FORCE on cell =-STRESS in cart. coord.  units (eV):
  Direction    XX          YY          ZZ          XY          YZ          ZX
  Alpha Z  1027.06699  1027.06699  1027.06699
  Ewald  119797.76708119797.76751************    -0.00033    -0.00008    -0.00012
  Hartree128640.85776128640.85777************     0.00001    -0.00002    -0.00003
  E(xc)   -1801.68411 -1801.68412 -1807.99065     0.00002    -0.00000    -0.00000
  Local  ************************260941.13019     0.00210     0.00001    -0.00003
  n-local  -100.54416   -49.17944   -49.24651    24.31492    -1.26191     1.49176
  augment  2428.05127  2428.05284  2436.95525    -0.00137     0.00004     0.00008
  Kinetic  5621.68148  5634.23661  5654.72418     6.21024     0.36046     0.33269
  Fock        0.00000     0.00000     0.00000     0.00000     0.00000     0.00000
  Total     -20.00316   -20.00316     2.17712    -0.00000     0.00000    -0.00000
  in kB     -21.46357   -21.46356     2.33607    -0.00000     0.00000    -0.00000

 VOLUME and BASIS-vectors are now :
  energy-cutoff  :      500.00
  volume of cell :     1493.16
      direct lattice vectors                 reciprocal lattice vectors
     8.813512802  0.000000000  0.000000000     0.113462137 -0.065507406  0.000000000
     4.406756909  7.632725690  0.000000000     0.000000000  0.131014796  0.000000000
     0.000000000  0.000000000 22.196203232     0.000000000  0.000000000  0.045052750

  length of vectors
     8.813512802  8.813512802 22.196203232     0.131014796  0.131014796  0.045052750

 FORCES acting on ions
    electron-ion (+dipol)            ewald-force                    non-local-force                 convergence-correction
   -.195E-04 -.161E-04 0.250E+04   0.519E-04 0.433E-04 -.250E+04   0.556E-17 -.201E-17 -.944E+00   -.202E-03 -.130E-03 -.726E+00
   0.105E+00 0.260E+00 0.250E+04   -.238E+00 -.365E+00 -.250E+04   0.386E-01 0.892E-01 -.330E+00   0.914E-01 0.256E-01 -.667E+00
   -.105E+00 0.260E+00 0.250E+04   0.238E+00 -.365E+00 -.250E+04   -.386E-01 0.892E-01 -.330E+00   -.911E-01 0.275E-01 -.666E+00
   0.277E+00 -.394E-01 0.250E+04   -.436E+00 -.239E-01 -.250E+04   0.965E-01 -.112E-01 -.330E+00   0.679E-01 0.663E-01 -.667E+00
   0.888E-05 -.231E-04 0.250E+04   0.952E-04 0.171E-05 -.250E+04   0.134E-17 0.180E-17 -.261E+00   0.430E-02 0.262E-02 -.624E+00
   -.277E+00 -.393E-01 0.250E+04   0.435E+00 -.239E-01 -.250E+04   -.965E-01 -.112E-01 -.330E+00   -.695E-01 0.673E-01 -.666E+00
   0.173E+00 -.221E+00 0.250E+04   -.197E+00 0.389E+00 -.250E+04   0.580E-01 -.780E-01 -.330E+00   -.216E-01 -.927E-01 -.666E+00
   -.173E+00 -.221E+00 0.250E+04   0.197E+00 0.389E+00 -.250E+04   -.580E-01 -.780E-01 -.330E+00   0.235E-01 -.938E-01 -.666E+00
   0.192E-04 -.416E-04 0.250E+04   0.166E-03 -.201E-04 -.250E+04   -.110E-17 -.916E-18 -.597E+00   -.464E-02 -.240E-02 -.645E+00
   0.375E+01 0.216E+01 0.862E+03   -.354E+01 -.204E+01 -.861E+03   -.279E+00 -.161E+00 -.668E+00   0.955E-01 0.550E-01 0.386E+00
   0.138E-04 0.331E+01 0.864E+03   0.149E-03 -.332E+01 -.864E+03   0.169E-08 0.254E-01 -.203E+00   0.381E-02 -.413E-01 0.407E+00
   -.375E+01 0.216E+01 0.862E+03   0.354E+01 -.204E+01 -.861E+03   0.279E+00 -.161E+00 -.668E+00   -.969E-01 0.565E-01 0.386E+00
   0.287E+01 -.165E+01 0.864E+03   -.288E+01 0.166E+01 -.864E+03   0.220E-01 -.127E-01 -.203E+00   -.335E-01 0.242E-01 0.407E+00
   -.287E+01 -.165E+01 0.864E+03   0.288E+01 0.166E+01 -.864E+03   -.220E-01 -.127E-01 -.203E+00   0.414E-01 0.237E-01 0.407E+00
   0.308E-04 0.323E+00 0.860E+03   0.236E-03 -.389E+00 -.860E+03   0.725E-11 0.109E-03 -.463E+00   -.240E-02 0.546E-01 0.301E+00
   -.212E-04 -.433E+01 0.862E+03   0.163E-03 0.409E+01 -.861E+03   0.214E-07 0.322E+00 -.668E+00   0.300E-03 -.112E+00 0.386E+00
   0.280E+00 -.161E+00 0.860E+03   -.337E+00 0.195E+00 -.860E+03   0.943E-04 -.544E-04 -.463E+00   0.464E-01 -.290E-01 0.301E+00
   -.280E+00 -.161E+00 0.860E+03   0.337E+00 0.194E+00 -.860E+03   -.943E-04 -.544E-04 -.463E+00   -.464E-01 -.270E-01 0.300E+00
   -.412E-04 0.158E+01 -.808E+03   0.527E-04 -.182E+01 0.806E+03   0.724E-08 0.109E+00 0.638E+00   -.359E-03 0.117E+00 0.136E+01
   0.131E+02 0.757E+01 -.772E+03   -.127E+02 -.734E+01 0.771E+03   -.564E+00 -.326E+00 -.281E+00   0.295E+00 0.170E+00 0.179E+01
   -.131E+02 0.757E+01 -.772E+03   0.127E+02 -.734E+01 0.771E+03   0.564E+00 -.326E+00 -.281E+00   -.294E+00 0.172E+00 0.179E+01
   0.493E+01 -.285E+01 -.801E+03   -.529E+01 0.305E+01 0.799E+03   0.187E+00 -.108E+00 0.678E+00   0.185E+00 -.111E+00 0.145E+01
   -.147E-04 -.151E+02 -.772E+03   0.145E-03 0.147E+02 0.771E+03   0.434E-07 0.651E+00 -.281E+00   0.195E-02 -.341E+00 0.179E+01
   -.493E+01 -.285E+01 -.801E+03   0.529E+01 0.305E+01 0.799E+03   -.187E+00 -.108E+00 0.678E+00   -.192E+00 -.111E+00 0.145E+01
   -.137E+01 -.790E+00 -.808E+03   0.158E+01 0.912E+00 0.806E+03   -.942E-01 -.544E-01 0.638E+00   -.996E-01 -.575E-01 0.136E+01
   0.137E+01 -.790E+00 -.808E+03   -.158E+01 0.912E+00 0.806E+03   0.942E-01 -.544E-01 0.638E+00   0.101E+00 -.587E-01 0.136E+01
   0.702E-05 0.569E+01 -.801E+03   0.200E-03 -.611E+01 0.799E+03   0.144E-07 0.216E+00 0.678E+00   -.421E-02 0.216E+00 0.145E+01
   -.112E-04 -.124E-04 -.245E+04   0.277E-04 0.341E-04 0.245E+04   -.144E-18 0.147E-17 0.399E+00   0.128E-02 0.722E-03 0.119E+01
   0.227E+02 0.379E+02 -.244E+04   -.234E+02 -.393E+02 0.243E+04   0.135E+00 0.460E+00 0.773E+00   0.369E+00 0.640E+00 0.126E+01
   -.227E+02 0.379E+02 -.244E+04   0.234E+02 -.393E+02 0.243E+04   -.135E+00 0.460E+00 0.773E+00   -.375E+00 0.642E+00 0.126E+01
   0.442E+02 0.724E+00 -.244E+04   -.457E+02 -.597E+00 0.243E+04   0.466E+00 -.113E+00 0.773E+00   0.739E+00 -.630E-03 0.126E+01
   -.442E+02 0.724E+00 -.244E+04   0.457E+02 -.597E+00 0.243E+04   -.466E+00 -.113E+00 0.773E+00   -.747E+00 0.487E-03 0.126E+01
   0.215E+02 -.386E+02 -.244E+04   -.223E+02 0.399E+02 0.243E+04   0.330E+00 -.347E+00 0.773E+00   0.369E+00 -.646E+00 0.126E+01
   -.215E+02 -.386E+02 -.244E+04   0.223E+02 0.399E+02 0.243E+04   -.330E+00 -.347E+00 0.773E+00   -.373E+00 -.647E+00 0.126E+01
   0.280E-04 -.280E-04 -.245E+04   0.147E-03 -.494E-04 0.245E+04   0.985E-18 0.121E-17 0.514E+00   -.359E-02 -.178E-02 0.117E+01
   0.332E-04 -.173E-04 -.193E+04   0.101E-03 0.891E-05 0.193E+04   -.155E-17 -.136E-17 -.216E+01   0.458E-02 0.275E-02 0.226E+01
   0.182E-03 -.100E-03 -.164E+04   0.205E-04 0.133E-05 0.167E+04   0.236E-17 0.111E-17 -.282E+02   0.395E-02 0.241E-02 -.214E+00
   -.481E-03 -.840E-03 0.725E+01   -.499E-16 0.125E-12 0.637E-11   -.220E-15 -.166E-15 -.295E+02   -.107E-01 -.543E-02 0.230E+02

 POSITION                                       TOTAL-FORCE (eV/Angst)
      0.00000      0.00000      5.28038        -0.000000     -0.000000     -0.073639
      2.93784      0.00000      5.28038        -0.003418      0.010443     -0.056255
      5.87568      0.00000      5.28038         0.003418      0.010443     -0.056255
      1.46892      2.54424      5.28038         0.007335     -0.008182     -0.056255
      4.40676      2.54424      5.28038        -0.000000     -0.000000     -0.049873
      7.34459      2.54424      5.28038        -0.007335     -0.008182     -0.056255
      2.93784      5.08848      5.28038         0.010753     -0.002261     -0.056255
      5.87568      5.08848      5.28038        -0.010753     -0.002261     -0.056255
      8.81351      5.08848      5.28038        -0.000000     -0.000000     -0.082094
      1.46892      0.84808      7.67911         0.026937      0.015552      0.118299
      4.40676      0.84808      7.67911        -0.000000     -0.032437      0.064639
      7.34459      0.84808      7.67911        -0.026937      0.015552      0.118299
      2.93784      3.39232      7.67911        -0.028092      0.016219      0.064639
      5.87568      3.39232      7.67911         0.028092      0.016219      0.064639
      8.81351      3.39232      7.67911        -0.000000     -0.011661      0.096148
      4.40676      5.93656      7.67911        -0.000000     -0.031104      0.118299
      7.34459      5.93656      7.67911        -0.010098      0.005830      0.096148
     10.28243      5.93656      7.67911         0.010098      0.005830      0.096148
      8.81351      1.69709     10.07334        -0.000000     -0.020719     -0.019577
      2.92757      1.69024     10.04824         0.125856      0.072663     -0.090956
      5.88594      1.69024     10.04824        -0.125856      0.072663     -0.090956
     10.27700      4.24354     10.06671         0.014710     -0.008493     -0.020530
      4.40676      4.25225     10.04824        -0.000000     -0.145326     -0.090956
      7.35003      4.24354     10.06671        -0.014710     -0.008493     -0.020530
     11.75055      6.78418     10.07334         0.017943      0.010359     -0.019577
      5.87648      6.78418     10.07334        -0.017943      0.010359     -0.019577
      8.81351      6.77837     10.06671         0.000000      0.016985     -0.020530
      0.00000      0.00000     12.49905        -0.000000     -0.000000     -0.053792
      2.94801      0.01573     12.49317        -0.139498     -0.273511     -0.088276
      5.86551      0.01573     12.49317         0.139498     -0.273511     -0.088276
      1.48763      2.54518     12.49317        -0.306616      0.015947     -0.088276
      7.32589      2.54518     12.49317         0.306616      0.015947     -0.088276
      2.94638      5.07181     12.49317        -0.167119      0.257564     -0.088276
      5.86714      5.07181     12.49317         0.167119      0.257564     -0.088276
      8.81351      5.08848     12.49660        -0.000000     -0.000000     -0.000149
      4.40676      2.54424     12.29817        -0.000000     -0.000000      0.741242
      4.40676      2.54424     14.14575        -0.000000     -0.000000     -0.058581
    total drift:                               -0.011167     -0.006269      0.833288

  FREE ENERGIE OF THE ION-ELECTRON SYSTEM (eV)
  free  energy   TOTEN  =      -117.07009620 eV

  energy  without entropy=     -117.07009620  energy(sigma->0) =     -117.07009620

 stress matrix after NEB project (eV)
    -20.00316     -0.00000     -0.00000
     -0.00000    -20.00316      0.00000
      0.00000      0.00000      2.17712
  FORCES: max atom, RMS     0.058581    0.009631
  FORCE total and by dimension    0.058581    0.058581
  Stress total and by dimension   28.372396   20.003163
|           W    W    AA    RRRRR   N    N  II  N    N   GGGG   !!!           |
|           W    W   A  A   R    R  NN   N  II  NN   N  G    G  !!!           |
|           W    W  A    A  R    R  N N  N  II  N N  N  G       !!!           |
|           W WW W  AAAAAA  RRRRR   N  N N  II  N  N N  G  GGG   !            |
|           WW  WW  A    A  R   R   N   NN  II  N   NN  G    G                |
|           W    W  A    A  R    R  N    N  II  N    N   GGGG   !!!           |
|     Tetrahedron method does not include variations of the Fermi             |
|     occupations, so forces and stress will be inaccurate. We suggest        |
|     using a different smearing scheme ISMEAR = 1 or 2 for metals in         |
|     relaxations.                                                            |

 total charge

# of ion       s       p       d       tot
    1        0.544   0.239   8.771   9.554
    2        0.545   0.241   8.766   9.551
    3        0.545   0.241   8.766   9.551
    4        0.545   0.241   8.766   9.551
    5        0.542   0.242   8.764   9.548
    6        0.545   0.241   8.766   9.551
    7        0.545   0.241   8.766   9.551
    8        0.545   0.241   8.766   9.551
    9        0.540   0.241   8.765   9.546
   10        0.521   0.310   8.773   9.605
   11        0.519   0.309   8.776   9.604
   12        0.521   0.310   8.773   9.605
   13        0.519   0.309   8.776   9.604
   14        0.519   0.309   8.776   9.604
   15        0.515   0.307   8.780   9.603
   16        0.521   0.310   8.773   9.605
   17        0.515   0.307   8.780   9.603
   18        0.515   0.307   8.780   9.603
   19        0.515   0.306   8.772   9.593
   20        0.534   0.323   8.758   9.616
   21        0.534   0.323   8.758   9.616
   22        0.514   0.304   8.778   9.596
   23        0.534   0.323   8.758   9.616
   24        0.514   0.304   8.778   9.596
   25        0.515   0.306   8.772   9.593
   26        0.515   0.306   8.772   9.593
   27        0.514   0.304   8.778   9.596
   28        0.543   0.229   8.772   9.544
   29        0.526   0.233   8.775   9.534
   30        0.526   0.233   8.775   9.534
   31        0.526   0.233   8.775   9.534
   32        0.526   0.233   8.775   9.534
   33        0.526   0.233   8.775   9.534
   34        0.526   0.233   8.775   9.534
   35        0.538   0.233   8.766   9.538
   36        0.652   0.580   7.949   9.181
   37        1.604   3.172   0.000   4.776
tot         20.745  13.359 314.940 349.044

 BZINTS: Fermi energy:    0.623250;  401.000000 electrons
         Band energy:-0.125858E+04;  BLOECHL correction:   -0.048289