 vasp.6.2.0 18Jan21 (build Jun 12 2021 23:27:24) complex

 executed on             LinuxIFC date 2022.05.30  18:29:36

 INCAR:
   ISMEAR = -5
   SIGMA = 0.1
   ISPIN = 1
   EDIFF = 1.d-5
   EDIFFG = -0.01
   NSW = 0
   NELM = 150
   ENCUT = 500
   ISIF = 2
   IBRION = 2
   LREAL = Auto
   ALGO = Fast
   ICHARG = 11
   LORBIT = 10
   LCHARG = .F.
   LWAVE = .F.

 POTCAR:    PAW_PBE Cu 22Jun2005
 POTCAR:    PAW_PBE Pd 04Jan2005
 POTCAR:    PAW_PBE O 08Apr2002
|           W    W    AA    RRRRR   N    N  II  N    N   GGGG   !!!           |
|           W    W   A  A   R    R  NN   N  II  NN   N  G    G  !!!           |
|           W    W  A    A  R    R  N N  N  II  N N  N  G       !!!           |
|           W WW W  AAAAAA  RRRRR   N  N N  II  N  N N  G  GGG   !            |
|           WW  WW  A    A  R   R   N   NN  II  N   NN  G    G                |
|           W    W  A    A  R    R  N    N  II  N    N   GGGG   !!!           |
|     For optimal performance we recommend to set                             |
|       NCORE = 2 up to number-of-cores-per-socket                            |
|     This setting can greatly improve the performance of VASP for DFT.       |
|     The default, NCORE=1 might be grossly inefficient on modern             |
|     multi-core architectures or massively parallel machines. Do your        |
|     Unfortunately you need to use the default for GW and RPA                |
|     calculations (for HF NCORE is supported but not extensively tested      |
|     yet).                                                                   |

 POTCAR:    PAW_PBE Cu 22Jun2005
   VRHFIN =Cu: d10 p1

   TITEL  = PAW_PBE Cu 22Jun2005
   POMASS =   63.546; ZVAL   =   11.000    mass and valenz
   ENMAX  =  295.446; ENMIN  =  221.585 eV

 POTCAR:    PAW_PBE Pd 04Jan2005
   VRHFIN =Pd : s1 d9

   TITEL  = PAW_PBE Pd 04Jan2005
   POMASS =  106.420; ZVAL   =   10.000    mass and valenz
   ENMAX  =  250.925; ENMIN  =  188.194 eV

 POTCAR:    PAW_PBE O 08Apr2002
   VRHFIN =O: s2p4

   TITEL  = PAW_PBE O 08Apr2002
   POMASS =   16.000; ZVAL   =    6.000    mass and valenz
   ENMAX  =  400.000; ENMIN  =  300.000 eV

 Optimization of the real space projectors (new method)

 maximal supplied QI-value         = 16.25
 optimisation between [QCUT,QGAM] = [ 11.38, 22.75] = [ 36.24,144.96] Ry
 Optimized for a Real-space Cutoff    1.52 Angstroem

   l    n(q)    QCUT    max X(q) W(low)/X(q) W(high)/X(q)  e(spline)
   2      9    11.376     4.610    0.21E-03    0.10E-03    0.26E-06
   2      9    11.376     8.522    0.33E-03    0.16E-03    0.37E-06
   0     10    11.376    51.609    0.62E-04    0.20E-04    0.13E-06
   0     10    11.376    27.747    0.54E-04    0.20E-04    0.13E-06
   1     10    11.376    20.408    0.13E-04    0.99E-04    0.19E-06
   1     10    11.376    13.425    0.12E-04    0.87E-04    0.17E-06
 Optimization of the real space projectors (new method)

[...]

   l    n(q)    QCUT    max X(q) W(low)/X(q) W(high)/X(q)  e(spline)
   2      9    11.346    59.108    0.74E-04    0.81E-04    0.26E-06
   2      9    11.346    58.101    0.74E-04    0.83E-04    0.27E-06
   0     10    11.346   102.235    0.26E-04    0.31E-04    0.16E-06
   0     10    11.346    58.388    0.23E-04    0.29E-04    0.15E-06
   1     10    11.346    22.191    0.23E-03    0.26E-03    0.14E-06
   1     10    11.346    15.590    0.19E-03    0.22E-03    0.12E-06
 Optimization of the real space projectors (new method)

 maximal supplied QI-value         = 24.76
 optimisation between [QCUT,QGAM] = [ 11.39, 22.77] = [ 36.31,145.25] Ry
 Optimized for a Real-space Cutoff    1.00 Angstroem

   l    n(q)    QCUT    max X(q) W(low)/X(q) W(high)/X(q)  e(spline)
   0      7    11.387    20.381    0.39E-03    0.13E-02    0.15E-06
   0      7    11.387    15.268    0.42E-03    0.14E-02    0.17E-06
   1      6    11.387     5.964    0.41E-03    0.11E-02    0.17E-06
   1      6    11.387     5.382    0.39E-03    0.87E-03    0.15E-06
  PAW_PBE Cu 22Jun2005                  :
  PAW_PBE Pd 04Jan2005                  :
  PAW_PBE O 08Apr2002                   :

 POSCAR: Cu-Pd-O2
  positions in direct lattice
  velocities in cartesian coordinates
 exchange correlation table for  LEXCH =        8
   RHO(1)=    0.500       N(1)  =     2000
   RHO(2)=  100.500       N(2)  =     4000

 VTST: version 3.2, (02/03/18)

 CHAIN: initializing optimizer

 OPT: Using VASP Conjugate-Gradient optimizer
 CHAIN: Read ICHAIN            0

 POSCAR: Cu-Pd-O2
  positions in direct lattice
  velocities in cartesian coordinates

 ion  position               nearest neighbor table
   1  0.000  0.000  0.226-   7 2.57   3 2.57   4 2.57   2 2.57   6 2.57   8 2.57  12 2.57  10 2.57
                            16 2.57
   2  0.333  0.000  0.226-   8 2.57   9 2.57   5 2.57   1 2.57   3 2.57  11 2.57   4 2.57  10 2.57
                            17 2.57
   3  0.667  0.000  0.226-   1 2.57   7 2.57   6 2.57   9 2.57   2 2.57  12 2.57   5 2.57  18 2.57
                            11 2.57
   4  0.000  0.333  0.226-   5 2.57   6 2.57   1 2.57   7 2.57   2 2.57  13 2.57   9 2.57  10 2.57
                            15 2.57
   5  0.333  0.333  0.226-   4 2.57   2 2.57   7 2.57  13 2.57   8 2.57   6 2.57   3 2.57  11 2.57
                            14 2.57
   6  0.667  0.333  0.226-   4 2.57   9 2.57  15 2.57   3 2.57   1 2.57   8 2.57  14 2.57   5 2.57
                            12 2.57
   7  0.000  0.667  0.226-   1 2.57   3 2.57  16 2.57  18 2.57   4 2.57   5 2.57   8 2.57   9 2.57
                            13 2.57
   8  0.333  0.667  0.226-   9 2.57   2 2.57  17 2.57   6 2.57   1 2.57   7 2.57   5 2.57  14 2.57
                            16 2.57
   9  0.667  0.667  0.226-   8 2.57   6 2.57   2 2.57  17 2.57   3 2.57   7 2.57   4 2.57  15 2.57
                            18 2.57
  10  0.111  0.111  0.314-  20 2.54  26 2.55  19 2.55  11 2.57  12 2.57  13 2.57   1 2.57   2 2.57
                             4 2.57  15 2.57  16 2.57  17 2.57
  11  0.444  0.111  0.314-  20 2.55  21 2.55  27 2.55  10 2.57  13 2.57   2 2.57  17 2.57  14 2.57
                            12 2.57   5 2.57   3 2.57  18 2.57
  12  0.778  0.111  0.314-  21 2.54  19 2.55  25 2.55  15 2.57  10 2.57  14 2.57  18 2.57   3 2.57
                             1 2.57  16 2.57  11 2.57   6 2.57
  13  0.111  0.444  0.314-  23 2.55  20 2.55  22 2.55  16 2.57  18 2.57  10 2.57  11 2.57  14 2.57
                             5 2.57   4 2.57   7 2.57  15 2.57
  14  0.444  0.444  0.314-  21 2.55  23 2.55  24 2.55  15 2.57  17 2.57  12 2.57  16 2.57  13 2.57
                            11 2.57   6 2.57   8 2.57   5 2.57
  15  0.778  0.444  0.314-  19 2.55  24 2.55  22 2.55  14 2.57  17 2.57  12 2.57   6 2.57  18 2.57
                            10 2.57   9 2.57  13 2.57   4 2.57
  16  0.111  0.778  0.314-  23 2.54  25 2.55  26 2.55  18 2.57  13 2.57   7 2.57  14 2.57  17 2.57
                            12 2.57  10 2.57   8 2.57   1 2.57
  17  0.444  0.778  0.314-  26 2.55  27 2.55  24 2.55  14 2.57  15 2.57   8 2.57   9 2.57  11 2.57
                            16 2.57  18 2.57  10 2.57   2 2.57
  18  0.778  0.778  0.314-  25 2.55  22 2.55  27 2.55  16 2.57  13 2.57   7 2.57  15 2.57  12 2.57
                            17 2.57   9 2.57   3 2.57  11 2.57
  19  0.889  0.222  0.401-  32 2.54  31 2.54  28 2.55  15 2.55  12 2.55  10 2.55  21 2.56  20 2.56
                            22 2.56  24 2.56  25 2.57  26 2.57
  20  0.222  0.222  0.401-  10 2.54  11 2.55  13 2.55  26 2.56  19 2.56  27 2.56  22 2.56  29 2.57
                            31 2.57  23 2.58  21 2.58  36 2.62
  21  0.557  0.222  0.401-  12 2.54  14 2.55  11 2.55  19 2.56  25 2.56  24 2.56  27 2.56  32 2.57
                            30 2.57  20 2.58  23 2.58  36 2.62
  22  0.889  0.555  0.401-  35 2.54  31 2.55  33 2.55  13 2.55  18 2.55  15 2.55  23 2.56  20 2.56
                            19 2.56  25 2.56  24 2.57  27 2.57
  23  0.222  0.557  0.401-  16 2.54  13 2.55  14 2.55  25 2.56  26 2.56  22 2.56  24 2.56  33 2.57
                            34 2.57  20 2.58  21 2.58  36 2.62
  24  0.555  0.555  0.401-  35 2.54  32 2.55  34 2.55  14 2.55  15 2.55  17 2.55  21 2.56  23 2.56
                            19 2.56  26 2.56  22 2.57  27 2.57
  25  0.889  0.889  0.401-  33 2.54  30 2.54  28 2.55  18 2.55  16 2.55  12 2.55  21 2.56  23 2.56
                            22 2.56  27 2.56  19 2.57  26 2.57
  26  0.222  0.889  0.401-  29 2.54  34 2.54  28 2.55  17 2.55  10 2.55  16 2.55  20 2.56  23 2.56
                            27 2.56  24 2.56  25 2.57  19 2.57
  27  0.555  0.889  0.401-  35 2.54  29 2.55  30 2.55  11 2.55  17 2.55  18 2.55  20 2.56  21 2.56
                            26 2.56  25 2.56  24 2.57  22 2.57
  28  0.000  0.000  0.488-  25 2.55  19 2.55  26 2.55  33 2.55  30 2.55  31 2.55  29 2.55  32 2.55
                            34 2.55
  29  0.333  0.996  0.489-  34 2.51  26 2.54  28 2.55  27 2.55  35 2.55  20 2.57  31 2.59  36 2.60
                            30 2.60
  30  0.671  0.996  0.489-  33 2.51  25 2.54  28 2.55  27 2.55  35 2.55  21 2.57  32 2.59  36 2.60
                            29 2.60
  31  0.996  0.333  0.489-  32 2.51  19 2.54  28 2.55  22 2.55  35 2.55  20 2.57  29 2.59  36 2.60
                            33 2.60
  32  0.671  0.333  0.489-  31 2.51  19 2.54  28 2.55  24 2.55  35 2.55  21 2.57  30 2.59  36 2.60
                            34 2.60
  33  0.996  0.671  0.489-  30 2.51  25 2.54  28 2.55  22 2.55  35 2.55  23 2.57  34 2.59  36 2.60
                            31 2.60
  34  0.333  0.671  0.489-  29 2.51  26 2.54  28 2.55  24 2.55  35 2.55  23 2.57  33 2.59  36 2.60
                            32 2.60
  35  0.667  0.667  0.488-  24 2.54  27 2.54  22 2.54  34 2.55  32 2.55  29 2.55  30 2.55  33 2.55
                            31 2.55
  36  0.333  0.333  0.492-  37 2.18  38 2.18  31 2.60  29 2.60  33 2.60  34 2.60  32 2.60  30 2.60
                            23 2.62  20 2.62  21 2.62
  37  0.248  0.329  0.579-  38 1.35  36 2.18
  38  0.423  0.329  0.579-  37 1.35  36 2.18

  LATTYP: Found a hexagonal cell.
 ALAT       =     7.6967864036
 C/A-ratio  =     3.0908716217

  Lattice vectors:

 A1 = (  -3.8483927580,  -6.6656128093,   0.0000000000)
 A2 = (   7.6967864037,   0.0000000000,   0.0000000000)
 A3 = (   0.0000000000,   0.0000000000,  23.7897786731)

Analysis of symmetry for initial positions (statically):
 Subroutine PRICEL returns:
 Original cell was already a primitive cell.

 Routine SETGRP: Setting up the symmetry group for a
 hexagonal supercell.

 Subroutine GETGRP returns: Found  2 space group operations
 (whereof  2 operations were pure point group operations)
 out of a pool of 24 trial point group operations.

The static configuration has the point symmetry C_1h.

Analysis of symmetry for dynamics (positions and initial velocities):
 Subroutine PRICEL returns:
 Original cell was already a primitive cell.

[...]

The dynamic configuration has the point symmetry C_1h.

Analysis of constrained symmetry for selective dynamics:
 Subroutine PRICEL returns:
 Original cell was already a primitive cell.

 Routine SETGRP: Setting up the symmetry group for a
 hexagonal supercell.

[...]
     33      -4.6430      2.00000
     34      -4.6274      2.00000
     35      -4.6209      2.00000
     36      -4.6156      2.00000
     37      -4.5927      2.00000
     38      -4.5662      2.00000
     39      -4.5446      2.00000
     40      -4.4917      2.00000
     41      -4.4204      2.00000
     42      -4.3079      2.00000
     43      -4.2953      2.00000
     44      -4.2920      2.00000
     45      -4.2453      2.00000
     46      -4.2280      2.00000
     47      -4.2079      2.00000
     48      -4.1882      2.00000
     49      -4.1801      2.00000
     50      -4.1686      2.00000
     51      -4.0212      2.00000
     52      -3.9894      2.00000
     53      -3.9780      2.00000
     54      -3.9600      2.00000
     55      -3.9428      2.00000
     56      -3.9090      2.00000
     57      -3.8989      2.00000
     58      -3.8799      2.00000
     59      -3.8670      2.00000
     60      -3.8571      2.00000
[...]
    238       5.3701      0.00000
    239       5.5501      0.00000
    240       5.6294      0.00000
    241       5.7552      0.00000
    242       5.8794      0.00000
    243       5.9858      0.00000
    244       6.1890      0.00000
    245       6.2052      0.00000
    246       6.3749      0.00000
    247       6.3862      0.00000
    248       6.4093      0.00000
    249       6.6415      0.00000
    250       6.7368      0.00000
    251       6.7900      0.00000
    252       6.8312      0.00000

 soft charge-density along one line, spin component           1
         0         1         2         3         4         5         6         7         8         9
 total charge-density along one line

------------------------ aborting loop because EDIFF is reached ----------------------------------------

 total charge

# of ion       s       p       d       tot
    1        0.445   0.285   9.187   9.917
    2        0.449   0.283   9.188   9.920
    3        0.449   0.283   9.188   9.920
    4        0.449   0.284   9.189   9.921
    5        0.446   0.286   9.188   9.920
    6        0.449   0.284   9.189   9.921
    7        0.449   0.285   9.186   9.920
    8        0.449   0.285   9.186   9.920
    9        0.445   0.285   9.187   9.917
   10        0.441   0.375   9.177   9.993
   11        0.443   0.370   9.182   9.996
   12        0.441   0.375   9.177   9.993
   13        0.443   0.371   9.181   9.994
   14        0.443   0.371   9.181   9.994
   15        0.439   0.373   9.179   9.991
   16        0.442   0.373   9.180   9.994
   17        0.439   0.371   9.183   9.992
   18        0.439   0.371   9.183   9.992
   19        0.443   0.375   9.183  10.002
   20        0.440   0.380   9.176   9.997
   21        0.440   0.380   9.176   9.997
   22        0.439   0.373   9.182   9.994
   23        0.439   0.378   9.179   9.996
   24        0.439   0.373   9.182   9.994
   25        0.443   0.376   9.183  10.002
   26        0.443   0.376   9.183  10.002
   27        0.439   0.376   9.179   9.994
   28        0.455   0.289   9.194   9.938
   29        0.446   0.287   9.201   9.934
   30        0.446   0.287   9.201   9.934
   31        0.439   0.292   9.199   9.930
   32        0.439   0.292   9.199   9.930
   33        0.446   0.287   9.201   9.934
   34        0.446   0.287   9.201   9.934
   35        0.453   0.291   9.193   9.937
   36        0.489   0.542   8.476   9.507
   37        1.606   3.251   0.000   4.857
   38        1.606   3.251   0.000   4.857
tot         19.239  18.652 329.996 367.887

  FORCE on cell =-STRESS in cart. coord.  units (eV):
  Direction    XX          YY          ZZ          XY          YZ          ZX
  Alpha Z   813.14439   813.14439   813.14439
  Ewald  226201.17558225793.34878************     0.00041    -1.01099     0.00020
  Hartree239081.32657238883.68777************     0.00005     0.33139     0.00008
  E(xc)   -2358.28259 -2359.57678 -2363.03006    -0.00027    -0.02371    -0.00005
  Local  ************************478086.33667     0.02053     0.44809    -0.00079
  n-local  -801.01168  -806.44190  -817.97016     1.74730    -0.09282     0.10239
  augment  3389.73186  3398.60628  3407.76320    -0.01832     0.09114     0.00036
  Kinetic  3500.43207  3558.37574  3545.54445     0.93713     0.08387    -0.09640
  Fock        0.00000     0.00000     0.00000     0.00000     0.00000     0.00000
  Total      -1.43062    -1.10348     1.92340     0.00000    -0.17304     0.00000
  in kB      -1.87800    -1.44855     2.52488     0.00000    -0.22715     0.00000

 VOLUME and BASIS-vectors are now :
  energy-cutoff  :      500.00
  volume of cell :     1220.51
      direct lattice vectors                 reciprocal lattice vectors
     7.696786404  0.000000000  0.000000000     0.129924354 -0.075011849  0.000000000
     3.848392758  6.665612809  0.000000000     0.000000000  0.150023716  0.000000000
     0.000000000  0.000000000 23.789778673     0.000000000  0.000000000  0.042034859

  length of vectors
     7.696786404  7.696786404 23.789778673     0.150023716  0.150023716  0.042034859

 FORCES acting on ions
    electron-ion (+dipol)            ewald-force                    non-local-force                 convergence-correction
   -.413E-04 -.426E-01 0.379E+04   0.579E-04 -.253E-01 -.378E+04   -.502E-08 0.754E-01 -.270E+01   -.259E-03 -.843E-02 -.101E+01
   -.170E+00 0.999E-01 0.379E+04   0.312E+00 0.116E+00 -.378E+04   -.702E-01 -.714E-01 -.202E+01   -.687E-01 -.133E+00 -.875E+00
   0.170E+00 0.100E+00 0.379E+04   -.312E+00 0.116E+00 -.378E+04   0.702E-01 -.714E-01 -.202E+01   0.694E-01 -.130E+00 -.874E+00
   -.543E-01 -.193E+00 0.379E+04   0.278E+00 0.206E+00 -.378E+04   -.107E+00 0.214E-01 -.202E+01   -.109E+00 -.345E-01 -.871E+00
   -.639E-04 0.156E+00 0.379E+04   0.116E-03 0.714E-02 -.378E+04   0.594E-08 -.892E-01 -.210E+01   0.122E-01 -.706E-01 -.735E+00
   0.544E-01 -.192E+00 0.379E+04   -.278E+00 0.206E+00 -.378E+04   0.107E+00 0.214E-01 -.202E+01   0.107E+00 -.332E-01 -.869E+00
   0.265E+00 0.329E-01 0.379E+04   -.335E-01 -.322E+00 -.378E+04   -.101E+00 0.100E+00 -.203E+01   -.107E+00 0.182E+00 -.845E+00
   -.265E+00 0.329E-01 0.379E+04   0.332E-01 -.322E+00 -.378E+04   0.101E+00 0.100E+00 -.203E+01   0.110E+00 0.181E+00 -.845E+00
   -.144E-03 -.176E+00 0.379E+04   0.263E-03 0.183E-01 -.378E+04   -.499E-08 0.749E-01 -.231E+01   -.133E-01 0.879E-01 -.901E+00
   -.117E+01 -.394E+00 0.135E+04   0.155E+01 0.726E+00 -.135E+04   -.249E+00 -.229E+00 -.905E+00   -.840E-01 -.784E-01 -.243E+00
   -.867E-04 -.167E+01 0.135E+04   0.191E-03 0.182E+01 -.135E+04   0.535E-08 -.803E-01 -.951E+00   0.113E-01 -.761E-01 -.168E+00
   0.117E+01 -.394E+00 0.135E+04   -.155E+01 0.726E+00 -.135E+04   0.249E+00 -.229E+00 -.905E+00   0.825E-01 -.764E-01 -.244E+00
   -.153E+01 0.687E+00 0.135E+04   0.173E+01 -.836E+00 -.135E+04   -.133E+00 0.877E-01 -.882E+00   -.692E-01 0.675E-01 -.590E-01
   0.153E+01 0.687E+00 0.135E+04   -.173E+01 -.836E+00 -.135E+04   0.133E+00 0.877E-01 -.882E+00   0.934E-01 0.670E-01 -.591E-01
   -.140E-03 -.185E+01 0.135E+04   0.298E-03 0.175E+01 -.135E+04   -.482E-08 0.724E-01 -.632E+00   -.380E-02 0.357E-01 -.211E+00
   -.894E-04 0.144E+01 0.135E+04   0.186E-03 -.178E+01 -.135E+04   -.130E-07 0.195E+00 -.957E+00   -.161E-04 0.863E-01 -.272E+00
   -.138E+01 0.733E+00 0.135E+04   0.138E+01 -.781E+00 -.135E+04   -.547E-02 0.499E-01 -.576E+00   0.221E-01 -.184E-02 -.283E+00
   0.138E+01 0.733E+00 0.135E+04   -.138E+01 -.781E+00 -.135E+04   0.547E-02 0.499E-01 -.576E+00   -.218E-01 0.670E-03 -.283E+00
   -.605E-04 0.249E+00 -.110E+04   0.669E-04 -.412E+00 0.110E+04   -.726E-08 0.109E+00 0.810E+00   0.956E-02 0.501E-01 0.359E+00
   -.186E+02 -.101E+02 -.112E+04   0.188E+02 0.102E+02 0.112E+04   -.274E+00 -.153E+00 -.238E+00   0.716E-01 0.167E+00 0.482E+00
   0.186E+02 -.101E+02 -.112E+04   -.188E+02 0.102E+02 0.112E+04   0.274E+00 -.153E+00 -.238E+00   -.495E-01 0.169E+00 0.482E+00
   -.638E+01 0.253E+01 -.112E+04   0.608E+01 -.224E+01 0.111E+04   0.282E+00 -.237E+00 0.105E+01   0.304E-01 -.755E-01 0.402E+00
   -.655E-04 0.203E+02 -.112E+04   0.147E-03 -.203E+02 0.112E+04   -.792E-08 0.119E+00 -.129E-01   0.119E-01 -.161E+00 0.516E+00
   0.638E+01 0.253E+01 -.112E+04   -.608E+01 -.224E+01 0.111E+04   -.282E+00 -.237E+00 0.105E+01   -.333E-01 -.748E-01 0.402E+00
   0.200E-01 0.921E+00 -.111E+04   -.454E-01 -.816E+00 0.111E+04   0.965E-02 -.103E+00 0.808E+00   0.433E-01 -.567E-02 0.340E+00
   -.199E-01 0.921E+00 -.111E+04   0.451E-01 -.816E+00 0.111E+04   -.965E-02 -.103E+00 0.808E+00   -.202E-01 -.754E-02 0.341E+00
   -.133E-03 -.646E+01 -.112E+04   0.247E-03 0.646E+01 0.112E+04   -.684E-08 0.103E+00 0.988E+00   -.282E-02 -.575E-01 0.401E+00
   -.180E-04 0.636E+01 -.359E+04   0.346E-04 -.622E+01 0.359E+04   0.146E-07 -.219E+00 0.208E+01   0.129E-03 0.481E-01 0.499E+00
   0.555E+01 0.214E+02 -.356E+04   -.587E+01 -.228E+02 0.355E+04   0.273E+00 0.123E+01 0.312E+01   -.385E-01 -.389E-01 0.229E+00
   -.555E+01 0.214E+02 -.356E+04   0.587E+01 -.228E+02 0.355E+04   -.273E+00 0.123E+01 0.312E+01   0.389E-01 -.363E-01 0.230E+00
   0.229E+02 -.206E+01 -.354E+04   -.246E+02 0.218E+01 0.354E+04   0.161E+01 -.114E+00 0.337E+01   -.901E-01 0.122E-01 0.273E+00
   -.229E+02 -.206E+01 -.354E+04   0.246E+02 0.218E+01 0.354E+04   -.161E+01 -.114E+00 0.337E+01   0.888E-01 0.137E-01 0.273E+00
   0.498E+01 -.181E+02 -.356E+04   -.547E+01 0.194E+02 0.356E+04   0.394E+00 -.114E+01 0.302E+01   -.203E-01 -.127E-02 0.219E+00
   -.498E+01 -.181E+02 -.356E+04   0.547E+01 0.194E+02 0.356E+04   -.394E+00 -.114E+01 0.302E+01   0.240E-01 -.226E-02 0.218E+00
   -.158E-03 -.485E+01 -.360E+04   0.262E-03 0.473E+01 0.359E+04   -.147E-07 0.221E+00 0.227E+01   -.135E-01 -.725E-01 0.439E+00
   -.543E-04 -.465E+01 -.303E+04   0.119E-03 0.464E+01 0.303E+04   0.263E-08 -.394E-01 0.369E+01   0.390E-02 0.402E-01 -.430E+00
   0.244E+03 0.296E+00 -.231E+04   -.283E+03 -.334E+00 0.232E+04   0.390E+02 0.311E-01 -.116E+02   -.331E+00 0.128E-02 -.246E+00
   -.244E+03 0.296E+00 -.231E+04   0.283E+03 -.334E+00 0.232E+04   -.390E+02 0.311E-01 -.116E+02   0.332E+00 0.138E-02 -.247E+00
   0.738E-04 0.476E+00 0.219E+02   -.114E-12 -.351E-12 -.455E-12   0.330E-07 -.496E+00 -.175E+02   0.864E-01 0.352E-01 -.447E+01

 POSITION                                       TOTAL-FORCE (eV/Angst)
      0.00000      0.00000      5.37156         0.000000     -0.001367      0.096927
      2.56560      0.00000      5.37156         0.002168      0.012454      0.069772
      5.13119      0.00000      5.37156        -0.002168      0.012454      0.069772
      1.28280      2.22187      5.37156         0.008675      0.000997      0.079939
      3.84839      2.22187      5.37156        -0.000000      0.002480      0.049664
      6.41399      2.22187      5.37156        -0.008675      0.000997      0.079939
      2.56560      4.44374      5.37156         0.021785     -0.007964      0.075027
      5.13119      4.44374      5.37156        -0.021785     -0.007964      0.075027
      7.69679      4.44374      5.37156        -0.000000      0.004475      0.081382
      1.28280      0.74062      7.46636         0.040557      0.025438     -0.079627
      3.84839      0.74062      7.46636         0.000000     -0.012333     -0.126454
      6.41399      0.74062      7.46636        -0.040557      0.025438     -0.079627
      2.56560      2.96249      7.46636        -0.021166      0.005175     -0.138118
      5.13119      2.96249      7.46636         0.021166      0.005175     -0.138118
      7.69679      2.96249      7.46636        -0.000000      0.004123     -0.065130
      3.84839      5.18437      7.46636         0.000000     -0.060218     -0.103188
      6.41399      5.18437      7.46636         0.014486      0.001727     -0.061733
      8.97958      5.18437      7.46636        -0.014486      0.001727     -0.061733
      7.69679      1.48223      9.53996         0.000000     -0.004995      0.010682
      2.55948      1.47772      9.53985         0.064013      0.040202      0.007639
      5.13731      1.47772      9.53985        -0.064013      0.040202      0.007639
      8.98047      3.70261      9.54732         0.018183     -0.024805      0.022884
      3.84839      3.71018      9.53985         0.000000     -0.046724     -0.051229
      6.41310      3.70261      9.54732        -0.018183     -0.024805      0.022884
     10.26153      5.92450      9.53996         0.016118     -0.004577      0.015094
      5.13204      5.92450      9.53996        -0.016118     -0.004577      0.015094
      7.69679      5.92601      9.54732        -0.000000      0.040366      0.040334
      0.00000      0.00000     11.61018         0.000000     -0.033864     -0.012522
      6.39795      6.64100     11.62214        -0.093448     -0.171241     -0.032425
      8.99562      6.64100     11.62214         0.093448     -0.171241     -0.032425
      8.95025      2.22029     11.62214        -0.197309      0.014133     -0.080046
      6.44333      2.22029     11.62214         0.197309      0.014133     -0.080046
     10.24908      4.46994     11.62214        -0.116686      0.159700     -0.030582
      5.14449      4.46994     11.62214         0.116686      0.159700     -0.030582
      7.69679      4.44374     11.61116        -0.000000      0.026207      0.027477
      3.84839      2.22187     11.69545         0.000000     -0.007727      0.518996
      3.17278      2.19083     13.76759        -0.110971     -0.006450     -0.081294
      4.52400      2.19083     13.76759         0.110971     -0.006450     -0.081294
    total drift:                                0.086480      0.014592     -0.046648

  FREE ENERGIE OF THE ION-ELECTRON SYSTEM (eV)
  free  energy   TOTEN  =      -137.33993739 eV

  energy  without entropy=     -137.33993739  energy(sigma->0) =     -137.33993739

 stress matrix after NEB project (eV)
     -1.43062      0.00000      0.00000
      0.00000     -1.10348     -0.17304
      0.00000     -0.17304      1.92340
  FORCES: max atom, RMS     0.137713    0.031594
  FORCE total and by dimension    0.194756    0.110971
  Stress total and by dimension    2.650226    1.923398
|           W    W    AA    RRRRR   N    N  II  N    N   GGGG   !!!           |
|           W    W   A  A   R    R  NN   N  II  NN   N  G    G  !!!           |
|           W    W  A    A  R    R  N N  N  II  N N  N  G       !!!           |
|           W WW W  AAAAAA  RRRRR   N  N N  II  N  N N  G  GGG   !            |
|           WW  WW  A    A  R   R   N   NN  II  N   NN  G    G                |
|           W    W  A    A  R    R  N    N  II  N    N   GGGG   !!!           |
|     Tetrahedron method does not include variations of the Fermi             |
|     occupations, so forces and stress will be inaccurate. We suggest        |
|     using a different smearing scheme ISMEAR = 1 or 2 for metals in         |
|     relaxations.                                                            |

 total charge

# of ion       s       p       d       tot
    1        0.445   0.285   9.187   9.917
    2        0.449   0.283   9.188   9.920
    3        0.449   0.283   9.188   9.920
    4        0.449   0.284   9.189   9.921
    5        0.446   0.286   9.188   9.920
    6        0.449   0.284   9.189   9.921
    7        0.449   0.285   9.186   9.920
    8        0.449   0.285   9.186   9.920
    9        0.445   0.285   9.187   9.917
   10        0.441   0.375   9.177   9.993
   11        0.443   0.370   9.182   9.996
   12        0.441   0.375   9.177   9.993
   13        0.443   0.371   9.181   9.994
   14        0.443   0.371   9.181   9.994
   15        0.439   0.373   9.179   9.991
   16        0.442   0.373   9.180   9.994
   17        0.439   0.371   9.183   9.992
   18        0.439   0.371   9.183   9.992
   19        0.443   0.375   9.183  10.002
   20        0.440   0.380   9.176   9.997
   21        0.440   0.380   9.176   9.997
   22        0.439   0.373   9.182   9.994
   23        0.439   0.378   9.179   9.996
   24        0.439   0.373   9.182   9.994
   25        0.443   0.376   9.183  10.002
   26        0.443   0.376   9.183  10.002
   27        0.439   0.376   9.179   9.994
   28        0.455   0.289   9.194   9.938
   29        0.446   0.287   9.201   9.934
   30        0.446   0.287   9.201   9.934
   31        0.439   0.292   9.199   9.930
   32        0.439   0.292   9.199   9.930
   33        0.446   0.287   9.201   9.934
   34        0.446   0.287   9.201   9.934
   35        0.453   0.291   9.193   9.937
   36        0.489   0.542   8.476   9.507
   37        1.606   3.251   0.000   4.857
   38        1.606   3.251   0.000   4.857
tot         19.239  18.652 329.996 367.887

 BZINTS: Fermi energy:   -0.537250;  407.000000 electrons
         Band energy:-0.143055E+04;  BLOECHL correction:   -0.037165