 vasp.6.2.0 18Jan21 (build Jun 12 2021 23:27:24) complex

 executed on             LinuxIFC date 2022.05.27  05:00:42

 INCAR:
   ISMEAR = -5
   SIGMA = 0.1
   ISPIN = 1
   EDIFF = 1.d-5
   EDIFFG = -0.01
   NSW = 0
   NELM = 150
   ENCUT = 500
   ISIF = 2
   IBRION = 2
   LREAL = Auto
   ALGO = Fast
   ICHARG = 11
   LORBIT = 10
   LCHARG = .F.
   LWAVE = .F.

 POTCAR:    PAW_PBE Au 04Oct2007
 POTCAR:    PAW_PBE Cr 06Sep2000
 POTCAR:    PAW_PBE O 08Apr2002
 POTCAR:    PAW_PBE H 15Jun2001
|           W    W    AA    RRRRR   N    N  II  N    N   GGGG   !!!           |
|           W    W   A  A   R    R  NN   N  II  NN   N  G    G  !!!           |
|           W    W  A    A  R    R  N N  N  II  N N  N  G       !!!           |
|           W WW W  AAAAAA  RRRRR   N  N N  II  N  N N  G  GGG   !            |
|           WW  WW  A    A  R   R   N   NN  II  N   NN  G    G                |
|           W    W  A    A  R    R  N    N  II  N    N   GGGG   !!!           |
|     For optimal performance we recommend to set                             |
|       NCORE = 2 up to number-of-cores-per-socket                            |
|     This setting can greatly improve the performance of VASP for DFT.       |
|     The default, NCORE=1 might be grossly inefficient on modern             |
|     multi-core architectures or massively parallel machines. Do your        |
|     Unfortunately you need to use the default for GW and RPA                |
|     calculations (for HF NCORE is supported but not extensively tested      |
|     yet).                                                                   |

 POTCAR:    PAW_PBE Au 04Oct2007
   VRHFIN =Au: s1d10

   TITEL  = PAW_PBE Au 04Oct2007
   POMASS =  196.966; ZVAL   =   11.000    mass and valenz
   ENMAX  =  229.943; ENMIN  =  172.457 eV

 POTCAR:    PAW_PBE Cr 06Sep2000
   VRHFIN =Cr : d5 s1

   TITEL  = PAW_PBE Cr 06Sep2000
   POMASS =   51.996; ZVAL   =    6.000    mass and valenz
   ENMAX  =  227.080; ENMIN  =  170.310 eV

 POTCAR:    PAW_PBE O 08Apr2002
   VRHFIN =O: s2p4

   TITEL  = PAW_PBE O 08Apr2002
   POMASS =   16.000; ZVAL   =    6.000    mass and valenz
   ENMAX  =  400.000; ENMIN  =  300.000 eV

 POTCAR:    PAW_PBE H 15Jun2001
   VRHFIN =H: ultrasoft test

   TITEL  = PAW_PBE H 15Jun2001
   POMASS =    1.000; ZVAL   =    1.000    mass and valenz
   ENMAX  =  250.000; ENMIN  =  200.000 eV

 Optimization of the real space projectors (new method)

 maximal supplied QI-value         = 15.12
 optimisation between [QCUT,QGAM] = [ 11.34, 22.83] = [ 36.00,145.93] Ry
 Optimized for a Real-space Cutoff    1.39 Angstroem

   l    n(q)    QCUT    max X(q) W(low)/X(q) W(high)/X(q)  e(spline)
   2      9    11.338    60.898    0.39E-03    0.42E-03    0.21E-06
   2      9    11.338    58.894    0.40E-03    0.42E-03    0.22E-06
   0      9    11.338   109.617    0.13E-03    0.20E-04    0.13E-06
   0      9    11.338    75.026    0.13E-03    0.20E-04    0.13E-06
   1      9    11.338    16.344    0.33E-04    0.24E-03    0.18E-06
   1      9    11.338    10.160    0.26E-04    0.19E-03    0.15E-06
 Optimization of the real space projectors (new method)

[...]

   l    n(q)    QCUT    max X(q) W(low)/X(q) W(high)/X(q)  e(spline)
   0      7    11.387    20.381    0.39E-03    0.13E-02    0.15E-06
   0      7    11.387    15.268    0.42E-03    0.14E-02    0.17E-06
   1      6    11.387     5.964    0.41E-03    0.11E-02    0.17E-06
   1      6    11.387     5.382    0.39E-03    0.87E-03    0.15E-06
 Optimization of the real space projectors (new method)

 maximal supplied QI-value         = 34.20
 optimisation between [QCUT,QGAM] = [ 11.29, 22.57] = [ 35.68,142.71] Ry
 Optimized for a Real-space Cutoff    1.16 Angstroem

   l    n(q)    QCUT    max X(q) W(low)/X(q) W(high)/X(q)  e(spline)
   0      8    11.287    19.460    0.40E-03    0.73E-03    0.16E-06
   0      8    11.287    12.209    0.38E-03    0.70E-03    0.15E-06
   1      7    11.287     4.655    0.22E-03    0.25E-04    0.22E-06
  PAW_PBE Au 04Oct2007                  :
  PAW_PBE Cr 06Sep2000                  :
  PAW_PBE O 08Apr2002                   :
  PAW_PBE H 15Jun2001                   :

 POSCAR: Au-Cr-OH
  positions in direct lattice
  velocities in cartesian coordinates
 exchange correlation table for  LEXCH =        8
   RHO(1)=    0.500       N(1)  =     2000
   RHO(2)=  100.500       N(2)  =     4000

 VTST: version 3.2, (02/03/18)

 CHAIN: initializing optimizer

 OPT: Using VASP Conjugate-Gradient optimizer
 CHAIN: Read ICHAIN            0

 POSCAR: Au-Cr-OH
  positions in direct lattice
  velocities in cartesian coordinates

 ion  position               nearest neighbor table
   1  0.000  0.000  0.238-  16 2.94  12 2.94   6 2.94   8 2.94   7 2.94   3 2.94  10 2.94   4 2.94
                             2 2.94
   2  0.333  0.000  0.238-   9 2.94  11 2.94  17 2.94  10 2.94   8 2.94   4 2.94   5 2.94   1 2.94
                             3 2.94
   3  0.667  0.000  0.238-   7 2.94  18 2.94  12 2.94   1 2.94  11 2.94   5 2.94   6 2.94   9 2.94
                             2 2.94
   4  0.000  0.333  0.238-  10 2.94   6 2.94   5 2.94  13 2.94   2 2.94  15 2.94   9 2.94   1 2.94
                             7 2.94
   5  0.333  0.333  0.238-  13 2.94   7 2.94  11 2.94   4 2.94   2 2.94  14 2.94   3 2.94   8 2.94
                             6 2.94
   6  0.667  0.333  0.238-  15 2.94  14 2.94   1 2.94  12 2.94   4 2.94   9 2.94   8 2.94   3 2.94
                             5 2.94
   7  0.000  0.667  0.238-  18 2.94   3 2.94  16 2.94   5 2.94   1 2.94  13 2.94   8 2.94   4 2.94
                             9 2.94
   8  0.333  0.667  0.238-   9 2.94  17 2.94   1 2.94   2 2.94  14 2.94  16 2.94   6 2.94   7 2.94
                             5 2.94
   9  0.667  0.667  0.238-   2 2.94   8 2.94  17 2.94   6 2.94  15 2.94   4 2.94   3 2.94  18 2.94
                             7 2.94
  10  0.111  0.111  0.346-  20 2.92  26 2.94  19 2.94  11 2.94  17 2.94   2 2.94   4 2.94   1 2.94
                            12 2.94  16 2.94  13 2.94  15 2.94
  11  0.444  0.111  0.346-  20 2.91  21 2.91  27 2.93  13 2.94   2 2.94  10 2.94  17 2.94   5 2.94
                             3 2.94  18 2.94  14 2.94  12 2.94
  12  0.778  0.111  0.346-  21 2.92  25 2.94  19 2.94  16 2.94  18 2.94   1 2.94  14 2.94  15 2.94
                             3 2.94   6 2.94  10 2.94  11 2.94
  13  0.111  0.444  0.346-  23 2.91  20 2.91  22 2.93   5 2.94  18 2.94  11 2.94   7 2.94   4 2.94
                            16 2.94  10 2.94  14 2.94  15 2.94
  14  0.444  0.444  0.346-  21 2.91  23 2.91  24 2.93  15 2.94   6 2.94  12 2.94   8 2.94  17 2.94
                             5 2.94  16 2.94  13 2.94  11 2.94
  15  0.778  0.444  0.346-  24 2.92  22 2.92  19 2.94  14 2.94   6 2.94  17 2.94  12 2.94   9 2.94
                             4 2.94  10 2.94  13 2.94  18 2.94
  16  0.111  0.778  0.346-  23 2.92  25 2.94  26 2.94  18 2.94  12 2.94   7 2.94   1 2.94   8 2.94
                            13 2.94  10 2.94  14 2.94  17 2.94
  17  0.444  0.778  0.346-  27 2.92  24 2.92  26 2.94   9 2.94  15 2.94   2 2.94  10 2.94  11 2.94
                             8 2.94  14 2.94  16 2.94  18 2.94
  18  0.778  0.778  0.346-  22 2.92  27 2.92  25 2.94  16 2.94   7 2.94  13 2.94  12 2.94   3 2.94
                            11 2.94   9 2.94  15 2.94  17 2.94
  19  0.889  0.222  0.454-  10 2.94  12 2.94  15 2.94  26 2.94  25 2.94  24 2.94  22 2.94  28 2.95
                            21 2.95  20 2.95  32 3.00  31 3.00
  20  0.223  0.223  0.453-  36 2.71  11 2.91  13 2.91  23 2.91  21 2.91  29 2.92  31 2.92  10 2.92
                            26 2.95  19 2.95  27 2.96  22 2.96
  21  0.553  0.223  0.453-  36 2.71  14 2.91  11 2.91  20 2.91  23 2.91  30 2.92  32 2.92  12 2.92
                            25 2.95  19 2.95  27 2.96  24 2.96
  22  0.886  0.557  0.453-  24 2.90  27 2.90  18 2.92  15 2.92  13 2.93  25 2.94  19 2.94  23 2.96
                            20 2.96  35 2.96  33 2.96  31 2.96
  23  0.223  0.553  0.453-  36 2.71  13 2.91  14 2.91  20 2.91  21 2.91  33 2.92  34 2.92  16 2.92
                            25 2.95  26 2.95  22 2.96  24 2.96
  24  0.557  0.557  0.453-  27 2.90  22 2.90  15 2.92  17 2.92  14 2.93  26 2.94  19 2.94  21 2.96
                            23 2.96  35 2.96  32 2.96  34 2.96
  25  0.889  0.889  0.454-  16 2.94  12 2.94  18 2.94  19 2.94  26 2.94  22 2.94  27 2.94  28 2.95
                            23 2.95  21 2.95  33 3.00  30 3.00
  26  0.222  0.889  0.454-  10 2.94  16 2.94  17 2.94  19 2.94  25 2.94  27 2.94  24 2.94  28 2.95
                            20 2.95  23 2.95  29 3.00  34 3.00
  27  0.557  0.886  0.453-  24 2.90  22 2.90  17 2.92  18 2.92  11 2.93  26 2.94  25 2.94  20 2.96
                            21 2.96  35 2.96  29 2.96  30 2.96
  28  0.000  0.000  0.563-  25 2.95  19 2.95  26 2.95  34 2.99  32 2.99  33 2.99  30 2.99  31 2.99
                            29 2.99
  29  0.334  0.011  0.562-  30 2.84  31 2.84  36 2.86  20 2.92  27 2.96  35 2.99  28 2.99  26 3.00
                            34 3.13
  30  0.655  0.011  0.562-  29 2.84  32 2.84  36 2.86  21 2.92  27 2.96  35 2.99  28 2.99  25 3.00
                            33 3.13
  31  0.011  0.334  0.562-  33 2.84  29 2.84  36 2.86  20 2.92  22 2.96  35 2.99  28 2.99  19 3.00
                            32 3.13
  32  0.655  0.334  0.562-  34 2.84  30 2.84  36 2.86  21 2.92  24 2.96  35 2.99  28 2.99  19 3.00
                            31 3.13
  33  0.011  0.655  0.562-  31 2.84  34 2.84  36 2.86  23 2.92  22 2.96  35 2.99  28 2.99  25 3.00
                            30 3.13
  34  0.334  0.655  0.562-  32 2.84  33 2.84  36 2.86  23 2.92  24 2.96  35 2.99  28 2.99  26 3.00
                            29 3.13
  35  0.667  0.667  0.563-  24 2.96  27 2.96  22 2.96  29 2.99  34 2.99  32 2.99  31 2.99  30 2.99
                            33 2.99
  36  0.333  0.333  0.549-  37 1.74  20 2.71  23 2.71  21 2.71  33 2.86  31 2.86  29 2.86  30 2.86
                            34 2.86  32 2.86
  37  0.333  0.333  0.627-  38 0.97  36 1.74
  38  0.333  0.333  0.671-  37 0.97

  LATTYP: Found a hexagonal cell.
 ALAT       =     8.8135128021
 C/A-ratio  =     2.5184286595

  Lattice vectors:

 A1 = (  -4.4067569092,  -7.6327256898,   0.0000000000)
 A2 = (   8.8135128021,   0.0000000000,   0.0000000000)
 A3 = (   0.0000000000,   0.0000000000,  22.1962032318)

Analysis of symmetry for initial positions (statically):
 Subroutine PRICEL returns:
 Original cell was already a primitive cell.

 Routine SETGRP: Setting up the symmetry group for a
 hexagonal supercell.

 Subroutine GETGRP returns: Found  6 space group operations
 (whereof  6 operations were pure point group operations)
 out of a pool of 24 trial point group operations.

The static configuration has the point symmetry C_3v.

Analysis of symmetry for dynamics (positions and initial velocities):
 Subroutine PRICEL returns:
 Original cell was already a primitive cell.

[...]

The dynamic configuration has the point symmetry C_3v.

Analysis of constrained symmetry for selective dynamics:
 Subroutine PRICEL returns:
 Original cell was already a primitive cell.

[...]
     33      -4.5295      2.00000
     34      -4.5173      2.00000
     35      -4.5058      2.00000
     36      -4.4641      2.00000
     37      -4.3776      2.00000
     38      -4.3697      2.00000
     39      -4.3224      2.00000
     40      -4.3075      2.00000
     41      -4.2514      2.00000
     42      -4.2028      2.00000
     43      -4.1701      2.00000
     44      -4.1422      2.00000
     45      -4.1080      2.00000
     46      -4.0744      2.00000
     47      -4.0502      2.00000
     48      -3.9780      2.00000
     49      -3.9517      2.00000
     50      -3.9350      2.00000
     51      -3.9106      2.00000
     52      -3.8837      2.00000
     53      -3.8767      2.00000
     54      -3.8704      2.00000
     55      -3.8505      2.00000
     56      -3.8360      2.00000
     57      -3.7805      2.00000
     58      -3.7624      2.00000
     59      -3.7415      2.00000
     60      -3.7361      2.00000
[...]
    238       6.5046      0.00000
    239       6.6366      0.00000
    240       6.6459      0.00000
    241       6.6933      0.00000
    242       6.7259      0.00000
    243       6.9873      0.00000
    244       7.0123      0.00000
    245       7.0335      0.00000
    246       7.0768      0.00000
    247       7.3746      0.00000
    248       7.3793      0.00000
    249       7.4686      0.00000
    250       7.5581      0.00000
    251       7.6722      0.00000
    252       7.6913      0.00000

 soft charge-density along one line, spin component           1
         0         1         2         3         4         5         6         7         8         9
 total charge-density along one line

------------------------ aborting loop because EDIFF is reached ----------------------------------------

 total charge

# of ion       s       p       d       tot
    1        0.548   0.238   8.767   9.553
    2        0.544   0.242   8.764   9.550
    3        0.544   0.242   8.764   9.550
    4        0.544   0.242   8.764   9.550
    5        0.545   0.242   8.763   9.550
    6        0.544   0.242   8.764   9.550
    7        0.544   0.242   8.764   9.550
    8        0.544   0.242   8.764   9.550
    9        0.542   0.241   8.767   9.550
   10        0.523   0.308   8.771   9.602
   11        0.520   0.310   8.777   9.607
   12        0.523   0.308   8.771   9.602
   13        0.520   0.310   8.777   9.607
   14        0.520   0.310   8.777   9.607
   15        0.515   0.310   8.775   9.600
   16        0.523   0.308   8.771   9.602
   17        0.515   0.310   8.775   9.600
   18        0.515   0.310   8.775   9.600
   19        0.518   0.299   8.777   9.593
   20        0.557   0.339   8.739   9.635
   21        0.557   0.339   8.739   9.635
   22        0.509   0.311   8.776   9.596
   23        0.557   0.339   8.739   9.635
   24        0.509   0.311   8.776   9.596
   25        0.518   0.299   8.777   9.593
   26        0.518   0.299   8.777   9.593
   27        0.509   0.311   8.776   9.596
   28        0.543   0.225   8.762   9.529
   29        0.557   0.241   8.760   9.559
   30        0.557   0.241   8.760   9.559
   31        0.557   0.241   8.760   9.559
   32        0.557   0.241   8.760   9.559
   33        0.557   0.241   8.760   9.559
   34        0.557   0.241   8.760   9.559
   35        0.536   0.226   8.764   9.526
   36        0.412   0.564   4.227   5.203
   37        1.560   3.523   0.000   5.083
   38        0.602   0.125   0.000   0.726
tot         21.323  13.908 311.042 346.273

  FORCE on cell =-STRESS in cart. coord.  units (eV):
  Direction    XX          YY          ZZ          XY          YZ          ZX
  Alpha Z  1013.05576  1013.05576  1013.05576
  Ewald  118474.15069118474.15111************    -0.00031    -0.00009    -0.00012
  Hartree127302.49859127302.49859************     0.00001    -0.00002    -0.00003
  E(xc)   -1786.74776 -1786.74776 -1792.82353     0.00000     0.00000     0.00001
  Local  ************************258065.75402     0.00203     0.00001    -0.00001
  n-local  -111.23167   -63.32011   -59.99077    23.32423    -1.59600     1.53244
  augment  2402.11581  2402.11730  2411.51836    -0.00129     0.00002     0.00004
  Kinetic  5541.92564  5552.14165  5558.83332     6.13055     0.05433     0.25640
  Fock        0.00000     0.00000     0.00000     0.00000     0.00000     0.00000
  Total     -20.73246   -20.73246     1.64358    -0.00000    -0.00000     0.00000
  in kB     -22.24611   -22.24611     1.76357    -0.00000    -0.00000     0.00000

 VOLUME and BASIS-vectors are now :
  energy-cutoff  :      500.00
  volume of cell :     1493.16
      direct lattice vectors                 reciprocal lattice vectors
     8.813512802  0.000000000  0.000000000     0.113462137 -0.065507406  0.000000000
     4.406756909  7.632725690  0.000000000     0.000000000  0.131014796  0.000000000
     0.000000000  0.000000000 22.196203232     0.000000000  0.000000000  0.045052750

  length of vectors
     8.813512802  8.813512802 22.196203232     0.131014796  0.131014796  0.045052750

 FORCES acting on ions
    electron-ion (+dipol)            ewald-force                    non-local-force                 convergence-correction
   -.194E-04 -.161E-04 0.248E+04   0.519E-04 0.433E-04 -.248E+04   0.511E-17 -.104E-17 -.812E+00   -.216E-03 -.138E-03 -.312E+00
   0.507E+00 0.591E-01 0.248E+04   -.571E+00 -.205E+00 -.248E+04   0.247E-01 0.112E+00 -.286E+00   0.329E-01 0.375E-01 -.324E+00
   -.507E+00 0.591E-01 0.248E+04   0.571E+00 -.205E+00 -.248E+04   -.247E-01 0.112E+00 -.286E+00   -.326E-01 0.394E-01 -.323E+00
   0.305E+00 0.410E+00 0.248E+04   -.463E+00 -.392E+00 -.248E+04   0.109E+00 -.344E-01 -.286E+00   0.490E-01 0.964E-02 -.324E+00
   0.937E-05 -.229E-04 0.248E+04   0.951E-04 0.174E-05 -.248E+04   0.209E-18 0.195E-17 -.154E+00   0.422E-02 0.257E-02 -.312E+00
   -.305E+00 0.410E+00 0.248E+04   0.463E+00 -.392E+00 -.248E+04   -.109E+00 -.344E-01 -.286E+00   -.504E-01 0.105E-01 -.323E+00
   -.202E+00 -.469E+00 0.248E+04   0.108E+00 0.597E+00 -.248E+04   0.842E-01 -.771E-01 -.286E+00   0.179E-01 -.479E-01 -.323E+00
   0.202E+00 -.469E+00 0.248E+04   -.108E+00 0.597E+00 -.248E+04   -.842E-01 -.771E-01 -.286E+00   -.161E-01 -.489E-01 -.323E+00
   0.195E-04 -.416E-04 0.248E+04   0.166E-03 -.201E-04 -.248E+04   0.111E-17 -.271E-17 -.486E+00   -.455E-02 -.235E-02 -.264E+00
   0.406E+01 0.235E+01 0.834E+03   -.377E+01 -.217E+01 -.833E+03   -.365E+00 -.211E+00 -.604E+00   0.917E-01 0.528E-01 0.222E+00
   0.147E-04 0.397E+01 0.840E+03   0.147E-03 -.406E+01 -.840E+03   0.302E-08 0.454E-01 -.272E+00   0.388E-02 0.587E-03 0.389E+00
   -.406E+01 0.235E+01 0.834E+03   0.377E+01 -.217E+01 -.833E+03   0.365E+00 -.211E+00 -.604E+00   -.928E-01 0.536E-01 0.221E+00
   0.344E+01 -.198E+01 0.840E+03   -.352E+01 0.203E+01 -.840E+03   0.393E-01 -.227E-01 -.272E+00   0.274E-02 0.334E-02 0.389E+00
   -.344E+01 -.198E+01 0.840E+03   0.352E+01 0.203E+01 -.840E+03   -.393E-01 -.227E-01 -.272E+00   0.444E-02 0.242E-02 0.387E+00
   0.312E-04 0.415E+01 0.838E+03   0.236E-03 -.422E+01 -.837E+03   -.566E-09 -.850E-02 -.528E+00   -.192E-02 0.362E-01 0.207E+00
   -.213E-04 -.469E+01 0.834E+03   0.163E-03 0.435E+01 -.833E+03   0.281E-07 0.422E+00 -.604E+00   -.278E-03 -.107E+00 0.221E+00
   0.360E+01 -.208E+01 0.838E+03   -.366E+01 0.211E+01 -.837E+03   -.736E-02 0.425E-02 -.528E+00   0.307E-01 -.193E-01 0.207E+00
   -.360E+01 -.208E+01 0.838E+03   0.366E+01 0.211E+01 -.837E+03   0.736E-02 0.425E-02 -.528E+00   -.302E-01 -.177E-01 0.208E+00
   -.413E-04 0.719E+00 -.845E+03   0.547E-04 -.107E+01 0.843E+03   0.619E-08 0.929E-01 0.694E+00   0.812E-03 0.213E+00 0.771E+00
   0.118E+02 0.679E+01 -.813E+03   -.113E+02 -.653E+01 0.812E+03   -.112E+01 -.646E+00 -.979E+00   0.669E+00 0.386E+00 0.153E+01
   -.118E+02 0.679E+01 -.813E+03   0.113E+02 -.653E+01 0.812E+03   0.112E+01 -.646E+00 -.979E+00   -.675E+00 0.386E+00 0.153E+01
   -.169E+01 0.976E+00 -.829E+03   0.115E+01 -.663E+00 0.827E+03   0.389E+00 -.225E+00 0.632E+00   0.216E+00 -.124E+00 0.855E+00
   -.849E-05 -.136E+02 -.813E+03   0.140E-03 0.131E+02 0.812E+03   0.860E-07 0.129E+01 -.979E+00   -.372E-02 -.778E+00 0.153E+01
   0.169E+01 0.976E+00 -.829E+03   -.115E+01 -.663E+00 0.827E+03   -.389E+00 -.225E+00 0.632E+00   -.215E+00 -.124E+00 0.855E+00
   -.623E+00 -.359E+00 -.845E+03   0.926E+00 0.535E+00 0.843E+03   -.805E-01 -.465E-01 0.694E+00   -.185E+00 -.107E+00 0.771E+00
   0.622E+00 -.359E+00 -.845E+03   -.926E+00 0.535E+00 0.843E+03   0.805E-01 -.465E-01 0.694E+00   0.186E+00 -.106E+00 0.771E+00
   0.117E-04 -.195E+01 -.829E+03   0.196E-03 0.133E+01 0.827E+03   0.299E-07 0.449E+00 0.632E+00   -.269E-03 0.249E+00 0.855E+00
   -.129E-04 -.131E-04 -.245E+04   0.299E-04 0.340E-04 0.245E+04   0.458E-17 0.171E-17 0.394E+00   0.100E-03 0.404E-04 0.699E+00
   0.301E+02 0.474E+02 -.243E+04   -.301E+02 -.477E+02 0.243E+04   -.678E+00 -.864E+00 0.383E+00   0.535E+00 0.825E+00 0.550E+00
   -.301E+02 0.474E+02 -.243E+04   0.301E+02 -.477E+02 0.243E+04   0.678E+00 -.864E+00 0.383E+00   -.535E+00 0.826E+00 0.550E+00
   0.561E+02 0.235E+01 -.243E+04   -.564E+02 -.223E+01 0.243E+04   -.109E+01 -.155E+00 0.383E+00   0.982E+00 0.506E-01 0.550E+00
   -.561E+02 0.235E+01 -.243E+04   0.564E+02 -.223E+01 0.243E+04   0.109E+01 -.155E+00 0.383E+00   -.982E+00 0.515E-01 0.551E+00
   0.260E+02 -.498E+02 -.243E+04   -.263E+02 0.500E+02 0.243E+04   -.409E+00 0.102E+01 0.383E+00   0.448E+00 -.876E+00 0.550E+00
   -.260E+02 -.498E+02 -.243E+04   0.263E+02 0.500E+02 0.243E+04   0.409E+00 0.102E+01 0.383E+00   -.446E+00 -.876E+00 0.551E+00
   0.352E-04 -.288E-04 -.246E+04   0.140E-03 -.494E-04 0.246E+04   -.130E-16 -.109E-17 0.549E+00   -.424E-02 -.215E-02 0.599E+00
   -.207E-04 -.410E-05 -.111E+04   0.635E-04 0.589E-05 0.111E+04   0.303E-18 0.199E-17 -.240E+00   0.152E-02 0.931E-03 0.429E+00
   0.196E-03 -.929E-04 -.155E+04   0.251E-04 0.164E-05 0.153E+04   0.806E-18 -.127E-17 0.196E+02   0.360E-02 0.220E-02 -.129E+01
   0.795E-05 -.130E-04 -.316E+03   0.137E-05 0.123E-06 0.325E+03   0.210E-18 0.744E-19 -.849E+01   0.196E-03 0.119E-03 -.139E+00
   -.580E-03 -.875E-03 -.202E+02   -.219E-13 0.203E-12 -.665E-11   -.123E-15 -.222E-15 0.775E+01   0.309E-02 0.250E-02 0.127E+02

 POSITION                                       TOTAL-FORCE (eV/Angst)
      0.00000      0.00000      5.28038        -0.000000     -0.000000     -0.139451
      2.93784      0.00000      5.28038        -0.005497      0.003991     -0.049715
      5.87568      0.00000      5.28038         0.005497      0.003991     -0.049715
      1.46892      2.54424      5.28038         0.000708     -0.006757     -0.049715
      4.40676      2.54424      5.28038        -0.000000     -0.000000     -0.064862
      7.34459      2.54424      5.28038        -0.000708     -0.006757     -0.049715
      2.93784      5.08848      5.28038         0.006205      0.002765     -0.049715
      5.87568      5.08848      5.28038        -0.006205      0.002765     -0.049715
      8.81351      5.08848      5.28038        -0.000000      0.000000     -0.082727
      1.46892      0.84808      7.67911         0.025909      0.014959      0.134931
      4.40676      0.84808      7.67911        -0.000000     -0.053349      0.023077
      7.34459      0.84808      7.67911        -0.025909      0.014959      0.134931
      2.93784      3.39232      7.67911        -0.046202      0.026675      0.023077
      5.87568      3.39232      7.67911         0.046202      0.026675      0.023077
      8.81351      3.39232      7.67911        -0.000000     -0.044909      0.104546
      4.40676      5.93656      7.67911        -0.000000     -0.029917      0.134931
      7.34459      5.93656      7.67911        -0.038892      0.022454      0.104546
     10.28243      5.93656      7.67911         0.038892      0.022454      0.104546
      8.81351      1.69581     10.07501        -0.000000     -0.044124     -0.021444
      2.95207      1.70438     10.04871        -0.004839     -0.002794     -0.012480
      5.86144      1.70438     10.04871         0.004839     -0.002794     -0.012480
     10.26527      4.25031     10.05786         0.061715     -0.035631      0.009088
      4.40676      4.22397     10.04871         0.000000      0.005587     -0.012480
      7.36176      4.25031     10.05786        -0.061715     -0.035631      0.009088
     11.75166      6.78482     10.07501         0.038212      0.022062     -0.021444
      5.87537      6.78482     10.07501        -0.038212      0.022062     -0.021444
      8.81351      6.76483     10.05786         0.000000      0.071262      0.009088
      0.00000      0.00000     12.48798        -0.000000     -0.000000     -0.013480
      2.98892      0.08359     12.48152        -0.193051     -0.370584     -0.235863
      5.82460      0.08359     12.48152         0.193051     -0.370584     -0.235863
      1.56685      2.54668     12.48152        -0.417461      0.018106     -0.235863
      7.24666      2.54668     12.48152         0.417461      0.018106     -0.235863
      2.98469      5.00245     12.48152        -0.224410      0.352479     -0.235863
      5.82882      5.00245     12.48152         0.224410      0.352479     -0.235863
      8.81351      5.08848     12.49580        -0.000000      0.000000      0.066746
      4.40676      2.54424     12.17616        -0.000000      0.000000      1.260795
      4.40676      2.54424     13.91744        -0.000000      0.000000     -0.065264
      4.40676      2.54424     14.88488        -0.000000     -0.000000      0.038550
    total drift:                                0.002514      0.001627      0.229638

  FREE ENERGIE OF THE ION-ELECTRON SYSTEM (eV)
  free  energy   TOTEN  =      -124.95618193 eV

  energy  without entropy=     -124.95618193  energy(sigma->0) =     -124.95618193

 stress matrix after NEB project (eV)
    -20.73246     -0.00000      0.00000
     -0.00000    -20.73246      0.00000
      0.00000     -0.00000      1.64358
  FORCES: max atom, RMS     0.065264    0.012296
  FORCE total and by dimension    0.075799    0.065264
  Stress total and by dimension   29.366161   20.732464
|           W    W    AA    RRRRR   N    N  II  N    N   GGGG   !!!           |
|           W    W   A  A   R    R  NN   N  II  NN   N  G    G  !!!           |
|           W    W  A    A  R    R  N N  N  II  N N  N  G       !!!           |
|           W WW W  AAAAAA  RRRRR   N  N N  II  N  N N  G  GGG   !            |
|           WW  WW  A    A  R   R   N   NN  II  N   NN  G    G                |
|           W    W  A    A  R    R  N    N  II  N    N   GGGG   !!!           |
|     Tetrahedron method does not include variations of the Fermi             |
|     occupations, so forces and stress will be inaccurate. We suggest        |
|     using a different smearing scheme ISMEAR = 1 or 2 for metals in         |
|     relaxations.                                                            |

 total charge

# of ion       s       p       d       tot
    1        0.548   0.238   8.767   9.553
    2        0.544   0.242   8.764   9.550
    3        0.544   0.242   8.764   9.550
    4        0.544   0.242   8.764   9.550
    5        0.545   0.242   8.763   9.550
    6        0.544   0.242   8.764   9.550
    7        0.544   0.242   8.764   9.550
    8        0.544   0.242   8.764   9.550
    9        0.542   0.241   8.767   9.550
   10        0.523   0.308   8.771   9.602
   11        0.520   0.310   8.777   9.607
   12        0.523   0.308   8.771   9.602
   13        0.520   0.310   8.777   9.607
   14        0.520   0.310   8.777   9.607
   15        0.515   0.310   8.775   9.600
   16        0.523   0.308   8.771   9.602
   17        0.515   0.310   8.775   9.600
   18        0.515   0.310   8.775   9.600
   19        0.518   0.299   8.777   9.593
   20        0.557   0.339   8.739   9.635
   21        0.557   0.339   8.739   9.635
   22        0.509   0.311   8.776   9.596
   23        0.557   0.339   8.739   9.635
   24        0.509   0.311   8.776   9.596
   25        0.518   0.299   8.777   9.593
   26        0.518   0.299   8.777   9.593
   27        0.509   0.311   8.776   9.596
   28        0.543   0.225   8.762   9.529
   29        0.557   0.241   8.760   9.559
   30        0.557   0.241   8.760   9.559
   31        0.557   0.241   8.760   9.559
   32        0.557   0.241   8.760   9.559
   33        0.557   0.241   8.760   9.559
   34        0.557   0.241   8.760   9.559
   35        0.536   0.226   8.764   9.526
   36        0.412   0.564   4.227   5.203
   37        1.560   3.523   0.000   5.083
   38        0.602   0.125   0.000   0.726
tot         21.323  13.908 311.042 346.273

 BZINTS: Fermi energy:    0.933398;  398.000000 electrons
         Band energy:-0.115733E+04;  BLOECHL correction:   -0.030612