 vasp.6.2.0 18Jan21 (build Jun 12 2021 23:27:24) complex

 executed on             LinuxIFC date 2022.05.28  01:05:10

 INCAR:
   ISMEAR = -5
   SIGMA = 0.1
   ISPIN = 1
   EDIFF = 1.d-5
   EDIFFG = -0.01
   NSW = 0
   NELM = 150
   ENCUT = 500
   ISIF = 2
   IBRION = 2
   LREAL = Auto
   ALGO = Fast
   ICHARG = 11
   LORBIT = 10
   LCHARG = .F.
   LWAVE = .F.

 POTCAR:    PAW_PBE Au 04Oct2007
 POTCAR:    PAW_PBE Hf 20Jan2003
 POTCAR:    PAW_PBE C 08Apr2002
 POTCAR:    PAW_PBE O 08Apr2002
|           W    W    AA    RRRRR   N    N  II  N    N   GGGG   !!!           |
|           W    W   A  A   R    R  NN   N  II  NN   N  G    G  !!!           |
|           W    W  A    A  R    R  N N  N  II  N N  N  G       !!!           |
|           W WW W  AAAAAA  RRRRR   N  N N  II  N  N N  G  GGG   !            |
|           WW  WW  A    A  R   R   N   NN  II  N   NN  G    G                |
|           W    W  A    A  R    R  N    N  II  N    N   GGGG   !!!           |
|     For optimal performance we recommend to set                             |
|       NCORE = 2 up to number-of-cores-per-socket                            |
|     This setting can greatly improve the performance of VASP for DFT.       |
|     The default, NCORE=1 might be grossly inefficient on modern             |
|     multi-core architectures or massively parallel machines. Do your        |
|     Unfortunately you need to use the default for GW and RPA                |
|     calculations (for HF NCORE is supported but not extensively tested      |
|     yet).                                                                   |

 POTCAR:    PAW_PBE Au 04Oct2007
   VRHFIN =Au: s1d10

   TITEL  = PAW_PBE Au 04Oct2007
   POMASS =  196.966; ZVAL   =   11.000    mass and valenz
   ENMAX  =  229.943; ENMIN  =  172.457 eV

 POTCAR:    PAW_PBE Hf 20Jan2003
   VRHFIN =Hf: 6s5d

   TITEL  = PAW_PBE Hf 20Jan2003
   POMASS =  178.490; ZVAL   =    4.000    mass and valenz
   ENMAX  =  220.334; ENMIN  =  165.250 eV

 POTCAR:    PAW_PBE C 08Apr2002
   VRHFIN =C: s2p2

   TITEL  = PAW_PBE C 08Apr2002
   POMASS =   12.011; ZVAL   =    4.000    mass and valenz
   ENMAX  =  400.000; ENMIN  =  300.000 eV

 POTCAR:    PAW_PBE O 08Apr2002
   VRHFIN =O: s2p4

   TITEL  = PAW_PBE O 08Apr2002
   POMASS =   16.000; ZVAL   =    6.000    mass and valenz
   ENMAX  =  400.000; ENMIN  =  300.000 eV

 Optimization of the real space projectors (new method)

 maximal supplied QI-value         = 15.12
 optimisation between [QCUT,QGAM] = [ 11.34, 22.83] = [ 36.00,145.93] Ry
 Optimized for a Real-space Cutoff    1.39 Angstroem

   l    n(q)    QCUT    max X(q) W(low)/X(q) W(high)/X(q)  e(spline)
   2      9    11.338    60.898    0.39E-03    0.42E-03    0.21E-06
   2      9    11.338    58.894    0.40E-03    0.42E-03    0.22E-06
   0      9    11.338   109.617    0.13E-03    0.20E-04    0.13E-06
   0      9    11.338    75.026    0.13E-03    0.20E-04    0.13E-06
   1      9    11.338    16.344    0.33E-04    0.24E-03    0.18E-06
   1      9    11.338    10.160    0.26E-04    0.19E-03    0.15E-06
 Optimization of the real space projectors (new method)

[...]

   l    n(q)    QCUT    max X(q) W(low)/X(q) W(high)/X(q)  e(spline)
   0      7    11.310   115.676    0.43E-03    0.13E-02    0.19E-06
   0      7    11.310    87.132    0.43E-03    0.13E-02    0.18E-06
   1      6    11.310     4.429    0.42E-03    0.74E-03    0.11E-06
   1      6    11.310     2.733    0.34E-03    0.55E-03    0.92E-07
 Optimization of the real space projectors (new method)

 maximal supplied QI-value         = 24.76
 optimisation between [QCUT,QGAM] = [ 11.39, 22.77] = [ 36.31,145.25] Ry
 Optimized for a Real-space Cutoff    1.00 Angstroem

   l    n(q)    QCUT    max X(q) W(low)/X(q) W(high)/X(q)  e(spline)
   0      7    11.387    20.381    0.39E-03    0.13E-02    0.15E-06
   0      7    11.387    15.268    0.42E-03    0.14E-02    0.17E-06
   1      6    11.387     5.964    0.41E-03    0.11E-02    0.17E-06
   1      6    11.387     5.382    0.39E-03    0.87E-03    0.15E-06
  PAW_PBE Au 04Oct2007                  :
  PAW_PBE Hf 20Jan2003                  :
  PAW_PBE C 08Apr2002                   :
  PAW_PBE O 08Apr2002                   :

 POSCAR: Au-Hf-CO2
  positions in direct lattice
  velocities in cartesian coordinates
 exchange correlation table for  LEXCH =        8
   RHO(1)=    0.500       N(1)  =     2000
   RHO(2)=  100.500       N(2)  =     4000

 VTST: version 3.2, (02/03/18)

 CHAIN: initializing optimizer

 OPT: Using VASP Conjugate-Gradient optimizer
 CHAIN: Read ICHAIN            0

 POSCAR: Au-Hf-CO2
  positions in direct lattice
  velocities in cartesian coordinates

 ion  position               nearest neighbor table
   1  0.000  0.000  0.217-  16 2.94  12 2.94   6 2.94   8 2.94   7 2.94   3 2.94  10 2.94   4 2.94
                             2 2.94
   2  0.333  0.000  0.217-   9 2.94  11 2.94  17 2.94  10 2.94   8 2.94   4 2.94   5 2.94   1 2.94
                             3 2.94
   3  0.667  0.000  0.217-   7 2.94  18 2.94  12 2.94   1 2.94  11 2.94   5 2.94   6 2.94   9 2.94
                             2 2.94
   4  0.000  0.333  0.217-  10 2.94   6 2.94   5 2.94  13 2.94   2 2.94  15 2.94   9 2.94   1 2.94
                             7 2.94
   5  0.333  0.333  0.217-  13 2.94   7 2.94  11 2.94   4 2.94   2 2.94  14 2.94   3 2.94   8 2.94
                             6 2.94
   6  0.667  0.333  0.217-  15 2.94  14 2.94   1 2.94  12 2.94   4 2.94   9 2.94   8 2.94   3 2.94
                             5 2.94
   7  0.000  0.667  0.217-  18 2.94   3 2.94  16 2.94   5 2.94   1 2.94  13 2.94   8 2.94   4 2.94
                             9 2.94
   8  0.333  0.667  0.217-   9 2.94  17 2.94   1 2.94   2 2.94  14 2.94  16 2.94   6 2.94   7 2.94
                             5 2.94
   9  0.667  0.667  0.217-   2 2.94   8 2.94  17 2.94   6 2.94  15 2.94   4 2.94   3 2.94  18 2.94
                             7 2.94
  10  0.111  0.111  0.315-  20 2.93  26 2.94  19 2.94  11 2.94  17 2.94   2 2.94   4 2.94   1 2.94
                            12 2.94  16 2.94  13 2.94  15 2.94
  11  0.444  0.111  0.315-  20 2.92  21 2.92  13 2.94   2 2.94  10 2.94  17 2.94   5 2.94   3 2.94
                            18 2.94  14 2.94  12 2.94  27 2.94
  12  0.778  0.111  0.315-  21 2.93  25 2.94  19 2.94  16 2.94  18 2.94   1 2.94  14 2.94  15 2.94
                             3 2.94   6 2.94  10 2.94  11 2.94
  13  0.111  0.444  0.315-  23 2.92  20 2.92   5 2.94  18 2.94  11 2.94   7 2.94   4 2.94  16 2.94
                            10 2.94  14 2.94  15 2.94  22 2.94
  14  0.444  0.444  0.315-  21 2.92  23 2.92  15 2.94   6 2.94  12 2.94   8 2.94  17 2.94   5 2.94
                            16 2.94  13 2.94  11 2.94  24 2.94
  15  0.778  0.444  0.315-  24 2.93  22 2.93  19 2.94  14 2.94   6 2.94  17 2.94  12 2.94   9 2.94
                             4 2.94  10 2.94  13 2.94  18 2.94
  16  0.111  0.778  0.315-  23 2.93  25 2.94  26 2.94  18 2.94  12 2.94   7 2.94   1 2.94   8 2.94
                            13 2.94  10 2.94  14 2.94  17 2.94
  17  0.444  0.778  0.315-  27 2.93  24 2.93  26 2.94   9 2.94  15 2.94   2 2.94  10 2.94  11 2.94
                             8 2.94  14 2.94  16 2.94  18 2.94
  18  0.778  0.778  0.315-  22 2.93  27 2.93  25 2.94  16 2.94   7 2.94  13 2.94  12 2.94   3 2.94
                            11 2.94   9 2.94  15 2.94  17 2.94
  19  0.889  0.222  0.413-  15 2.94  10 2.94  12 2.94  24 2.94  22 2.94  26 2.94  25 2.94  21 2.94
                            20 2.94  28 2.96  32 3.04  31 3.04
  20  0.223  0.223  0.413-  36 2.81  11 2.92  13 2.92  23 2.93  21 2.93  10 2.93  26 2.94  19 2.94
                            27 2.95  22 2.95  29 2.99  31 2.99
  21  0.555  0.223  0.413-  36 2.81  14 2.92  11 2.92  20 2.93  23 2.93  12 2.93  25 2.94  19 2.94
                            27 2.95  24 2.95  30 2.99  32 2.99
  22  0.887  0.556  0.413-  24 2.92  27 2.92  18 2.93  15 2.93  25 2.94  19 2.94  13 2.94  23 2.95
                            20 2.95  35 2.96  33 3.01  31 3.01
  23  0.223  0.555  0.413-  36 2.81  13 2.92  14 2.92  20 2.93  21 2.93  16 2.93  25 2.94  26 2.94
                            22 2.95  24 2.95  33 2.99  34 2.99
  24  0.556  0.556  0.413-  27 2.92  22 2.92  15 2.93  17 2.93  26 2.94  19 2.94  14 2.94  21 2.95
                            23 2.95  35 2.96  32 3.01  34 3.01
  25  0.889  0.889  0.413-  18 2.94  16 2.94  12 2.94  22 2.94  27 2.94  19 2.94  26 2.94  23 2.94
                            21 2.94  28 2.96  33 3.04  30 3.04
  26  0.222  0.889  0.413-  17 2.94  10 2.94  16 2.94  27 2.94  24 2.94  19 2.94  25 2.94  20 2.94
                            23 2.94  28 2.96  29 3.04  34 3.04
  27  0.556  0.887  0.413-  24 2.92  22 2.92  17 2.93  18 2.93  26 2.94  25 2.94  11 2.94  20 2.95
                            21 2.95  35 2.96  29 3.01  30 3.01
  28  0.000  0.000  0.513-  25 2.96  19 2.96  26 2.96  34 2.98  32 2.98  33 2.98  30 2.98  31 2.98
                            29 2.98
  29  0.334  0.008  0.515-  30 2.86  31 2.87  36 2.88  35 2.97  28 2.98  20 2.99  27 3.01  26 3.04
                            34 3.08
  30  0.658  0.008  0.515-  29 2.86  32 2.87  36 2.88  35 2.97  28 2.98  21 2.99  27 3.01  25 3.04
                            33 3.08
  31  0.008  0.334  0.515-  33 2.86  29 2.87  36 2.88  35 2.97  28 2.98  20 2.99  22 3.01  19 3.04
                            32 3.08
  32  0.658  0.334  0.515-  34 2.86  30 2.87  36 2.88  35 2.97  28 2.98  21 2.99  24 3.01  19 3.04
                            31 3.08
  33  0.008  0.658  0.515-  31 2.86  34 2.87  36 2.88  35 2.97  28 2.98  23 2.99  22 3.01  25 3.04
                            30 3.08
  34  0.334  0.658  0.515-  32 2.86  33 2.87  36 2.88  35 2.97  28 2.98  23 2.99  24 3.01  26 3.04
                            29 3.08
  35  0.667  0.667  0.513-  24 2.96  27 2.96  22 2.96  29 2.97  34 2.97  32 2.97  31 2.97  30 2.97
                            33 2.97
  36  0.333  0.333  0.505-  20 2.81  23 2.81  21 2.81  33 2.88  31 2.88  29 2.88  30 2.88  34 2.88
                            32 2.88
  37  0.329  0.333  0.672-  39 1.18  38 1.18
  38  0.195  0.333  0.669-  37 1.18
  39  0.462  0.333  0.674-  37 1.18

  LATTYP: Found a hexagonal cell.
 ALAT       =     8.8135128021
 C/A-ratio  =     2.7649717827

  Lattice vectors:

 A1 = (  -4.4067569092,  -7.6327256898,   0.0000000000)
 A2 = (   8.8135128021,   0.0000000000,   0.0000000000)
 A3 = (   0.0000000000,   0.0000000000,  24.3691142040)

Analysis of symmetry for initial positions (statically):
 Subroutine PRICEL returns:
 Original cell was already a primitive cell.

 Routine SETGRP: Setting up the symmetry group for a
 hexagonal supercell.

 Subroutine GETGRP returns: Found  1 space group operations
 (whereof  1 operations were pure point group operations)
 out of a pool of 24 trial point group operations.

The static configuration has the point symmetry C_1 .

Analysis of symmetry for dynamics (positions and initial velocities):
 Subroutine PRICEL returns:
 Original cell was already a primitive cell.

[...]

The dynamic configuration has the point symmetry C_1 .

Analysis of constrained symmetry for selective dynamics:
 Subroutine PRICEL returns:
[...]
     41      -5.0208      2.00000
     42      -5.0151      2.00000
     43      -4.8713      2.00000
     44      -4.8242      2.00000
     45      -4.7639      2.00000
     46      -4.7265      2.00000
     47      -4.7007      2.00000
     48      -4.6730      2.00000
     49      -4.6484      2.00000
     50      -4.6253      2.00000
     51      -4.5916      2.00000
     52      -4.5238      2.00000
     53      -4.5031      2.00000
     54      -4.4573      2.00000
     55      -4.4356      2.00000
     56      -4.4308      2.00000
     57      -4.4246      2.00000
     58      -4.4046      2.00000
     59      -4.3808      2.00000
     60      -4.3421      2.00000
[...]
    238       5.1578      0.00000
    239       5.2529      0.00000
    240       5.3277      0.00000
    241       5.5585      0.00000
    242       5.7749      0.00000
    243       5.8882      0.00000
    244       5.9384      0.00000
    245       6.0836      0.00000
    246       6.1579      0.00000
    247       6.2139      0.00000
    248       6.2519      0.00000
    249       6.4400      0.00000
    250       6.4710      0.00000
    251       6.6042      0.00000
    252       6.7168      0.00000

 soft charge-density along one line, spin component           1
         0         1         2         3         4         5         6         7         8         9
 total charge-density along one line

------------------------ aborting loop because EDIFF is reached ----------------------------------------

 total charge

# of ion       s       p       d       tot
    1        0.551   0.237   8.766   9.554
    2        0.541   0.241   8.765   9.548
    3        0.541   0.241   8.765   9.548
    4        0.541   0.241   8.765   9.548
    5        0.544   0.242   8.760   9.546
    6        0.541   0.241   8.765   9.548
    7        0.541   0.241   8.765   9.548
    8        0.541   0.241   8.765   9.548
    9        0.546   0.239   8.766   9.551
   10        0.523   0.308   8.769   9.600
   11        0.518   0.307   8.778   9.604
   12        0.523   0.308   8.769   9.600
   13        0.519   0.307   8.778   9.604
   14        0.519   0.307   8.778   9.604
   15        0.517   0.308   8.772   9.597
   16        0.523   0.308   8.769   9.600
   17        0.517   0.308   8.772   9.597
   18        0.517   0.308   8.772   9.597
   19        0.521   0.299   8.767   9.587
   20        0.571   0.339   8.727   9.636
   21        0.571   0.339   8.727   9.636
   22        0.511   0.305   8.775   9.591
   23        0.571   0.339   8.727   9.637
   24        0.511   0.305   8.775   9.591
   25        0.521   0.300   8.767   9.587
   26        0.521   0.300   8.767   9.588
   27        0.511   0.305   8.775   9.592
   28        0.540   0.233   8.752   9.526
   29        0.601   0.253   8.722   9.575
   30        0.601   0.253   8.722   9.575
   31        0.600   0.251   8.723   9.574
   32        0.600   0.252   8.722   9.574
   33        0.601   0.253   8.722   9.575
   34        0.601   0.253   8.721   9.575
   35        0.538   0.235   8.755   9.527
   36        0.559   0.473   1.749   2.781
   37        0.933   1.801   0.000   2.733
   38        1.608   3.526   0.000   5.133
   39        1.608   3.527   0.000   5.134
tot         23.759  19.074 308.236 351.069

  FORCE on cell =-STRESS in cart. coord.  units (eV):
  Direction    XX          YY          ZZ          XY          YZ          ZX
  Alpha Z   952.51977   952.51977   952.51977
  Ewald  140937.63986140156.13621************    -0.41433    -0.41544    50.67340
  Hartree149299.97947148937.51176************    -0.22232    -0.38411    25.32634
  E(xc)   -1816.39029 -1818.50621 -1825.20220    -0.00079    -0.00002     0.12407
  Local  ************************301168.19120     0.61109     0.79548   -71.74030
  n-local   -90.46309   -84.55559   -57.33518     0.00282     0.02148    -0.35167
  augment  2372.89120  2375.61193  2395.50151    -0.00074    -0.00320    -0.15735
  Kinetic  5649.95106  5715.22717  5776.93550     0.02756    -0.00880    -3.85248
  Fock        0.00000     0.00000     0.00000     0.00000     0.00000     0.00000
  Total     -23.18844   -23.18088     2.02271     0.00331     0.00539     0.02201
  in kB     -22.66281   -22.65542     1.97686     0.00323     0.00527     0.02151

 VOLUME and BASIS-vectors are now :
  energy-cutoff  :      500.00
  volume of cell :     1639.34
      direct lattice vectors                 reciprocal lattice vectors
     8.813512802  0.000000000  0.000000000     0.113462137 -0.065507406  0.000000000
     4.406756909  7.632725690  0.000000000     0.000000000  0.131014796  0.000000000
     0.000000000  0.000000000 24.369114204     0.000000000  0.000000000  0.041035550

  length of vectors
     8.813512802  8.813512802 24.369114204     0.131014796  0.131014796  0.041035550

 FORCES acting on ions
    electron-ion (+dipol)            ewald-force                    non-local-force                 convergence-correction
   0.498E-02 0.775E-02 0.263E+04   -.225E-02 -.129E-01 -.263E+04   0.129E-03 0.214E-02 -.458E+00   -.297E-02 0.196E-02 -.736E-01
   -.616E-01 -.414E+00 0.263E+04   0.286E-01 0.348E+00 -.263E+04   -.259E-02 0.564E-01 -.391E+00   0.343E-01 0.218E-03 -.518E-01
   0.562E-01 -.430E+00 0.263E+04   -.263E-01 0.352E+00 -.263E+04   0.265E-02 0.566E-01 -.389E+00   -.312E-01 0.128E-01 -.475E-01
   -.396E+00 0.165E+00 0.263E+04   0.326E+00 -.158E+00 -.263E+04   0.461E-01 -.315E-01 -.397E+00   0.164E-01 0.278E-01 -.493E-01
   -.202E-01 -.113E-01 0.263E+04   0.475E-02 -.224E-04 -.263E+04   -.322E-03 0.474E-03 -.367E-01   0.162E-01 0.108E-01 -.311E-01
   0.412E+00 0.163E+00 0.263E+04   -.331E+00 -.158E+00 -.263E+04   -.457E-01 -.320E-01 -.395E+00   -.280E-01 0.311E-01 -.415E-01
   -.358E+00 0.257E+00 0.263E+04   0.302E+00 -.190E+00 -.263E+04   0.528E-01 -.260E-01 -.393E+00   -.400E-02 -.348E-01 -.472E-01
   0.346E+00 0.269E+00 0.263E+04   -.300E+00 -.194E+00 -.263E+04   -.527E-01 -.256E-01 -.392E+00   0.135E-01 -.430E-01 -.437E-01
   0.151E-01 -.666E-02 0.263E+04   -.216E-02 0.130E-01 -.263E+04   0.652E-03 0.253E-03 -.283E+00   -.140E-01 -.659E-02 -.551E-02
   -.101E+01 -.496E+00 0.888E+03   0.112E+01 0.554E+00 -.888E+03   -.202E+00 -.112E+00 -.613E+00   0.630E-01 0.384E-01 -.180E+00
   -.433E-01 -.233E+01 0.885E+03   0.267E-01 0.230E+01 -.884E+03   -.519E-03 -.465E-01 -.210E+00   0.174E-01 0.183E-01 -.164E+00
   0.105E+01 -.532E+00 0.888E+03   -.115E+01 0.576E+00 -.887E+03   0.203E+00 -.112E+00 -.611E+00   -.769E-01 0.517E-01 -.174E+00
   -.212E+01 0.113E+01 0.885E+03   0.209E+01 -.113E+01 -.885E+03   -.419E-01 0.259E-01 -.218E+00   0.228E-01 0.607E-02 -.165E+00
   0.206E+01 0.115E+01 0.885E+03   -.206E+01 -.114E+01 -.884E+03   0.420E-01 0.258E-01 -.217E+00   0.599E-02 0.872E-03 -.159E+00
   0.508E-01 0.245E+01 0.891E+03   -.322E-01 -.257E+01 -.891E+03   0.573E-03 0.140E-01 -.505E+00   -.192E-01 0.666E-01 -.192E+00
   -.933E-02 0.118E+01 0.888E+03   0.630E-02 -.128E+01 -.887E+03   -.285E-03 0.228E+00 -.610E+00   0.337E-02 -.915E-01 -.176E+00
   0.218E+01 -.125E+01 0.891E+03   -.228E+01 0.133E+01 -.890E+03   0.135E-01 -.907E-02 -.503E+00   0.504E-01 -.502E-01 -.194E+00
   -.217E+01 -.130E+01 0.891E+03   0.227E+01 0.136E+01 -.890E+03   -.132E-01 -.987E-02 -.502E+00   -.529E-01 -.315E-01 -.194E+00
   0.251E+00 -.568E+01 -.856E+03   -.229E+00 0.573E+01 0.855E+03   0.174E-02 -.669E-01 0.552E+00   -.251E-01 0.236E-01 -.157E-02
   -.275E+02 -.153E+02 -.882E+03   0.283E+02 0.158E+02 0.883E+03   -.999E+00 -.566E+00 -.101E+01   0.121E+00 0.725E-01 0.451E-01
   0.272E+02 -.154E+02 -.883E+03   -.281E+02 0.159E+02 0.884E+03   0.996E+00 -.566E+00 -.102E+01   -.902E-01 0.829E-01 0.401E-01
   -.197E+02 0.107E+02 -.852E+03   0.194E+02 -.105E+02 0.852E+03   0.244E+00 -.147E+00 0.613E+00   0.326E-01 -.293E-01 -.550E-01
   -.216E+00 0.309E+02 -.883E+03   0.193E+00 -.319E+02 0.884E+03   -.607E-04 0.114E+01 -.103E+01   0.238E-01 -.122E+00 0.394E-01
   0.199E+02 0.109E+02 -.853E+03   -.196E+02 -.107E+02 0.852E+03   -.244E+00 -.145E+00 0.607E+00   -.606E-01 -.394E-01 -.543E-01
   0.528E+01 0.315E+01 -.857E+03   -.534E+01 -.319E+01 0.856E+03   0.603E-01 0.371E-01 0.528E+00   -.165E-01 -.633E-02 -.216E-02
   -.523E+01 0.341E+01 -.857E+03   0.530E+01 -.342E+01 0.856E+03   -.599E-01 0.376E-01 0.529E+00   0.813E-02 -.299E-01 -.396E-03
   -.356E-01 -.227E+02 -.853E+03   0.420E-01 0.223E+02 0.853E+03   -.309E-03 0.278E+00 0.598E+00   -.621E-02 0.433E-01 -.543E-01
   0.688E+00 0.376E+01 -.248E+04   -.681E+00 -.376E+01 0.248E+04   -.294E-03 -.246E-02 0.385E+00   -.657E-02 -.141E-03 0.108E+00
   -.133E+02 -.235E+02 -.248E+04   0.146E+02 0.254E+02 0.248E+04   -.132E+01 -.200E+01 -.643E+00   0.531E-01 0.714E-01 0.827E-01
   0.125E+02 -.252E+02 -.248E+04   -.138E+02 0.272E+02 0.248E+04   0.132E+01 -.200E+01 -.649E+00   -.370E-01 0.822E-01 0.790E-01
   -.282E+02 0.388E+01 -.247E+04   0.305E+02 -.376E+01 0.247E+04   -.238E+01 -.144E+00 -.531E+00   0.900E-01 0.137E-01 0.857E-01
   0.305E+02 0.387E+01 -.247E+04   -.328E+02 -.376E+01 0.248E+04   0.238E+01 -.144E+00 -.556E+00   -.848E-01 0.189E-01 0.737E-01
   -.200E+02 0.196E+02 -.248E+04   0.211E+02 -.216E+02 0.248E+04   -.107E+01 0.215E+01 -.647E+00   0.432E-01 -.753E-01 0.784E-01
   0.192E+02 0.213E+02 -.248E+04   -.203E+02 -.234E+02 0.248E+04   0.107E+01 0.215E+01 -.652E+00   -.189E-01 -.821E-01 0.712E-01
   0.714E+00 -.379E+01 -.248E+04   -.693E+00 0.380E+01 0.248E+04   -.617E-03 0.334E-02 0.594E+00   -.207E-01 -.150E-01 0.122E+00
   -.701E+00 0.504E-02 -.856E+03   0.702E+00 -.298E-02 0.853E+03   -.674E-02 0.317E-02 0.281E+01   0.242E-02 0.457E-03 0.784E-02
   0.388E+00 0.549E-01 -.791E+03   -.423E+00 -.547E-01 0.792E+03   0.368E-01 0.259E-02 -.213E+00   0.101E-02 -.121E-02 0.149E-02
   0.257E+03 -.662E-01 -.119E+04   -.321E+03 0.108E+00 0.118E+04   0.638E+02 -.385E-01 0.423E+01   0.266E-02 -.448E-02 0.655E-03
   -.259E+03 0.145E+00 -.118E+04   0.323E+03 -.163E+00 0.119E+04   -.639E+02 0.208E-01 -.337E+01   -.465E-02 -.138E-02 -.378E-03
   0.921E-01 -.119E-01 0.726E+01   0.000E+00 0.138E-12 0.659E-11   -.119E+00 0.451E-02 -.600E+01   0.214E-01 0.113E-01 -.132E+01

 POSITION                                       TOTAL-FORCE (eV/Angst)
      0.00000      0.00000      5.28038         0.000034     -0.001165     -0.135443
      2.93784      0.00000      5.28038        -0.001091     -0.008909     -0.057980
      5.87568      0.00000      5.28038         0.001512     -0.008761     -0.057986
      1.46892      2.54424      5.28038        -0.007447      0.003509     -0.057986
      4.40676      2.54424      5.28038         0.000601     -0.000150     -0.032686
      7.34459      2.54424      5.28038         0.007502      0.003661     -0.058148
      2.93784      5.08848      5.28038        -0.006724      0.005783     -0.057956
      5.87568      5.08848      5.28038         0.007237      0.005463     -0.057969
      8.81351      5.08848      5.28038        -0.000236     -0.000136     -0.075579
      1.46892      0.84808      7.67911        -0.027591     -0.016572      0.010031
      4.40676      0.84808      7.67911         0.000497     -0.062031     -0.045679
      7.34459      0.84808      7.67911         0.027637     -0.016404      0.009738
      2.93784      3.39232      7.67911        -0.054083      0.030597     -0.045807
      5.87568      3.39232      7.67911         0.054979      0.030567     -0.045981
      8.81351      3.39232      7.67911         0.000151     -0.039580      0.083151
      4.40676      5.93656      7.67911         0.000204      0.032555      0.010429
      7.34459      5.93656      7.67911        -0.034322      0.020049      0.081895
     10.28243      5.93656      7.67911         0.034561      0.020057      0.081909
      8.81351      1.69636     10.07469        -0.000781      0.010432      0.037263
      2.94338      1.69936     10.06127        -0.022166     -0.014475      0.006025
      5.87013      1.69936     10.06127         0.022514     -0.014049      0.006408
     10.27220      4.24631     10.06987        -0.002251      0.002580      0.024394
      4.40676      4.23400     10.06127         0.000675      0.025379      0.002464
      7.35483      4.24631     10.06987         0.002192      0.002527      0.023842
     11.75117      6.78454     10.07469        -0.011095     -0.006296      0.037392
      5.87585      6.78454     10.07469         0.010802     -0.007034      0.037501
      8.81351      6.77283     10.06987         0.000068     -0.005626      0.019901
      0.00000      0.00000     12.49672         0.000426      0.000822     -0.019655
      2.97727      0.06002     12.55884        -0.006173      0.012454      0.052572
      5.83624      0.06002     12.55884         0.006670      0.014280      0.055339
      1.54061      2.54838     12.55884        -0.000650     -0.013873      0.040534
      7.27290      2.54838     12.55884        -0.002748     -0.014354      0.046491
      2.97010      5.02433     12.55884         0.019284      0.002114      0.053747
      5.84341      5.02433     12.55884        -0.019102      0.000595      0.056173
      8.81351      5.08848     12.50791         0.000259     -0.001215      0.069389
      4.40676      2.54424     12.31155        -0.003188      0.005592     -0.089983
      4.36667      2.54449     16.37518         0.002915      0.001511     -0.000880
      3.19202      2.54514     16.29294        -0.000583     -0.001136     -0.003517
      5.54198      2.54410     16.43430        -0.000486      0.001239     -0.003352
    total drift:                               -0.005629      0.003850     -0.063472

  FREE ENERGIE OF THE ION-ELECTRON SYSTEM (eV)
  free  energy   TOTEN  =      -140.80602956 eV

  energy  without entropy=     -140.80602956  energy(sigma->0) =     -140.80602956

 stress matrix after NEB project (eV)
    -23.18844      0.00330      0.02201
      0.00331    -23.18088      0.00539
      0.02201      0.00539      2.02271
  FORCES: max atom, RMS     0.003741    0.000994
  FORCE total and by dimension    0.006210    0.003517
  Stress total and by dimension   32.850414   23.188443
|           W    W    AA    RRRRR   N    N  II  N    N   GGGG   !!!           |
|           W    W   A  A   R    R  NN   N  II  NN   N  G    G  !!!           |
|           W    W  A    A  R    R  N N  N  II  N N  N  G       !!!           |
|           W WW W  AAAAAA  RRRRR   N  N N  II  N  N N  G  GGG   !            |
|           WW  WW  A    A  R   R   N   NN  II  N   NN  G    G                |
|           W    W  A    A  R    R  N    N  II  N    N   GGGG   !!!           |
|     Tetrahedron method does not include variations of the Fermi             |
|     occupations, so forces and stress will be inaccurate. We suggest        |
|     using a different smearing scheme ISMEAR = 1 or 2 for metals in         |
|     relaxations.                                                            |

 total charge

# of ion       s       p       d       tot
    1        0.551   0.237   8.766   9.554
    2        0.541   0.241   8.765   9.548
    3        0.541   0.241   8.765   9.548
    4        0.541   0.241   8.765   9.548
    5        0.544   0.242   8.760   9.546
    6        0.541   0.241   8.765   9.548
    7        0.541   0.241   8.765   9.548
    8        0.541   0.241   8.765   9.548
    9        0.546   0.239   8.766   9.551
   10        0.523   0.308   8.769   9.600
   11        0.518   0.307   8.778   9.604
   12        0.523   0.308   8.769   9.600
   13        0.519   0.307   8.778   9.604
   14        0.519   0.307   8.778   9.604
   15        0.517   0.308   8.772   9.597
   16        0.523   0.308   8.769   9.600
   17        0.517   0.308   8.772   9.597
   18        0.517   0.308   8.772   9.597
   19        0.521   0.299   8.767   9.587
   20        0.571   0.339   8.727   9.636
   21        0.571   0.339   8.727   9.636
   22        0.511   0.305   8.775   9.591
   23        0.571   0.339   8.727   9.637
   24        0.511   0.305   8.775   9.591
   25        0.521   0.300   8.767   9.587
   26        0.521   0.300   8.767   9.588
   27        0.511   0.305   8.775   9.592
   28        0.540   0.233   8.752   9.526
   29        0.601   0.253   8.722   9.575
   30        0.601   0.253   8.722   9.575
   31        0.600   0.251   8.723   9.574
   32        0.600   0.252   8.722   9.574
   33        0.601   0.253   8.722   9.575
   34        0.601   0.253   8.721   9.575
   35        0.538   0.235   8.755   9.527
   36        0.559   0.473   1.749   2.781
   37        0.933   1.801   0.000   2.733
   38        1.608   3.526   0.000   5.133
   39        1.608   3.527   0.000   5.134
tot         23.759  19.074 308.236 351.069

 BZINTS: Fermi energy:    0.424822;  405.000000 electrons
         Band energy:-0.148124E+04;  BLOECHL correction:   -0.031137