 vasp.6.2.0 18Jan21 (build Jun 12 2021 23:27:24) complex

 executed on             LinuxIFC date 2022.05.27  06:04:26

 INCAR:
   ISMEAR = -5
   SIGMA = 0.1
   ISPIN = 1
   EDIFF = 1.d-5
   EDIFFG = -0.01
   NSW = 0
   NELM = 150
   ENCUT = 500
   ISIF = 2
   IBRION = 2
   LREAL = Auto
   ALGO = Fast
   ICHARG = 11
   LORBIT = 10
   LCHARG = .F.
   LWAVE = .F.

 POTCAR:    PAW_PBE Cu 22Jun2005
 POTCAR:    PAW_PBE Ni 02Aug2007
 POTCAR:    PAW_PBE C 08Apr2002
 POTCAR:    PAW_PBE O 08Apr2002
|           W    W    AA    RRRRR   N    N  II  N    N   GGGG   !!!           |
|           W    W   A  A   R    R  NN   N  II  NN   N  G    G  !!!           |
|           W    W  A    A  R    R  N N  N  II  N N  N  G       !!!           |
|           W WW W  AAAAAA  RRRRR   N  N N  II  N  N N  G  GGG   !            |
|           WW  WW  A    A  R   R   N   NN  II  N   NN  G    G                |
|           W    W  A    A  R    R  N    N  II  N    N   GGGG   !!!           |
|     For optimal performance we recommend to set                             |
|       NCORE = 2 up to number-of-cores-per-socket                            |
|     This setting can greatly improve the performance of VASP for DFT.       |
|     The default, NCORE=1 might be grossly inefficient on modern             |
|     multi-core architectures or massively parallel machines. Do your        |
|     Unfortunately you need to use the default for GW and RPA                |
|     calculations (for HF NCORE is supported but not extensively tested      |
|     yet).                                                                   |

 POTCAR:    PAW_PBE Cu 22Jun2005
   VRHFIN =Cu: d10 p1

   TITEL  = PAW_PBE Cu 22Jun2005
   POMASS =   63.546; ZVAL   =   11.000    mass and valenz
   ENMAX  =  295.446; ENMIN  =  221.585 eV

 POTCAR:    PAW_PBE Ni 02Aug2007
   VRHFIN =Ni:

   TITEL  = PAW_PBE Ni 02Aug2007
   POMASS =   58.690; ZVAL   =   10.000    mass and valenz
   ENMAX  =  269.532; ENMIN  =  202.149 eV

 POTCAR:    PAW_PBE C 08Apr2002
   VRHFIN =C: s2p2

   TITEL  = PAW_PBE C 08Apr2002
   POMASS =   12.011; ZVAL   =    4.000    mass and valenz
   ENMAX  =  400.000; ENMIN  =  300.000 eV

 POTCAR:    PAW_PBE O 08Apr2002
   VRHFIN =O: s2p4

   TITEL  = PAW_PBE O 08Apr2002
   POMASS =   16.000; ZVAL   =    6.000    mass and valenz
   ENMAX  =  400.000; ENMIN  =  300.000 eV

 Optimization of the real space projectors (new method)

 maximal supplied QI-value         = 16.25
 optimisation between [QCUT,QGAM] = [ 11.38, 22.75] = [ 36.24,144.96] Ry
 Optimized for a Real-space Cutoff    1.52 Angstroem

   l    n(q)    QCUT    max X(q) W(low)/X(q) W(high)/X(q)  e(spline)
   2      9    11.376     4.610    0.21E-03    0.10E-03    0.26E-06
   2      9    11.376     8.522    0.33E-03    0.16E-03    0.37E-06
   0     10    11.376    51.609    0.62E-04    0.20E-04    0.13E-06
   0     10    11.376    27.747    0.54E-04    0.20E-04    0.13E-06
   1     10    11.376    20.408    0.13E-04    0.99E-04    0.19E-06
   1     10    11.376    13.425    0.12E-04    0.87E-04    0.17E-06
 Optimization of the real space projectors (new method)

[...]

   l    n(q)    QCUT    max X(q) W(low)/X(q) W(high)/X(q)  e(spline)
   0      7    11.310   115.676    0.43E-03    0.13E-02    0.19E-06
   0      7    11.310    87.132    0.43E-03    0.13E-02    0.18E-06
   1      6    11.310     4.429    0.42E-03    0.74E-03    0.11E-06
   1      6    11.310     2.733    0.34E-03    0.55E-03    0.92E-07
 Optimization of the real space projectors (new method)

 maximal supplied QI-value         = 24.76
 optimisation between [QCUT,QGAM] = [ 11.39, 22.77] = [ 36.31,145.25] Ry
 Optimized for a Real-space Cutoff    1.00 Angstroem

   l    n(q)    QCUT    max X(q) W(low)/X(q) W(high)/X(q)  e(spline)
   0      7    11.387    20.381    0.39E-03    0.13E-02    0.15E-06
   0      7    11.387    15.268    0.42E-03    0.14E-02    0.17E-06
   1      6    11.387     5.964    0.41E-03    0.11E-02    0.17E-06
   1      6    11.387     5.382    0.39E-03    0.87E-03    0.15E-06
  PAW_PBE Cu 22Jun2005                  :
  PAW_PBE Ni 02Aug2007                  :
  PAW_PBE C 08Apr2002                   :
  PAW_PBE O 08Apr2002                   :

 POSCAR: Cu-Ni-CO
  positions in direct lattice
  velocities in cartesian coordinates
 exchange correlation table for  LEXCH =        8
   RHO(1)=    0.500       N(1)  =     2000
   RHO(2)=  100.500       N(2)  =     4000

 VTST: version 3.2, (02/03/18)

 CHAIN: initializing optimizer

 OPT: Using VASP Conjugate-Gradient optimizer
 CHAIN: Read ICHAIN            0

 POSCAR: Cu-Ni-CO
  positions in direct lattice
  velocities in cartesian coordinates

 ion  position               nearest neighbor table
   1  0.000  0.000  0.252-   7 2.57   3 2.57   4 2.57   2 2.57   6 2.57   8 2.57  12 2.57  10 2.57
                            16 2.57
   2  0.333  0.000  0.252-   8 2.57   9 2.57   5 2.57   1 2.57   3 2.57  11 2.57   4 2.57  10 2.57
                            17 2.57
   3  0.667  0.000  0.252-   1 2.57   7 2.57   6 2.57   9 2.57   2 2.57  12 2.57   5 2.57  18 2.57
                            11 2.57
   4  0.000  0.333  0.252-   5 2.57   6 2.57   1 2.57   7 2.57   2 2.57  13 2.57   9 2.57  10 2.57
                            15 2.57
   5  0.333  0.333  0.252-   4 2.57   2 2.57   7 2.57  13 2.57   8 2.57   6 2.57   3 2.57  11 2.57
                            14 2.57
   6  0.667  0.333  0.252-   4 2.57   9 2.57  15 2.57   3 2.57   1 2.57   8 2.57  14 2.57   5 2.57
                            12 2.57
   7  0.000  0.667  0.252-   1 2.57   3 2.57  16 2.57  18 2.57   4 2.57   5 2.57   8 2.57   9 2.57
                            13 2.57
   8  0.333  0.667  0.252-   9 2.57   2 2.57  17 2.57   6 2.57   1 2.57   7 2.57   5 2.57  14 2.57
                            16 2.57
   9  0.667  0.667  0.252-   8 2.57   6 2.57   2 2.57  17 2.57   3 2.57   7 2.57   4 2.57  15 2.57
                            18 2.57
  10  0.111  0.111  0.351-  20 2.55  26 2.56  19 2.56  11 2.57  12 2.57  13 2.57   1 2.57   2 2.57
                             4 2.57  15 2.57  16 2.57  17 2.57
  11  0.444  0.111  0.351-  20 2.55  21 2.55  27 2.56  10 2.57  13 2.57   2 2.57  17 2.57  14 2.57
                            12 2.57   5 2.57   3 2.57  18 2.57
  12  0.778  0.111  0.351-  21 2.55  19 2.56  25 2.56  15 2.57  10 2.57  14 2.57  18 2.57   3 2.57
                             1 2.57  16 2.57  11 2.57   6 2.57
  13  0.111  0.444  0.351-  23 2.55  20 2.55  22 2.56  16 2.57  18 2.57  10 2.57  11 2.57  14 2.57
                             5 2.57   4 2.57   7 2.57  15 2.57
  14  0.444  0.444  0.351-  21 2.55  23 2.55  24 2.56  15 2.57  17 2.57  12 2.57  16 2.57  13 2.57
                            11 2.57   6 2.57   8 2.57   5 2.57
  15  0.778  0.444  0.351-  24 2.55  22 2.55  19 2.56  14 2.57  17 2.57  12 2.57   6 2.57  18 2.57
                            10 2.57   9 2.57  13 2.57   4 2.57
  16  0.111  0.778  0.351-  23 2.55  25 2.56  26 2.56  18 2.57  13 2.57   7 2.57  14 2.57  17 2.57
                            12 2.57  10 2.57   8 2.57   1 2.57
  17  0.444  0.778  0.351-  27 2.55  24 2.55  26 2.56  14 2.57  15 2.57   8 2.57   9 2.57  11 2.57
                            16 2.57  18 2.57  10 2.57   2 2.57
  18  0.778  0.778  0.351-  22 2.55  27 2.55  25 2.56  16 2.57  13 2.57   7 2.57  15 2.57  12 2.57
                            17 2.57   9 2.57   3 2.57  11 2.57
  19  0.889  0.223  0.449-  28 2.54  32 2.55  31 2.55  15 2.56  12 2.56  10 2.56  22 2.56  24 2.56
                            21 2.57  20 2.57  25 2.57  26 2.57
  20  0.222  0.222  0.448-  36 2.48  29 2.54  31 2.54  10 2.55  11 2.55  13 2.55  26 2.57  19 2.57
                            27 2.57  22 2.57  23 2.57  21 2.57
  21  0.556  0.222  0.448-  36 2.48  32 2.54  30 2.54  12 2.55  14 2.55  11 2.55  19 2.57  25 2.57
                            24 2.57  27 2.57  20 2.57  23 2.57
  22  0.889  0.556  0.449-  35 2.54  31 2.55  33 2.55  18 2.55  15 2.55  13 2.56  19 2.56  25 2.56
                            24 2.57  27 2.57  23 2.57  20 2.57
  23  0.222  0.556  0.448-  36 2.48  33 2.54  34 2.54  16 2.55  13 2.55  14 2.55  25 2.57  26 2.57
                            22 2.57  24 2.57  20 2.57  21 2.57
  24  0.556  0.556  0.449-  35 2.54  32 2.55  34 2.55  15 2.55  17 2.55  14 2.56  19 2.56  26 2.56
                            22 2.57  27 2.57  21 2.57  23 2.57
  25  0.889  0.889  0.449-  28 2.54  33 2.55  30 2.55  18 2.56  16 2.56  12 2.56  22 2.56  27 2.56
                            21 2.57  23 2.57  19 2.57  26 2.57
  26  0.223  0.889  0.449-  28 2.54  29 2.55  34 2.55  17 2.56  10 2.56  16 2.56  27 2.56  24 2.56
                            20 2.57  23 2.57  25 2.57  19 2.57
  27  0.556  0.889  0.449-  35 2.54  29 2.55  30 2.55  17 2.55  18 2.55  11 2.56  26 2.56  25 2.56
                            24 2.57  22 2.57  20 2.57  21 2.57
  28  0.000  0.000  0.546-  25 2.54  19 2.54  26 2.54  33 2.57  30 2.57  31 2.57  29 2.57  32 2.57
                            34 2.57
  29  0.333  0.002  0.546-  20 2.54  27 2.55  31 2.55  36 2.55  30 2.55  26 2.55  28 2.57  35 2.57
                            34 2.60
  30  0.665  0.002  0.546-  21 2.54  27 2.55  32 2.55  36 2.55  29 2.55  25 2.55  28 2.57  35 2.57
                            33 2.60
  31  0.002  0.333  0.546-  20 2.54  22 2.55  29 2.55  36 2.55  33 2.55  19 2.55  28 2.57  35 2.57
                            32 2.60
  32  0.665  0.333  0.546-  21 2.54  24 2.55  30 2.55  36 2.55  34 2.55  19 2.55  28 2.57  35 2.57
                            31 2.60
  33  0.002  0.665  0.546-  23 2.54  22 2.55  34 2.55  36 2.55  31 2.55  25 2.55  28 2.57  35 2.57
                            30 2.60
  34  0.333  0.665  0.546-  23 2.54  24 2.55  33 2.55  36 2.55  32 2.55  26 2.55  28 2.57  35 2.57
                            29 2.60
  35  0.667  0.667  0.546-  24 2.54  27 2.54  22 2.54  34 2.57  32 2.57  29 2.57  30 2.57  33 2.57
                            31 2.57
  36  0.333  0.333  0.542-  37 1.75  23 2.48  20 2.48  21 2.48  31 2.55  29 2.55  33 2.55  34 2.55
                            32 2.55  30 2.55
  37  0.333  0.333  0.624-  38 1.17  36 1.75
  38  0.333  0.333  0.679-  37 1.17

  LATTYP: Found a hexagonal cell.
 ALAT       =     7.6967864036
 C/A-ratio  =     2.7653617908

  Lattice vectors:

 A1 = (  -3.8483927580,  -6.6656128093,   0.0000000000)
 A2 = (   7.6967864037,   0.0000000000,   0.0000000000)
 A3 = (   0.0000000000,   0.0000000000,  21.2843990326)

Analysis of symmetry for initial positions (statically):
 Subroutine PRICEL returns:
 Original cell was already a primitive cell.

 Routine SETGRP: Setting up the symmetry group for a
 hexagonal supercell.

 Subroutine GETGRP returns: Found  6 space group operations
 (whereof  6 operations were pure point group operations)
 out of a pool of 24 trial point group operations.

The static configuration has the point symmetry C_3v.

Analysis of symmetry for dynamics (positions and initial velocities):
 Subroutine PRICEL returns:
 Original cell was already a primitive cell.

[...]

The dynamic configuration has the point symmetry C_3v.

Analysis of constrained symmetry for selective dynamics:
 Subroutine PRICEL returns:
[...]
     33      -3.9144      2.00000
     34      -3.9065      2.00000
     35      -3.8921      2.00000
     36      -3.8768      2.00000
     37      -3.8200      2.00000
     38      -3.8128      2.00000
     39      -3.7963      2.00000
     40      -3.6966      2.00000
     41      -3.6945      2.00000
     42      -3.5955      2.00000
     43      -3.5894      2.00000
     44      -3.5087      2.00000
     45      -3.5073      2.00000
     46      -3.4998      2.00000
     47      -3.4687      2.00000
     48      -3.4623      2.00000
     49      -3.4502      2.00000
     50      -3.4405      2.00000
     51      -3.2609      2.00000
     52      -3.2442      2.00000
     53      -3.2392      2.00000
     54      -3.2329      2.00000
     55      -3.1778      2.00000
     56      -3.1744      2.00000
     57      -3.1657      2.00000
     58      -3.1362      2.00000
     59      -3.1317      2.00000
     60      -3.1077      2.00000
[...]
    238       5.9166      0.00000
    239       6.0883      0.00000
    240       6.2107      0.00000
    241       6.3062      0.00000
    242       6.4166      0.00000
    243       6.5357      0.00000
    244       6.9420      0.00000
    245       6.9983      0.00000
    246       7.0709      0.00000
    247       7.1672      0.00000
    248       7.3041      0.00000
    249       7.3956      0.00000
    250       7.4187      0.00000
    251       7.5030      0.00000
    252       7.6349      0.00000

 soft charge-density along one line, spin component           1
         0         1         2         3         4         5         6         7         8         9
 total charge-density along one line

------------------------ aborting loop because EDIFF is reached ----------------------------------------

 total charge

# of ion       s       p       d       tot
    1        0.446   0.284   9.188   9.918
    2        0.449   0.284   9.188   9.921
    3        0.449   0.284   9.188   9.921
    4        0.449   0.284   9.188   9.921
    5        0.448   0.287   9.185   9.920
    6        0.449   0.284   9.188   9.921
    7        0.449   0.284   9.188   9.921
    8        0.449   0.284   9.188   9.921
    9        0.446   0.285   9.188   9.919
   10        0.441   0.372   9.179   9.991
   11        0.444   0.369   9.181   9.994
   12        0.441   0.372   9.179   9.991
   13        0.444   0.369   9.181   9.994
   14        0.444   0.369   9.181   9.994
   15        0.438   0.373   9.180   9.990
   16        0.441   0.372   9.179   9.991
   17        0.438   0.373   9.180   9.990
   18        0.438   0.373   9.180   9.990
   19        0.442   0.372   9.182   9.996
   20        0.449   0.388   9.172  10.010
   21        0.449   0.388   9.172  10.010
   22        0.438   0.377   9.179   9.995
   23        0.449   0.388   9.172  10.010
   24        0.438   0.377   9.179   9.995
   25        0.442   0.372   9.182   9.996
   26        0.442   0.372   9.182   9.996
   27        0.438   0.377   9.179   9.995
   28        0.450   0.285   9.192   9.927
   29        0.444   0.289   9.194   9.927
   30        0.444   0.289   9.194   9.927
   31        0.444   0.289   9.194   9.927
   32        0.444   0.289   9.194   9.927
   33        0.444   0.289   9.194   9.927
   34        0.444   0.289   9.194   9.927
   35        0.449   0.285   9.192   9.926
   36        0.502   0.612   8.400   9.515
   37        0.964   1.543   0.000   2.506
   38        1.615   3.526   0.000   5.141
tot         18.632  17.304 329.855 365.791

  FORCE on cell =-STRESS in cart. coord.  units (eV):
  Direction    XX          YY          ZZ          XY          YZ          ZX
  Alpha Z   898.16294   898.16294   898.16294
  Ewald  173534.85364173534.85316************     0.00043     0.00011     0.00020
  Hartree187000.89817187000.89811************     0.00006     0.00005     0.00009
  E(xc)   -2346.83265 -2346.83224 -2349.84196    -0.00036    -0.00003    -0.00006
  Local  ************************373372.20425     0.01901    -0.00059    -0.00104
  n-local  -791.06756  -778.85345  -806.21347     6.90258    -0.05439     0.12623
  augment  3494.14837  3494.16885  3497.18931    -0.01774     0.00026     0.00049
  Kinetic  3408.39275  3408.74461  3396.07898     2.28386     2.10964    -1.49117
  Fock        0.00000     0.00000     0.00000     0.00000     0.00000     0.00000
  Total      -3.08930    -3.08930     3.19904     0.00000    -0.00000    -0.00000
  in kB      -4.53272    -4.53272     4.69374     0.00000    -0.00000    -0.00000

 VOLUME and BASIS-vectors are now :
  energy-cutoff  :      500.00
  volume of cell :     1091.97
      direct lattice vectors                 reciprocal lattice vectors
     7.696786404  0.000000000  0.000000000     0.129924354 -0.075011849  0.000000000
     3.848392758  6.665612809  0.000000000     0.000000000  0.150023716  0.000000000
     0.000000000  0.000000000 21.284399033     0.000000000  0.000000000  0.046982769

  length of vectors
     7.696786404  7.696786404 21.284399033     0.150023716  0.150023716  0.046982769

 FORCES acting on ions
    electron-ion (+dipol)            ewald-force                    non-local-force                 convergence-correction
   -.416E-04 0.140E-06 0.352E+04   0.578E-04 -.445E-05 -.352E+04   -.543E-17 -.506E-17 -.302E+01   -.307E-03 -.144E-03 -.863E+00
   0.329E+00 0.359E+00 0.352E+04   -.251E+00 -.310E+00 -.352E+04   -.452E-03 0.143E-01 -.206E+01   -.671E-01 -.462E-01 -.702E+00
   -.329E+00 0.359E+00 0.352E+04   0.251E+00 -.310E+00 -.352E+04   0.452E-03 0.143E-01 -.206E+01   0.679E-01 -.437E-01 -.701E+00
   0.476E+00 0.106E+00 0.352E+04   -.394E+00 -.625E-01 -.352E+04   0.122E-01 -.756E-02 -.206E+01   -.735E-01 -.350E-01 -.702E+00
   -.659E-04 -.584E-05 0.352E+04   0.116E-03 -.101E-04 -.352E+04   -.119E-16 -.379E-17 -.189E+01   0.122E-01 0.744E-02 -.551E+00
   -.476E+00 0.106E+00 0.352E+04   0.394E+00 -.627E-01 -.352E+04   -.122E-01 -.756E-02 -.206E+01   0.719E-01 -.338E-01 -.701E+00
   0.146E+00 -.465E+00 0.352E+04   -.143E+00 0.372E+00 -.352E+04   0.126E-01 -.677E-02 -.206E+01   -.385E-02 0.806E-01 -.701E+00
   -.146E+00 -.465E+00 0.352E+04   0.143E+00 0.372E+00 -.352E+04   -.126E-01 -.677E-02 -.206E+01   0.734E-02 0.791E-01 -.701E+00
   -.144E-03 -.329E-04 0.352E+04   0.264E-03 0.206E-04 -.352E+04   0.216E-17 -.623E-18 -.254E+01   -.132E-01 -.683E-02 -.749E+00
   0.316E+01 0.183E+01 0.124E+04   -.276E+01 -.159E+01 -.124E+04   -.386E+00 -.223E+00 -.962E+00   -.139E-02 -.817E-03 -.300E+00
   -.901E-04 0.285E+01 0.124E+04   0.190E-03 -.292E+01 -.124E+04   -.182E-08 0.273E-01 -.712E+00   0.117E-01 0.229E-01 -.179E+00
   -.316E+01 0.183E+01 0.124E+04   0.276E+01 -.159E+01 -.124E+04   0.386E+00 -.223E+00 -.962E+00   -.968E-04 0.722E-03 -.300E+00
   0.247E+01 -.143E+01 0.124E+04   -.253E+01 0.146E+01 -.124E+04   0.237E-01 -.137E-01 -.712E+00   0.261E-01 -.450E-03 -.179E+00
   -.247E+01 -.143E+01 0.124E+04   0.253E+01 0.146E+01 -.124E+04   -.237E-01 -.137E-01 -.712E+00   -.201E-02 -.153E-02 -.180E+00
   -.144E-03 0.126E-01 0.124E+04   0.300E-03 -.947E-01 -.124E+04   -.224E-08 0.337E-01 -.786E+00   -.353E-02 0.334E-01 -.294E+00
   -.910E-04 -.365E+01 0.124E+04   0.185E-03 0.318E+01 -.124E+04   -.297E-07 0.445E+00 -.962E+00   -.354E-03 -.166E-02 -.301E+00
   0.108E-01 -.641E-02 0.124E+04   -.820E-01 0.476E-01 -.124E+04   0.292E-01 -.168E-01 -.786E+00   0.278E-01 -.197E-01 -.294E+00
   -.108E-01 -.637E-02 0.124E+04   0.817E-01 0.475E-01 -.124E+04   -.292E-01 -.168E-01 -.786E+00   -.267E-01 -.171E-01 -.293E+00
   -.544E-04 0.232E+01 -.108E+04   0.653E-04 -.239E+01 0.108E+04   -.381E-08 0.572E-01 0.932E+00   -.108E-01 0.464E-02 0.299E+00
   0.137E+02 0.793E+01 -.105E+04   -.130E+02 -.749E+01 0.105E+04   -.827E+00 -.477E+00 -.888E+00   0.628E-01 0.361E-01 0.275E+00
   -.137E+02 0.793E+01 -.105E+04   0.130E+02 -.749E+01 0.105E+04   0.827E+00 -.477E+00 -.888E+00   -.814E-01 0.367E-01 0.275E+00
   0.740E+01 -.427E+01 -.107E+04   -.764E+01 0.441E+01 0.107E+04   0.253E+00 -.146E+00 0.871E+00   0.245E-01 -.267E-01 0.291E+00
   -.718E-04 -.159E+02 -.105E+04   0.141E-03 0.150E+02 0.105E+04   -.636E-07 0.955E+00 -.888E+00   -.101E-01 -.900E-01 0.275E+00
   -.740E+01 -.427E+01 -.107E+04   0.764E+01 0.441E+01 0.107E+04   -.253E+00 -.146E+00 0.871E+00   -.454E-01 -.271E-01 0.291E+00
   -.201E+01 -.116E+01 -.108E+04   0.207E+01 0.119E+01 0.108E+04   -.495E-01 -.286E-01 0.932E+00   -.183E-01 -.106E-01 0.299E+00
   0.201E+01 -.116E+01 -.108E+04   -.207E+01 0.119E+01 0.108E+04   0.495E-01 -.286E-01 0.932E+00   -.103E-02 -.115E-01 0.299E+00
   -.133E-03 0.854E+01 -.107E+04   0.245E-03 -.882E+01 0.107E+04   -.194E-07 0.292E+00 0.871E+00   -.109E-01 0.345E-01 0.291E+00
   -.241E-04 0.217E-04 -.340E+04   0.304E-04 -.358E-04 0.340E+04   0.729E-18 -.579E-18 0.222E+01   -.576E-04 0.164E-04 0.644E+00
   0.285E+02 0.504E+02 -.337E+04   -.287E+02 -.510E+02 0.337E+04   0.181E+00 0.397E+00 0.308E+01   0.226E-01 0.414E-01 0.573E+00
   -.285E+02 0.504E+02 -.337E+04   0.287E+02 -.510E+02 0.337E+04   -.181E+00 0.397E+00 0.308E+01   -.217E-01 0.436E-01 0.573E+00
   0.579E+02 -.542E+00 -.337E+04   -.585E+02 0.602E+00 0.337E+04   0.434E+00 -.421E-01 0.308E+01   0.472E-01 -.119E-02 0.573E+00
   -.579E+02 -.542E+00 -.337E+04   0.585E+02 0.602E+00 0.337E+04   -.434E+00 -.421E-01 0.308E+01   -.483E-01 -.112E-03 0.573E+00
   0.294E+02 -.499E+02 -.337E+04   -.298E+02 0.504E+02 0.337E+04   0.253E+00 -.355E+00 0.308E+01   0.269E-01 -.407E-01 0.573E+00
   -.294E+02 -.499E+02 -.337E+04   0.298E+02 0.504E+02 0.337E+04   -.253E+00 -.355E+00 0.308E+01   -.235E-01 -.418E-01 0.573E+00
   -.136E-03 -.179E-04 -.340E+04   0.261E-03 0.718E-05 0.340E+04   -.289E-17 0.280E-17 0.233E+01   -.130E-01 -.669E-02 0.615E+00
   -.673E-04 -.226E-04 -.282E+04   0.130E-03 0.238E-04 0.281E+04   0.756E-17 0.471E-17 0.186E+01   0.885E-02 0.540E-02 0.467E+00
   -.513E-05 -.770E-04 -.130E+04   0.123E-04 0.570E-05 0.128E+04   -.524E-19 -.487E-19 0.165E+02   0.117E-02 0.708E-03 0.991E-01
   0.225E-03 -.740E-04 -.203E+04   0.302E-05 0.289E-05 0.209E+04   -.211E-18 0.114E-18 -.592E+02   0.328E-02 0.200E-02 0.117E-01
   -.961E-05 -.148E-03 0.430E+02   0.898E-13 0.237E-13 0.168E-10   -.511E-16 -.103E-15 -.422E+02   -.544E-01 -.341E-01 -.822E+00

 POSITION                                       TOTAL-FORCE (eV/Angst)
      0.00000      0.00000      5.37156         0.000000      0.000000      0.073470
      2.56560      0.00000      5.37156         0.010928      0.018335      0.098187
      5.13119      0.00000      5.37156        -0.010928      0.018335      0.098187
      1.28280      2.22187      5.37156         0.021343      0.000297      0.098187
      3.84839      2.22187      5.37156         0.000000      0.000000      0.080495
      6.41399      2.22187      5.37156        -0.021343      0.000297      0.098187
      2.56560      4.44374      5.37156         0.010414     -0.018632      0.098187
      5.13119      4.44374      5.37156        -0.010414     -0.018632      0.098187
      7.69679      4.44374      5.37156         0.000000     -0.000000      0.077150
      1.28280      0.74062      7.46636         0.021481      0.012402     -0.067391
      3.84839      0.74062      7.46636         0.000000     -0.026141     -0.127951
      6.41399      0.74062      7.46636        -0.021481      0.012402     -0.067391
      2.56560      2.96249      7.46636        -0.022639      0.013071     -0.127951
      5.13119      2.96249      7.46636         0.022639      0.013071     -0.127951
      7.69679      2.96249      7.46636         0.000000     -0.015416     -0.054180
      3.84839      5.18437      7.46636         0.000000     -0.024804     -0.067391
      6.41399      5.18437      7.46636        -0.013351      0.007708     -0.054180
      8.97958      5.18437      7.46636         0.013351      0.007708     -0.054180
      7.69679      1.48353      9.55071         0.000000     -0.002474      0.021644
      2.56540      1.48114      9.54275         0.007375      0.004258     -0.162484
      5.13138      1.48114      9.54275        -0.007375      0.004258     -0.162484
      8.97935      3.70325      9.54809         0.045473     -0.026254      0.014031
      3.84839      3.70334      9.54275         0.000000     -0.008516     -0.162484
      6.41422      3.70325      9.54809        -0.045473     -0.026254      0.014031
     10.26040      5.92385      9.55071         0.002142      0.001237      0.021644
      5.13317      5.92385      9.55071        -0.002142      0.001237      0.021644
      7.69679      5.92472      9.54809        -0.000000      0.052508      0.014031
      0.00000      0.00000     11.61525         0.000000      0.000000     -0.025395
      2.57297      0.01446     11.62005        -0.070990     -0.155303     -0.048947
      5.12381      0.01446     11.62005         0.070990     -0.155303     -0.048947
      1.29901      2.22103     11.62005        -0.169991      0.016172     -0.048947
      6.39777      2.22103     11.62005         0.169991      0.016172     -0.048947
      2.57443      4.43012     11.62005        -0.099001      0.139131     -0.048947
      5.12235      4.43012     11.62005         0.099001      0.139131     -0.048947
      7.69679      4.44374     11.61370         0.000000     -0.000000     -0.001357
      3.84839      2.22187     11.53520         0.000000     -0.000000      0.635540
      3.84839      2.22187     13.28548         0.000000      0.000000     -0.007525
      3.84839      2.22187     14.45193         0.000000      0.000000      0.001171
    total drift:                               -0.054420     -0.034271     -0.040627

  FREE ENERGIE OF THE ION-ELECTRON SYSTEM (eV)
  free  energy   TOTEN  =      -143.85077943 eV

  energy  without entropy=     -143.85077943  energy(sigma->0) =     -143.85077943

 stress matrix after NEB project (eV)
     -3.08930      0.00000     -0.00000
      0.00000     -3.08930      0.00000
     -0.00000     -0.00000      3.19904
  FORCES: max atom, RMS     0.007525    0.001235
  FORCE total and by dimension    0.007616    0.007525
  Stress total and by dimension    5.414919    3.199040
|           W    W    AA    RRRRR   N    N  II  N    N   GGGG   !!!           |
|           W    W   A  A   R    R  NN   N  II  NN   N  G    G  !!!           |
|           W    W  A    A  R    R  N N  N  II  N N  N  G       !!!           |
|           W WW W  AAAAAA  RRRRR   N  N N  II  N  N N  G  GGG   !            |
|           WW  WW  A    A  R   R   N   NN  II  N   NN  G    G                |
|           W    W  A    A  R    R  N    N  II  N    N   GGGG   !!!           |
|     Tetrahedron method does not include variations of the Fermi             |
|     occupations, so forces and stress will be inaccurate. We suggest        |
|     using a different smearing scheme ISMEAR = 1 or 2 for metals in         |
|     relaxations.                                                            |

 total charge

# of ion       s       p       d       tot
    1        0.446   0.284   9.188   9.918
    2        0.449   0.284   9.188   9.921
    3        0.449   0.284   9.188   9.921
    4        0.449   0.284   9.188   9.921
    5        0.448   0.287   9.185   9.920
    6        0.449   0.284   9.188   9.921
    7        0.449   0.284   9.188   9.921
    8        0.449   0.284   9.188   9.921
    9        0.446   0.285   9.188   9.919
   10        0.441   0.372   9.179   9.991
   11        0.444   0.369   9.181   9.994
   12        0.441   0.372   9.179   9.991
   13        0.444   0.369   9.181   9.994
   14        0.444   0.369   9.181   9.994
   15        0.438   0.373   9.180   9.990
   16        0.441   0.372   9.179   9.991
   17        0.438   0.373   9.180   9.990
   18        0.438   0.373   9.180   9.990
   19        0.442   0.372   9.182   9.996
   20        0.449   0.388   9.172  10.010
   21        0.449   0.388   9.172  10.010
   22        0.438   0.377   9.179   9.995
   23        0.449   0.388   9.172  10.010
   24        0.438   0.377   9.179   9.995
   25        0.442   0.372   9.182   9.996
   26        0.442   0.372   9.182   9.996
   27        0.438   0.377   9.179   9.995
   28        0.450   0.285   9.192   9.927
   29        0.444   0.289   9.194   9.927
   30        0.444   0.289   9.194   9.927
   31        0.444   0.289   9.194   9.927
   32        0.444   0.289   9.194   9.927
   33        0.444   0.289   9.194   9.927
   34        0.444   0.289   9.194   9.927
   35        0.449   0.285   9.192   9.926
   36        0.502   0.612   8.400   9.515
   37        0.964   1.543   0.000   2.506
   38        1.615   3.526   0.000   5.141
tot         18.632  17.304 329.855 365.791

 BZINTS: Fermi energy:    0.160907;  405.000000 electrons
         Band energy:-0.113048E+04;  BLOECHL correction:   -0.059525