 vasp.6.2.0 18Jan21 (build Jun 12 2021 23:27:24) complex

 executed on             LinuxIFC date 2022.05.26  19:26:16

 INCAR:
   ISMEAR = -5
   SIGMA = 0.1
   ISPIN = 1
   EDIFF = 1.d-5
   EDIFFG = -0.01
   NSW = 0
   NELM = 150
   ENCUT = 500
   ISIF = 2
   IBRION = 2
   LREAL = Auto
   ALGO = Fast
   ICHARG = 11
   LORBIT = 10
   LCHARG = .F.
   LWAVE = .F.

 POTCAR:    PAW_PBE Au 04Oct2007
 POTCAR:    PAW_PBE Ru 04Feb2005
 POTCAR:    PAW_PBE H 15Jun2001
|           W    W    AA    RRRRR   N    N  II  N    N   GGGG   !!!           |
|           W    W   A  A   R    R  NN   N  II  NN   N  G    G  !!!           |
|           W    W  A    A  R    R  N N  N  II  N N  N  G       !!!           |
|           W WW W  AAAAAA  RRRRR   N  N N  II  N  N N  G  GGG   !            |
|           WW  WW  A    A  R   R   N   NN  II  N   NN  G    G                |
|           W    W  A    A  R    R  N    N  II  N    N   GGGG   !!!           |
|     For optimal performance we recommend to set                             |
|       NCORE = 2 up to number-of-cores-per-socket                            |
|     This setting can greatly improve the performance of VASP for DFT.       |
|     The default, NCORE=1 might be grossly inefficient on modern             |
|     multi-core architectures or massively parallel machines. Do your        |
|     Unfortunately you need to use the default for GW and RPA                |
|     calculations (for HF NCORE is supported but not extensively tested      |
|     yet).                                                                   |

 POTCAR:    PAW_PBE Au 04Oct2007
   VRHFIN =Au: s1d10

   TITEL  = PAW_PBE Au 04Oct2007
   POMASS =  196.966; ZVAL   =   11.000    mass and valenz
   ENMAX  =  229.943; ENMIN  =  172.457 eV

 POTCAR:    PAW_PBE Ru 04Feb2005
   VRHFIN =Ru: s1 d7

   TITEL  = PAW_PBE Ru 04Feb2005
   POMASS =  101.070; ZVAL   =    8.000    mass and valenz
   ENMAX  =  213.271; ENMIN  =  159.953 eV

 POTCAR:    PAW_PBE H 15Jun2001
   VRHFIN =H: ultrasoft test

   TITEL  = PAW_PBE H 15Jun2001
   POMASS =    1.000; ZVAL   =    1.000    mass and valenz
   ENMAX  =  250.000; ENMIN  =  200.000 eV

 Optimization of the real space projectors (new method)

 maximal supplied QI-value         = 15.12
 optimisation between [QCUT,QGAM] = [ 11.34, 22.83] = [ 36.00,145.93] Ry
 Optimized for a Real-space Cutoff    1.39 Angstroem

   l    n(q)    QCUT    max X(q) W(low)/X(q) W(high)/X(q)  e(spline)
   2      9    11.338    60.898    0.39E-03    0.42E-03    0.21E-06
   2      9    11.338    58.894    0.40E-03    0.42E-03    0.22E-06
   0      9    11.338   109.617    0.13E-03    0.20E-04    0.13E-06
   0      9    11.338    75.026    0.13E-03    0.20E-04    0.13E-06
   1      9    11.338    16.344    0.33E-04    0.24E-03    0.18E-06
   1      9    11.338    10.160    0.26E-04    0.19E-03    0.15E-06
 Optimization of the real space projectors (new method)

[...]

   l    n(q)    QCUT    max X(q) W(low)/X(q) W(high)/X(q)  e(spline)
   2      9    11.327    61.733    0.26E-03    0.14E-03    0.16E-06
   2      9    11.327    59.886    0.26E-03    0.14E-03    0.17E-06
   0     10    11.327    23.358    0.19E-03    0.14E-04    0.46E-06
   0     10    11.327    11.320    0.15E-03    0.11E-04    0.37E-06
   1     10    11.327    14.765    0.49E-04    0.26E-03    0.24E-06
   1     10    11.327     8.283    0.37E-04    0.20E-03    0.18E-06
 Optimization of the real space projectors (new method)

 maximal supplied QI-value         = 34.20
 optimisation between [QCUT,QGAM] = [ 11.29, 22.57] = [ 35.68,142.71] Ry
 Optimized for a Real-space Cutoff    1.16 Angstroem

   l    n(q)    QCUT    max X(q) W(low)/X(q) W(high)/X(q)  e(spline)
   0      8    11.287    19.460    0.40E-03    0.73E-03    0.16E-06
   0      8    11.287    12.209    0.38E-03    0.70E-03    0.15E-06
   1      7    11.287     4.655    0.22E-03    0.25E-04    0.22E-06
  PAW_PBE Au 04Oct2007                  :
  PAW_PBE Ru 04Feb2005                  :
  PAW_PBE H 15Jun2001                   :

 POSCAR: Au-Ru-H
  positions in direct lattice
  velocities in cartesian coordinates
 exchange correlation table for  LEXCH =        8
   RHO(1)=    0.500       N(1)  =     2000
   RHO(2)=  100.500       N(2)  =     4000

 VTST: version 3.2, (02/03/18)

 CHAIN: initializing optimizer

 OPT: Using VASP Conjugate-Gradient optimizer
 CHAIN: Read ICHAIN            0

 POSCAR: Au-Ru-H
  positions in direct lattice
  velocities in cartesian coordinates

 ion  position               nearest neighbor table
   1  0.000  0.000  0.238-  16 2.94  12 2.94   6 2.94   8 2.94   7 2.94   3 2.94  10 2.94   4 2.94
                             2 2.94
   2  0.333  0.000  0.238-   9 2.94  11 2.94  17 2.94  10 2.94   8 2.94   4 2.94   5 2.94   1 2.94
                             3 2.94
   3  0.667  0.000  0.238-   7 2.94  18 2.94  12 2.94   1 2.94  11 2.94   5 2.94   6 2.94   9 2.94
                             2 2.94
   4  0.000  0.333  0.238-  10 2.94   6 2.94   5 2.94  13 2.94   2 2.94  15 2.94   9 2.94   1 2.94
                             7 2.94
   5  0.333  0.333  0.238-  13 2.94   7 2.94  11 2.94   4 2.94   2 2.94  14 2.94   3 2.94   8 2.94
                             6 2.94
   6  0.667  0.333  0.238-  15 2.94  14 2.94   1 2.94  12 2.94   4 2.94   9 2.94   8 2.94   3 2.94
                             5 2.94
   7  0.000  0.667  0.238-  18 2.94   3 2.94  16 2.94   5 2.94   1 2.94  13 2.94   8 2.94   4 2.94
                             9 2.94
   8  0.333  0.667  0.238-   9 2.94  17 2.94   1 2.94   2 2.94  14 2.94  16 2.94   6 2.94   7 2.94
                             5 2.94
   9  0.667  0.667  0.238-   2 2.94   8 2.94  17 2.94   6 2.94  15 2.94   4 2.94   3 2.94  18 2.94
                             7 2.94
  10  0.111  0.111  0.346-  20 2.91  26 2.94  19 2.94  11 2.94  17 2.94   2 2.94   4 2.94   1 2.94
                            12 2.94  16 2.94  13 2.94  15 2.94
  11  0.444  0.111  0.346-  20 2.91  21 2.91  27 2.94  13 2.94   2 2.94  10 2.94  17 2.94   5 2.94
                             3 2.94  18 2.94  14 2.94  12 2.94
  12  0.778  0.111  0.346-  21 2.91  25 2.94  19 2.94  16 2.94  18 2.94   1 2.94  14 2.94  15 2.94
                             3 2.94   6 2.94  10 2.94  11 2.94
  13  0.111  0.444  0.346-  23 2.91  20 2.91  22 2.94   5 2.94  18 2.94  11 2.94   7 2.94   4 2.94
                            16 2.94  10 2.94  14 2.94  15 2.94
  14  0.444  0.444  0.346-  21 2.91  23 2.91  24 2.94  15 2.94   6 2.94  12 2.94   8 2.94  17 2.94
                             5 2.94  16 2.94  13 2.94  11 2.94
  15  0.778  0.444  0.346-  24 2.92  22 2.92  19 2.94  14 2.94   6 2.94  17 2.94  12 2.94   9 2.94
                             4 2.94  10 2.94  13 2.94  18 2.94
  16  0.111  0.778  0.346-  23 2.91  25 2.94  26 2.94  18 2.94  12 2.94   7 2.94   1 2.94   8 2.94
                            13 2.94  10 2.94  14 2.94  17 2.94
  17  0.444  0.778  0.346-  27 2.92  24 2.92  26 2.94   9 2.94  15 2.94   2 2.94  10 2.94  11 2.94
                             8 2.94  14 2.94  16 2.94  18 2.94
  18  0.778  0.778  0.346-  22 2.92  27 2.92  25 2.94  16 2.94   7 2.94  13 2.94  12 2.94   3 2.94
                            11 2.94   9 2.94  15 2.94  17 2.94
  19  0.889  0.222  0.454-  15 2.94  10 2.94  12 2.94  24 2.94  22 2.94  26 2.94  25 2.94  21 2.94
                            20 2.94  28 2.95  32 2.97  31 2.97
  20  0.223  0.223  0.452-  36 2.78  11 2.91  13 2.91  10 2.91  23 2.93  21 2.93  29 2.94  31 2.94
                            26 2.94  19 2.94  27 2.95  22 2.95
  21  0.555  0.223  0.452-  36 2.78  14 2.91  11 2.91  12 2.91  20 2.93  23 2.93  30 2.94  32 2.94
                            25 2.94  19 2.94  27 2.95  24 2.95
  22  0.887  0.557  0.453-  24 2.91  27 2.91  18 2.92  15 2.92  13 2.94  25 2.94  19 2.94  23 2.95
                            20 2.95  35 2.96  33 2.96  31 2.96
  23  0.223  0.555  0.452-  36 2.78  13 2.91  14 2.91  16 2.91  20 2.93  21 2.93  33 2.94  34 2.94
                            25 2.94  26 2.94  22 2.95  24 2.95
  24  0.557  0.557  0.453-  27 2.91  22 2.91  15 2.92  17 2.92  14 2.94  26 2.94  19 2.94  21 2.95
                            23 2.95  35 2.96  32 2.96  34 2.96
  25  0.889  0.889  0.454-  18 2.94  16 2.94  12 2.94  22 2.94  27 2.94  19 2.94  26 2.94  23 2.94
                            21 2.94  28 2.95  33 2.97  30 2.97
  26  0.222  0.889  0.454-  17 2.94  10 2.94  16 2.94  27 2.94  24 2.94  19 2.94  25 2.94  20 2.94
                            23 2.94  28 2.95  29 2.97  34 2.97
  27  0.557  0.887  0.453-  24 2.91  22 2.91  17 2.92  18 2.92  11 2.94  26 2.94  25 2.94  20 2.95
                            21 2.95  35 2.96  29 2.96  30 2.96
  28  0.000  0.000  0.563-  25 2.95  19 2.95  26 2.95  34 2.97  32 2.97  33 2.97  30 2.97  31 2.97
                            29 2.97
  29  0.333  0.007  0.562-  31 2.88  30 2.88  36 2.89  20 2.94  27 2.96  28 2.97  35 2.97  26 2.97
                            34 3.05
  30  0.660  0.007  0.562-  32 2.88  29 2.88  36 2.89  21 2.94  27 2.96  28 2.97  35 2.97  25 2.97
                            33 3.05
  31  0.007  0.333  0.562-  29 2.88  33 2.88  36 2.89  20 2.94  22 2.96  28 2.97  35 2.97  19 2.97
                            32 3.05
  32  0.660  0.333  0.562-  30 2.88  34 2.88  36 2.89  21 2.94  24 2.96  28 2.97  35 2.97  19 2.97
                            31 3.05
  33  0.007  0.660  0.562-  34 2.88  31 2.88  36 2.89  23 2.94  22 2.96  28 2.97  35 2.97  25 2.97
                            30 3.05
  34  0.333  0.660  0.562-  33 2.88  32 2.88  36 2.89  23 2.94  24 2.96  28 2.97  35 2.97  26 2.97
                            29 3.05
  35  0.667  0.667  0.563-  24 2.96  27 2.96  22 2.96  29 2.97  34 2.97  32 2.97  31 2.97  30 2.97
                            33 2.97
  36  0.333  0.333  0.552-  37 1.59  20 2.78  23 2.78  21 2.78  33 2.89  31 2.89  29 2.89  30 2.89
                            34 2.89  32 2.89
  37  0.333  0.333  0.623-  36 1.59

  LATTYP: Found a hexagonal cell.
 ALAT       =     8.8135128021
 C/A-ratio  =     2.5184286595

  Lattice vectors:

 A1 = (  -4.4067569092,  -7.6327256898,   0.0000000000)
 A2 = (   8.8135128021,   0.0000000000,   0.0000000000)
 A3 = (   0.0000000000,   0.0000000000,  22.1962032318)

Analysis of symmetry for initial positions (statically):
 Subroutine PRICEL returns:
 Original cell was already a primitive cell.

 Routine SETGRP: Setting up the symmetry group for a
 hexagonal supercell.

 Subroutine GETGRP returns: Found  6 space group operations
 (whereof  6 operations were pure point group operations)
 out of a pool of 24 trial point group operations.

The static configuration has the point symmetry C_3v.

Analysis of symmetry for dynamics (positions and initial velocities):
 Subroutine PRICEL returns:
 Original cell was already a primitive cell.

[...]

The dynamic configuration has the point symmetry C_3v.

Analysis of constrained symmetry for selective dynamics:
 Subroutine PRICEL returns:
 Original cell was already a primitive cell.

 Routine SETGRP: Setting up the symmetry group for a
 hexagonal supercell.

 Subroutine GETGRP returns: Found  6 space group operations
 (whereof  6 operations were pure point group operations)
[...]
     24      -5.0734      2.00000
     25      -5.0527      2.00000
     26      -5.0278      2.00000
     27      -4.9553      2.00000
     28      -4.8773      2.00000
     29      -4.8016      2.00000
     30      -4.7958      2.00000
     31      -4.7680      2.00000
     32      -4.7623      2.00000
     33      -4.7497      2.00000
     34      -4.7167      2.00000
     35      -4.6063      2.00000
     36      -4.5949      2.00000
     37      -4.5695      2.00000
     38      -4.5536      2.00000
     39      -4.5054      2.00000
     40      -4.4218      2.00000
     41      -4.3882      2.00000
     42      -4.3367      2.00000
     43      -4.3154      2.00000
     44      -4.3097      2.00000
     45      -4.3038      2.00000
     46      -4.1960      2.00000
     47      -4.1889      2.00000
     48      -4.1527      2.00000
     49      -4.1327      2.00000
     50      -4.1254      2.00000
     51      -4.1149      2.00000
     52      -4.1066      2.00000
     53      -4.0660      2.00000
     54      -4.0265      2.00000
     55      -4.0188      2.00000
     56      -3.9715      2.00000
     57      -3.9694      2.00000
     58      -3.9592      2.00000
     59      -3.9482      2.00000
     60      -3.9378      2.00000
[...]
    238       6.7447      0.00000
    239       6.7737      0.00000
    240       6.7984      0.00000
    241       6.8465      0.00000
    242       6.8758      0.00000
    243       7.1344      0.00000
    244       7.1903      0.00000
    245       7.3025      0.00000
    246       7.6314      0.00000
    247       7.6530      0.00000
    248       7.7432      0.00000
    249       7.7886      0.00000
    250       7.9023      0.00000
    251       7.9975      0.00000
    252       8.0644      0.00000

 soft charge-density along one line, spin component           1
         0         1         2         3         4         5         6         7         8         9
 total charge-density along one line

------------------------ aborting loop because EDIFF is reached ----------------------------------------

 total charge

# of ion       s       p       d       tot
    1        0.547   0.237   8.769   9.553
    2        0.544   0.241   8.765   9.549
    3        0.544   0.241   8.765   9.549
    4        0.544   0.241   8.765   9.549
    5        0.545   0.241   8.760   9.546
    6        0.544   0.241   8.765   9.549
    7        0.544   0.241   8.765   9.549
    8        0.544   0.241   8.765   9.549
    9        0.543   0.238   8.768   9.549
   10        0.524   0.309   8.768   9.600
   11        0.523   0.308   8.780   9.611
   12        0.524   0.309   8.768   9.600
   13        0.523   0.308   8.780   9.611
   14        0.523   0.308   8.780   9.611
   15        0.517   0.308   8.777   9.602
   16        0.524   0.309   8.768   9.600
   17        0.517   0.308   8.777   9.602
   18        0.517   0.308   8.777   9.602
   19        0.515   0.301   8.775   9.591
   20        0.552   0.326   8.752   9.629
   21        0.552   0.326   8.752   9.629
   22        0.508   0.308   8.777   9.593
   23        0.552   0.326   8.752   9.629
   24        0.508   0.308   8.777   9.593
   25        0.515   0.301   8.775   9.591
   26        0.515   0.301   8.775   9.591
   27        0.508   0.308   8.777   9.593
   28        0.538   0.227   8.762   9.527
   29        0.555   0.242   8.746   9.542
   30        0.555   0.242   8.746   9.542
   31        0.555   0.242   8.746   9.542
   32        0.555   0.242   8.746   9.542
   33        0.555   0.242   8.746   9.542
   34        0.555   0.242   8.746   9.542
   35        0.532   0.228   8.765   9.525
   36        0.486   0.492   6.566   7.545
   37        0.514   0.019   0.000   0.533
tot         19.708  10.156 313.339 343.204

  FORCE on cell =-STRESS in cart. coord.  units (eV):
  Direction    XX          YY          ZZ          XY          YZ          ZX
  Alpha Z   993.72056   993.72056   993.72056
  Ewald  119318.70495119318.70535************    -0.00033    -0.00009    -0.00016
  Hartree127887.91804127887.91804************     0.00000    -0.00002    -0.00004
  E(xc)   -1767.64467 -1767.64466 -1775.53076    -0.00001    -0.00000    -0.00000
  Local  ************************259766.78275     0.00175     0.00005     0.00008
  n-local   -80.44555   -24.05236   -18.38688    27.69786    -1.50342     1.83194
  augment  2411.32104  2411.32258  2428.82023    -0.00134     0.00001     0.00004
  Kinetic  5438.51869  5454.06641  5502.73021     7.93712    -0.39539     0.82412
  Fock        0.00000     0.00000     0.00000     0.00000     0.00000     0.00000
  Total     -22.62501   -22.62501     3.91093    -0.00000     0.00000    -0.00000
  in kB     -24.27683   -24.27683     4.19646    -0.00000     0.00000    -0.00000

 VOLUME and BASIS-vectors are now :
  energy-cutoff  :      500.00
  volume of cell :     1493.16
      direct lattice vectors                 reciprocal lattice vectors
     8.813512802  0.000000000  0.000000000     0.113462137 -0.065507406  0.000000000
     4.406756909  7.632725690  0.000000000     0.000000000  0.131014796  0.000000000
     0.000000000  0.000000000 22.196203232     0.000000000  0.000000000  0.045052750

  length of vectors
     8.813512802  8.813512802 22.196203232     0.131014796  0.131014796  0.045052750

 FORCES acting on ions
    electron-ion (+dipol)            ewald-force                    non-local-force                 convergence-correction
   -.198E-04 -.163E-04 0.248E+04   0.519E-04 0.433E-04 -.247E+04   -.922E-17 0.350E-17 -.804E+00   -.182E-03 -.118E-03 -.295E+00
   0.326E+00 0.160E+00 0.248E+04   -.406E+00 -.221E+00 -.247E+04   0.468E-01 0.821E-01 -.274E+00   0.342E-01 -.164E-01 -.374E+00
   -.326E+00 0.160E+00 0.248E+04   0.406E+00 -.221E+00 -.247E+04   -.468E-01 0.821E-01 -.274E+00   -.339E-01 -.144E-01 -.373E+00
   0.302E+00 0.203E+00 0.248E+04   -.395E+00 -.241E+00 -.247E+04   0.945E-01 -.489E-03 -.274E+00   0.299E-02 0.377E-01 -.374E+00
   0.699E-05 -.243E-04 0.248E+04   0.951E-04 0.173E-05 -.248E+04   0.143E-17 -.176E-17 -.803E-01   0.424E-02 0.258E-02 -.416E+00
   -.302E+00 0.203E+00 0.248E+04   0.395E+00 -.241E+00 -.247E+04   -.945E-01 -.489E-03 -.274E+00   -.449E-02 0.387E-01 -.373E+00
   -.247E-01 -.363E+00 0.248E+04   0.115E-01 0.462E+00 -.247E+04   0.477E-01 -.816E-01 -.274E+00   -.294E-01 -.222E-01 -.373E+00
   0.247E-01 -.363E+00 0.248E+04   -.116E-01 0.462E+00 -.247E+04   -.477E-01 -.816E-01 -.274E+00   0.313E-01 -.232E-01 -.373E+00
   0.197E-04 -.415E-04 0.248E+04   0.166E-03 -.200E-04 -.248E+04   -.810E-18 0.158E-17 -.542E+00   -.461E-02 -.238E-02 -.389E+00
   0.400E+01 0.231E+01 0.815E+03   -.361E+01 -.208E+01 -.814E+03   -.318E+00 -.183E+00 -.710E+00   -.705E-01 -.408E-01 0.268E+00
   0.143E-04 0.361E+01 0.819E+03   0.148E-03 -.360E+01 -.819E+03   0.433E-08 0.650E-01 -.237E+00   0.364E-02 -.117E+00 0.294E+00
   -.400E+01 0.231E+01 0.815E+03   0.361E+01 -.208E+01 -.814E+03   0.318E+00 -.183E+00 -.710E+00   0.693E-01 -.397E-01 0.267E+00
   0.313E+01 -.181E+01 0.819E+03   -.312E+01 0.180E+01 -.819E+03   0.563E-01 -.325E-01 -.237E+00   -.995E-01 0.621E-01 0.294E+00
   -.313E+01 -.181E+01 0.819E+03   0.311E+01 0.180E+01 -.819E+03   -.563E-01 -.325E-01 -.237E+00   0.107E+00 0.616E-01 0.293E+00
   0.316E-04 0.282E+01 0.817E+03   0.236E-03 -.297E+01 -.817E+03   0.428E-08 0.643E-01 -.542E+00   -.208E-02 0.509E-01 0.327E+00
   -.213E-04 -.462E+01 0.815E+03   0.162E-03 0.417E+01 -.814E+03   0.244E-07 0.367E+00 -.710E+00   0.375E-04 0.799E-01 0.267E+00
   0.244E+01 -.141E+01 0.817E+03   -.258E+01 0.149E+01 -.817E+03   0.557E-01 -.321E-01 -.542E+00   0.433E-01 -.268E-01 0.327E+00
   -.244E+01 -.141E+01 0.817E+03   0.258E+01 0.149E+01 -.817E+03   -.557E-01 -.321E-01 -.542E+00   -.433E-01 -.252E-01 0.327E+00
   -.406E-04 0.108E+01 -.872E+03   0.543E-04 -.130E+01 0.871E+03   0.465E-08 0.698E-01 0.568E+00   0.346E-02 0.136E+00 0.947E+00
   0.524E+01 0.302E+01 -.850E+03   -.439E+01 -.253E+01 0.850E+03   -.101E+01 -.581E+00 -.913E+00   0.944E-01 0.544E-01 0.127E+01
   -.524E+01 0.302E+01 -.850E+03   0.439E+01 -.253E+01 0.850E+03   0.101E+01 -.581E+00 -.913E+00   -.951E-01 0.555E-01 0.126E+01
   -.564E+01 0.326E+01 -.864E+03   0.530E+01 -.306E+01 0.862E+03   0.385E+00 -.222E+00 0.542E+00   -.171E-01 0.849E-02 0.987E+00
   -.107E-04 -.605E+01 -.850E+03   0.141E-03 0.507E+01 0.850E+03   0.773E-07 0.116E+01 -.913E+00   0.242E-03 -.110E+00 0.126E+01
   0.564E+01 0.326E+01 -.864E+03   -.530E+01 -.306E+01 0.862E+03   -.385E+00 -.222E+00 0.542E+00   0.168E-01 0.973E-02 0.987E+00
   -.935E+00 -.540E+00 -.872E+03   0.112E+01 0.648E+00 0.871E+03   -.604E-01 -.349E-01 0.568E+00   -.113E+00 -.651E-01 0.946E+00
   0.935E+00 -.540E+00 -.872E+03   -.112E+01 0.648E+00 0.871E+03   0.604E-01 -.349E-01 0.568E+00   0.120E+00 -.650E-01 0.947E+00
   0.854E-05 -.651E+01 -.864E+03   0.200E-03 0.612E+01 0.862E+03   0.296E-07 0.444E+00 0.542E+00   -.175E-02 -.191E-01 0.987E+00
   -.933E-05 -.110E-04 -.249E+04   0.270E-04 0.314E-04 0.249E+04   -.969E-18 0.709E-17 0.648E+00   0.275E-03 0.142E-03 0.634E+00
   0.168E+01 0.219E+01 -.248E+04   -.121E+01 -.157E+01 0.248E+04   -.606E+00 -.871E+00 0.297E+00   0.152E+00 0.254E+00 0.527E+00
   -.168E+01 0.219E+01 -.248E+04   0.121E+01 -.157E+01 0.248E+04   0.606E+00 -.871E+00 0.297E+00   -.152E+00 0.255E+00 0.528E+00
   0.273E+01 0.360E+00 -.248E+04   -.196E+01 -.266E+00 0.248E+04   -.106E+01 -.895E-01 0.297E+00   0.296E+00 0.448E-02 0.527E+00
   -.273E+01 0.360E+00 -.248E+04   0.196E+01 -.266E+00 0.248E+04   0.106E+01 -.895E-01 0.297E+00   -.296E+00 0.567E-02 0.528E+00
   0.106E+01 -.255E+01 -.248E+04   -.751E+00 0.183E+01 0.248E+04   -.451E+00 0.960E+00 0.297E+00   0.145E+00 -.259E+00 0.528E+00
   -.106E+01 -.255E+01 -.248E+04   0.751E+00 0.183E+01 0.248E+04   0.451E+00 0.960E+00 0.297E+00   -.143E+00 -.259E+00 0.528E+00
   0.313E-04 -.318E-04 -.249E+04   0.146E-03 -.465E-04 0.249E+04   -.555E-18 0.230E-17 0.734E+00   -.457E-02 -.234E-02 0.462E+00
   -.202E-04 -.907E-05 -.170E+04   0.824E-04 0.740E-05 0.171E+04   -.376E-17 -.167E-17 -.454E+01   0.167E-02 0.102E-02 0.447E+00
   0.618E-05 -.391E-05 -.284E+03   0.452E-05 0.284E-06 0.287E+03   -.126E-18 0.601E-19 -.253E+01   0.992E-04 0.601E-04 -.790E-01
   -.784E-03 -.782E-03 -.231E+01   0.322E-13 -.363E-13 0.239E-11   0.273E-15 0.334E-15 -.109E+02   0.143E-01 0.886E-02 0.135E+02

 POSITION                                       TOTAL-FORCE (eV/Angst)
      0.00000      0.00000      5.28038         0.000000     -0.000000     -0.159260
      2.93784      0.00000      5.28038         0.001564      0.005380     -0.073669
      5.87568      0.00000      5.28038        -0.001564      0.005380     -0.073669
      1.46892      2.54424      5.28038         0.005441     -0.001336     -0.073669
      4.40676      2.54424      5.28038         0.000000     -0.000000     -0.128721
      7.34459      2.54424      5.28038        -0.005441     -0.001336     -0.073669
      2.93784      5.08848      5.28038         0.003877     -0.004044     -0.073669
      5.87568      5.08848      5.28038        -0.003877     -0.004044     -0.073669
      8.81351      5.08848      5.28038         0.000000     -0.000000     -0.106420
      1.46892      0.84808      7.67911         0.003725      0.002151      0.116660
      4.40676      0.84808      7.67911        -0.000000     -0.039954      0.066244
      7.34459      0.84808      7.67911        -0.003725      0.002151      0.116660
      2.93784      3.39232      7.67911        -0.034601      0.019977      0.066244
      5.87568      3.39232      7.67911         0.034601      0.019977      0.066244
      8.81351      3.39232      7.67911        -0.000000     -0.039895      0.099150
      4.40676      5.93656      7.67911        -0.000000     -0.004301      0.116660
      7.34459      5.93656      7.67911        -0.034550      0.019947      0.099150
     10.28243      5.93656      7.67911         0.034550      0.019947      0.099150
      8.81351      1.69681     10.07567        -0.000000     -0.013009     -0.002319
      2.94232      1.69875     10.04120        -0.063283     -0.036537     -0.119777
      5.87120      1.69875     10.04120         0.063283     -0.036537     -0.119777
     10.26751      4.24902     10.06295         0.031586     -0.018236     -0.015434
      4.40676      4.23523     10.04120         0.000000      0.073073     -0.119777
      7.35952      4.24902     10.06295        -0.031586     -0.018236     -0.015434
     11.75079      6.78432     10.07567         0.011266      0.006504     -0.002319
      5.87624      6.78432     10.07567        -0.011266      0.006504     -0.002319
      8.81351      6.76742     10.06295         0.000000      0.036473     -0.015434
      0.00000      0.00000     12.49459         0.000000     -0.000000     -0.014230
      2.96623      0.05046     12.47837         0.012293      0.003437      0.034312
      5.84728      0.05046     12.47837        -0.012293      0.003437      0.034312
      1.52682      2.54360     12.47837         0.009123      0.008928      0.034312
      7.28669      2.54360     12.47837        -0.009123      0.008928      0.034312
      2.96734      5.03866     12.47837        -0.003171     -0.012365      0.034312
      5.84617      5.03866     12.47837         0.003171     -0.012365      0.034312
      8.81351      5.08848     12.49555         0.000000     -0.000000      0.019143
      4.40676      2.54424     12.24198         0.000000     -0.000000      0.201571
      4.40676      2.54424     13.83636         0.000000     -0.000000     -0.009513
    total drift:                                0.013533      0.008075      0.381713

  FREE ENERGIE OF THE ION-ELECTRON SYSTEM (eV)
  free  energy   TOTEN  =      -117.61369265 eV

  energy  without entropy=     -117.61369265  energy(sigma->0) =     -117.61369265

 stress matrix after NEB project (eV)
    -22.62501     -0.00000     -0.00000
     -0.00000    -22.62501     -0.00000
      0.00000      0.00000      3.91093
  FORCES: max atom, RMS     0.009513    0.001564
  FORCE total and by dimension    0.009513    0.009513
  Stress total and by dimension   32.234722   22.625009
|           W    W    AA    RRRRR   N    N  II  N    N   GGGG   !!!           |
|           W    W   A  A   R    R  NN   N  II  NN   N  G    G  !!!           |
|           W    W  A    A  R    R  N N  N  II  N N  N  G       !!!           |
|           W WW W  AAAAAA  RRRRR   N  N N  II  N  N N  G  GGG   !            |
|           WW  WW  A    A  R   R   N   NN  II  N   NN  G    G                |
|           W    W  A    A  R    R  N    N  II  N    N   GGGG   !!!           |
|     Tetrahedron method does not include variations of the Fermi             |
|     occupations, so forces and stress will be inaccurate. We suggest        |
|     using a different smearing scheme ISMEAR = 1 or 2 for metals in         |
|     relaxations.                                                            |

 total charge

# of ion       s       p       d       tot
    1        0.547   0.237   8.769   9.553
    2        0.544   0.241   8.765   9.549
    3        0.544   0.241   8.765   9.549
    4        0.544   0.241   8.765   9.549
    5        0.545   0.241   8.760   9.546
    6        0.544   0.241   8.765   9.549
    7        0.544   0.241   8.765   9.549
    8        0.544   0.241   8.765   9.549
    9        0.543   0.238   8.768   9.549
   10        0.524   0.309   8.768   9.600
   11        0.523   0.308   8.780   9.611
   12        0.524   0.309   8.768   9.600
   13        0.523   0.308   8.780   9.611
   14        0.523   0.308   8.780   9.611
   15        0.517   0.308   8.777   9.602
   16        0.524   0.309   8.768   9.600
   17        0.517   0.308   8.777   9.602
   18        0.517   0.308   8.777   9.602
   19        0.515   0.301   8.775   9.591
   20        0.552   0.326   8.752   9.629
   21        0.552   0.326   8.752   9.629
   22        0.508   0.308   8.777   9.593
   23        0.552   0.326   8.752   9.629
   24        0.508   0.308   8.777   9.593
   25        0.515   0.301   8.775   9.591
   26        0.515   0.301   8.775   9.591
   27        0.508   0.308   8.777   9.593
   28        0.538   0.227   8.762   9.527
   29        0.555   0.242   8.746   9.542
   30        0.555   0.242   8.746   9.542
   31        0.555   0.242   8.746   9.542
   32        0.555   0.242   8.746   9.542
   33        0.555   0.242   8.746   9.542
   34        0.555   0.242   8.746   9.542
   35        0.532   0.228   8.765   9.525
   36        0.486   0.492   6.566   7.545
   37        0.514   0.019   0.000   0.533
tot         19.708  10.156 313.339 343.204

 BZINTS: Fermi energy:    0.652012;  394.000000 electrons
         Band energy:-0.118799E+04;  BLOECHL correction:   -0.078005