 vasp.6.2.0 18Jan21 (build Jun 12 2021 23:27:24) complex

 executed on             LinuxIFC date 2022.05.26  19:17:26

 INCAR:
   ISMEAR = -5
   SIGMA = 0.1
   ISPIN = 1
   EDIFF = 1.d-5
   EDIFFG = -0.01
   NSW = 0
   NELM = 150
   ENCUT = 500
   ISIF = 2
   IBRION = 2
   LREAL = Auto
   ALGO = Fast
   ICHARG = 11
   LORBIT = 10
   LCHARG = .F.
   LWAVE = .F.

 POTCAR:    PAW_PBE Au 04Oct2007
 POTCAR:    PAW_PBE Ti 08Apr2002
 POTCAR:    PAW_PBE H 15Jun2001
|           W    W    AA    RRRRR   N    N  II  N    N   GGGG   !!!           |
|           W    W   A  A   R    R  NN   N  II  NN   N  G    G  !!!           |
|           W    W  A    A  R    R  N N  N  II  N N  N  G       !!!           |
|           W WW W  AAAAAA  RRRRR   N  N N  II  N  N N  G  GGG   !            |
|           WW  WW  A    A  R   R   N   NN  II  N   NN  G    G                |
|           W    W  A    A  R    R  N    N  II  N    N   GGGG   !!!           |
|     For optimal performance we recommend to set                             |
|       NCORE = 2 up to number-of-cores-per-socket                            |
|     This setting can greatly improve the performance of VASP for DFT.       |
|     The default, NCORE=1 might be grossly inefficient on modern             |
|     multi-core architectures or massively parallel machines. Do your        |
|     Unfortunately you need to use the default for GW and RPA                |
|     calculations (for HF NCORE is supported but not extensively tested      |
|     yet).                                                                   |

 POTCAR:    PAW_PBE Au 04Oct2007
   VRHFIN =Au: s1d10

   TITEL  = PAW_PBE Au 04Oct2007
   POMASS =  196.966; ZVAL   =   11.000    mass and valenz
   ENMAX  =  229.943; ENMIN  =  172.457 eV

 POTCAR:    PAW_PBE Ti 08Apr2002
   VRHFIN =Ti: d3 s1

   TITEL  = PAW_PBE Ti 08Apr2002
   POMASS =   47.880; ZVAL   =    4.000    mass and valenz
   ENMAX  =  178.330; ENMIN  =  133.747 eV

 POTCAR:    PAW_PBE H 15Jun2001
   VRHFIN =H: ultrasoft test

   TITEL  = PAW_PBE H 15Jun2001
   POMASS =    1.000; ZVAL   =    1.000    mass and valenz
   ENMAX  =  250.000; ENMIN  =  200.000 eV

 Optimization of the real space projectors (new method)

 maximal supplied QI-value         = 15.12
 optimisation between [QCUT,QGAM] = [ 11.34, 22.83] = [ 36.00,145.93] Ry
 Optimized for a Real-space Cutoff    1.39 Angstroem

   l    n(q)    QCUT    max X(q) W(low)/X(q) W(high)/X(q)  e(spline)
   2      9    11.338    60.898    0.39E-03    0.42E-03    0.21E-06
   2      9    11.338    58.894    0.40E-03    0.42E-03    0.22E-06
   0      9    11.338   109.617    0.13E-03    0.20E-04    0.13E-06
   0      9    11.338    75.026    0.13E-03    0.20E-04    0.13E-06
   1      9    11.338    16.344    0.33E-04    0.24E-03    0.18E-06
   1      9    11.338    10.160    0.26E-04    0.19E-03    0.15E-06
 Optimization of the real space projectors (new method)

[...]

   l    n(q)    QCUT    max X(q) W(low)/X(q) W(high)/X(q)  e(spline)
   2     10    11.404    49.363    0.27E-03    0.67E-03    0.76E-06
   2     10    11.404    47.669    0.26E-03    0.65E-03    0.73E-06
   0     11    11.404    26.374    0.17E-03    0.20E-03    0.34E-06
   0     11    11.404    11.549    0.14E-03    0.16E-03    0.29E-06
   1     10    11.404     9.492    0.33E-04    0.56E-04    0.16E-06
 Optimization of the real space projectors (new method)

 maximal supplied QI-value         = 34.20
 optimisation between [QCUT,QGAM] = [ 11.29, 22.57] = [ 35.68,142.71] Ry
 Optimized for a Real-space Cutoff    1.16 Angstroem

   l    n(q)    QCUT    max X(q) W(low)/X(q) W(high)/X(q)  e(spline)
   0      8    11.287    19.460    0.40E-03    0.73E-03    0.16E-06
   0      8    11.287    12.209    0.38E-03    0.70E-03    0.15E-06
   1      7    11.287     4.655    0.22E-03    0.25E-04    0.22E-06
  PAW_PBE Au 04Oct2007                  :
  PAW_PBE Ti 08Apr2002                  :
  PAW_PBE H 15Jun2001                   :

 POSCAR: Au-Ti-H
  positions in direct lattice
  velocities in cartesian coordinates
 exchange correlation table for  LEXCH =        8
   RHO(1)=    0.500       N(1)  =     2000
   RHO(2)=  100.500       N(2)  =     4000

 VTST: version 3.2, (02/03/18)

 CHAIN: initializing optimizer

 OPT: Using VASP Conjugate-Gradient optimizer
 CHAIN: Read ICHAIN            0

 POSCAR: Au-Ti-H
  positions in direct lattice
  velocities in cartesian coordinates

 ion  position               nearest neighbor table
   1  0.000  0.000  0.238-  16 2.94  12 2.94   6 2.94   8 2.94   7 2.94   3 2.94  10 2.94   4 2.94
                             2 2.94
   2  0.333  0.000  0.238-   9 2.94  11 2.94  17 2.94  10 2.94   8 2.94   4 2.94   5 2.94   1 2.94
                             3 2.94
   3  0.667  0.000  0.238-   7 2.94  18 2.94  12 2.94   1 2.94  11 2.94   5 2.94   6 2.94   9 2.94
                             2 2.94
   4  0.000  0.333  0.238-  10 2.94   6 2.94   5 2.94  13 2.94   2 2.94  15 2.94   9 2.94   1 2.94
                             7 2.94
   5  0.333  0.333  0.238-  13 2.94   7 2.94  11 2.94   4 2.94   2 2.94  14 2.94   3 2.94   8 2.94
                             6 2.94
   6  0.667  0.333  0.238-  15 2.94  14 2.94   1 2.94  12 2.94   4 2.94   9 2.94   8 2.94   3 2.94
                             5 2.94
   7  0.000  0.667  0.238-  18 2.94   3 2.94  16 2.94   5 2.94   1 2.94  13 2.94   8 2.94   4 2.94
                             9 2.94
   8  0.333  0.667  0.238-   9 2.94  17 2.94   1 2.94   2 2.94  14 2.94  16 2.94   6 2.94   7 2.94
                             5 2.94
   9  0.667  0.667  0.238-   2 2.94   8 2.94  17 2.94   6 2.94  15 2.94   4 2.94   3 2.94  18 2.94
                             7 2.94
  10  0.111  0.111  0.346-  26 2.93  19 2.93  20 2.93  11 2.94  17 2.94   2 2.94   4 2.94   1 2.94
                            12 2.94  16 2.94  13 2.94  15 2.94
  11  0.444  0.111  0.346-  20 2.92  21 2.92  27 2.94  13 2.94   2 2.94  10 2.94  17 2.94   5 2.94
                             3 2.94  18 2.94  14 2.94  12 2.94
  12  0.778  0.111  0.346-  25 2.93  19 2.93  21 2.93  16 2.94  18 2.94   1 2.94  14 2.94  15 2.94
                             3 2.94   6 2.94  10 2.94  11 2.94
  13  0.111  0.444  0.346-  23 2.92  20 2.92  22 2.94   5 2.94  18 2.94  11 2.94   7 2.94   4 2.94
                            16 2.94  10 2.94  14 2.94  15 2.94
  14  0.444  0.444  0.346-  21 2.92  23 2.92  24 2.94  15 2.94   6 2.94  12 2.94   8 2.94  17 2.94
                             5 2.94  16 2.94  13 2.94  11 2.94
  15  0.778  0.444  0.346-  24 2.92  22 2.92  19 2.93  14 2.94   6 2.94  17 2.94  12 2.94   9 2.94
                             4 2.94  10 2.94  13 2.94  18 2.94
  16  0.111  0.778  0.346-  25 2.93  26 2.93  23 2.93  18 2.94  12 2.94   7 2.94   1 2.94   8 2.94
                            13 2.94  10 2.94  14 2.94  17 2.94
  17  0.444  0.778  0.346-  27 2.92  24 2.92  26 2.93   9 2.94  15 2.94   2 2.94  10 2.94  11 2.94
                             8 2.94  14 2.94  16 2.94  18 2.94
  18  0.778  0.778  0.346-  22 2.92  27 2.92  25 2.93  16 2.94   7 2.94  13 2.94  12 2.94   3 2.94
                            11 2.94   9 2.94  15 2.94  17 2.94
  19  0.889  0.222  0.454-  10 2.93  12 2.93  15 2.93  26 2.94  25 2.94  24 2.94  22 2.94  21 2.95
                            20 2.95  28 2.95  32 3.03  31 3.03
  20  0.223  0.223  0.453-  36 2.76  23 2.91  21 2.91  11 2.92  13 2.92  10 2.93  27 2.95  22 2.95
                            26 2.95  19 2.95  29 2.96  31 2.96
  21  0.554  0.223  0.453-  36 2.76  20 2.91  23 2.91  14 2.92  11 2.92  12 2.93  27 2.95  24 2.95
                            25 2.95  19 2.95  30 2.96  32 2.96
  22  0.887  0.556  0.454-  24 2.92  27 2.92  18 2.92  15 2.92  13 2.94  25 2.94  19 2.94  23 2.95
                            20 2.95  35 2.96  33 2.99  31 2.99
  23  0.223  0.554  0.453-  36 2.76  20 2.91  21 2.91  13 2.92  14 2.92  16 2.93  22 2.95  24 2.95
                            25 2.95  26 2.95  33 2.96  34 2.96
  24  0.556  0.556  0.454-  27 2.92  22 2.92  15 2.92  17 2.92  14 2.94  26 2.94  19 2.94  21 2.95
                            23 2.95  35 2.96  32 2.99  34 2.99
  25  0.889  0.889  0.454-  16 2.93  12 2.93  18 2.93  19 2.94  26 2.94  22 2.94  27 2.94  23 2.95
                            21 2.95  28 2.95  33 3.03  30 3.03
  26  0.222  0.889  0.454-  10 2.93  16 2.93  17 2.93  19 2.94  25 2.94  27 2.94  24 2.94  20 2.95
                            23 2.95  28 2.95  29 3.03  34 3.03
  27  0.556  0.887  0.454-  24 2.92  22 2.92  17 2.92  18 2.92  11 2.94  26 2.94  25 2.94  20 2.95
                            21 2.95  35 2.96  29 2.99  30 2.99
  28  0.000  0.000  0.563-  25 2.95  19 2.95  26 2.95  34 2.98  32 2.98  33 2.98  30 2.98  31 2.98
                            29 2.98
  29  0.334  0.009  0.564-  30 2.85  31 2.86  36 2.87  20 2.96  35 2.98  28 2.98  27 2.99  26 3.03
                            34 3.10
  30  0.657  0.009  0.564-  29 2.85  32 2.86  36 2.87  21 2.96  35 2.98  28 2.98  27 2.99  25 3.03
                            33 3.10
  31  0.009  0.334  0.564-  33 2.85  29 2.86  36 2.87  20 2.96  35 2.98  28 2.98  22 2.99  19 3.03
                            32 3.10
  32  0.657  0.334  0.564-  34 2.85  30 2.86  36 2.87  21 2.96  35 2.98  28 2.98  24 2.99  19 3.03
                            31 3.10
  33  0.009  0.657  0.564-  31 2.85  34 2.86  36 2.87  23 2.96  35 2.98  28 2.98  22 2.99  25 3.03
                            30 3.10
  34  0.334  0.657  0.564-  32 2.85  33 2.86  36 2.87  23 2.96  35 2.98  28 2.98  24 2.99  26 3.03
                            29 3.10
  35  0.667  0.667  0.563-  24 2.96  27 2.96  22 2.96  29 2.98  34 2.98  32 2.98  31 2.98  30 2.98
                            33 2.98
  36  0.333  0.333  0.552-  37 1.71  20 2.76  23 2.76  21 2.76  33 2.87  31 2.87  29 2.87  30 2.87
                            34 2.87  32 2.87
  37  0.333  0.333  0.629-  36 1.71

  LATTYP: Found a hexagonal cell.
 ALAT       =     8.8135128021
 C/A-ratio  =     2.5184286595

  Lattice vectors:

 A1 = (  -4.4067569092,  -7.6327256898,   0.0000000000)
 A2 = (   8.8135128021,   0.0000000000,   0.0000000000)
 A3 = (   0.0000000000,   0.0000000000,  22.1962032318)

Analysis of symmetry for initial positions (statically):
 Subroutine PRICEL returns:
 Original cell was already a primitive cell.

 Routine SETGRP: Setting up the symmetry group for a
 hexagonal supercell.

 Subroutine GETGRP returns: Found  6 space group operations
 (whereof  6 operations were pure point group operations)
 out of a pool of 24 trial point group operations.

The static configuration has the point symmetry C_3v.

Analysis of symmetry for dynamics (positions and initial velocities):
 Subroutine PRICEL returns:
 Original cell was already a primitive cell.

[...]

The dynamic configuration has the point symmetry C_3v.

Analysis of constrained symmetry for selective dynamics:
 Subroutine PRICEL returns:
 Original cell was already a primitive cell.

 Routine SETGRP: Setting up the symmetry group for a
 hexagonal supercell.

 Subroutine GETGRP returns: Found  6 space group operations
 (whereof  6 operations were pure point group operations)
 out of a pool of 24 trial point group operations.

[...]
     24      -5.1264      2.00000
     25      -5.1101      2.00000
     26      -5.0775      2.00000
     27      -5.0086      2.00000
     28      -4.9842      2.00000
     29      -4.8689      2.00000
     30      -4.8660      2.00000
     31      -4.8558      2.00000
     32      -4.8294      2.00000
     33      -4.8128      2.00000
     34      -4.8094      2.00000
     35      -4.7275      2.00000
     36      -4.7053      2.00000
     37      -4.6352      2.00000
     38      -4.6106      2.00000
     39      -4.5526      2.00000
     40      -4.4907      2.00000
     41      -4.4599      2.00000
     42      -4.4158      2.00000
     43      -4.3966      2.00000
     44      -4.3912      2.00000
     45      -4.3577      2.00000
     46      -4.2708      2.00000
     47      -4.2661      2.00000
     48      -4.2286      2.00000
     49      -4.2006      2.00000
     50      -4.1896      2.00000
     51      -4.1846      2.00000
     52      -4.1622      2.00000
     53      -4.1458      2.00000
     54      -4.0997      2.00000
     55      -4.0791      2.00000
     56      -4.0605      2.00000
     57      -4.0545      2.00000
     58      -4.0386      2.00000
     59      -4.0294      2.00000
     60      -4.0095      2.00000
[...]
    238       6.5770      0.00000
    239       6.6449      0.00000
    240       6.6819      0.00000
    241       6.7547      0.00000
    242       6.7700      0.00000
    243       7.0276      0.00000
    244       7.0876      0.00000
    245       7.2302      0.00000
    246       7.5592      0.00000
    247       7.5764      0.00000
    248       7.6338      0.00000
    249       7.7681      0.00000
    250       7.8047      0.00000
    251       7.9011      0.00000
    252       7.9081      0.00000

 soft charge-density along one line, spin component           1
         0         1         2         3         4         5         6         7         8         9
 total charge-density along one line

------------------------ aborting loop because EDIFF is reached ----------------------------------------

 total charge

# of ion       s       p       d       tot
    1        0.549   0.237   8.767   9.553
    2        0.541   0.241   8.766   9.548
    3        0.541   0.241   8.766   9.548
    4        0.541   0.241   8.766   9.548
    5        0.544   0.240   8.762   9.547
    6        0.541   0.241   8.766   9.548
    7        0.541   0.241   8.766   9.548
    8        0.541   0.241   8.766   9.548
    9        0.543   0.240   8.767   9.550
   10        0.523   0.306   8.771   9.600
   11        0.518   0.307   8.778   9.604
   12        0.523   0.306   8.771   9.600
   13        0.518   0.307   8.778   9.604
   14        0.518   0.307   8.778   9.604
   15        0.517   0.309   8.773   9.599
   16        0.523   0.306   8.771   9.600
   17        0.517   0.309   8.773   9.599
   18        0.517   0.309   8.773   9.599
   19        0.520   0.297   8.772   9.588
   20        0.560   0.327   8.741   9.629
   21        0.560   0.327   8.741   9.629
   22        0.511   0.308   8.773   9.592
   23        0.560   0.327   8.741   9.629
   24        0.511   0.308   8.773   9.592
   25        0.520   0.297   8.772   9.588
   26        0.520   0.297   8.772   9.588
   27        0.511   0.308   8.773   9.592
   28        0.541   0.228   8.756   9.525
   29        0.582   0.236   8.738   9.556
   30        0.582   0.236   8.738   9.556
   31        0.582   0.236   8.738   9.556
   32        0.582   0.236   8.738   9.556
   33        0.582   0.236   8.738   9.556
   34        0.582   0.236   8.738   9.556
   35        0.538   0.229   8.759   9.526
   36        0.455   0.601   2.247   3.304
   37        0.516   0.006   0.000   0.522
tot         19.875  10.209 308.906 338.991

  FORCE on cell =-STRESS in cart. coord.  units (eV):
  Direction    XX          YY          ZZ          XY          YZ          ZX
  Alpha Z   991.66465   991.66465   991.66465
  Ewald  116545.98585116545.98622************    -0.00034    -0.00009    -0.00017
  Hartree125011.65304125011.65303************    -0.00000    -0.00003    -0.00005
  E(xc)   -1745.00890 -1745.00888 -1753.38505    -0.00001    -0.00000    -0.00000
  Local  ************************253788.33660     0.00173     0.00005     0.00010
  n-local   -74.38792   -28.38508   -24.76766    22.50461    -1.76703     1.42216
  augment  2368.91786  2368.91938  2388.35241    -0.00132     0.00001     0.00002
  Kinetic  5370.47253  5376.96127  5434.54065     3.81298     0.35660     0.00510
  Fock        0.00000     0.00000     0.00000     0.00000     0.00000     0.00000
  Total     -21.48917   -21.48917     2.98539    -0.00000     0.00000     0.00000
  in kB     -23.05806   -23.05806     3.20335    -0.00000     0.00000     0.00000

 VOLUME and BASIS-vectors are now :
  energy-cutoff  :      500.00
  volume of cell :     1493.16
      direct lattice vectors                 reciprocal lattice vectors
     8.813512802  0.000000000  0.000000000     0.113462137 -0.065507406  0.000000000
     4.406756909  7.632725690  0.000000000     0.000000000  0.131014796  0.000000000
     0.000000000  0.000000000 22.196203232     0.000000000  0.000000000  0.045052750

  length of vectors
     8.813512802  8.813512802 22.196203232     0.131014796  0.131014796  0.045052750

 FORCES acting on ions
    electron-ion (+dipol)            ewald-force                    non-local-force                 convergence-correction
   -.196E-04 -.162E-04 0.245E+04   0.518E-04 0.432E-04 -.245E+04   0.896E-17 0.340E-17 -.492E+00   -.180E-03 -.118E-03 -.222E+00
   0.656E-02 -.451E+00 0.245E+04   -.574E-01 0.378E+00 -.245E+04   0.519E-02 0.545E-01 -.362E+00   0.413E-01 0.919E-02 -.280E+00
   -.662E-02 -.451E+00 0.245E+04   0.573E-01 0.378E+00 -.245E+04   -.519E-02 0.545E-01 -.362E+00   -.411E-01 0.111E-01 -.279E+00
   -.387E+00 0.231E+00 0.245E+04   0.299E+00 -.239E+00 -.245E+04   0.498E-01 -.228E-01 -.362E+00   0.287E-01 0.311E-01 -.280E+00
   0.701E-05 -.241E-04 0.245E+04   0.951E-04 0.172E-05 -.245E+04   0.774E-17 -.363E-17 -.259E+00   0.424E-02 0.258E-02 -.253E+00
   0.387E+00 0.231E+00 0.245E+04   -.299E+00 -.239E+00 -.245E+04   -.498E-01 -.228E-01 -.362E+00   -.302E-01 0.321E-01 -.279E+00
   -.393E+00 0.220E+00 0.245E+04   0.356E+00 -.139E+00 -.245E+04   0.446E-01 -.317E-01 -.362E+00   -.108E-01 -.411E-01 -.279E+00
   0.393E+00 0.220E+00 0.245E+04   -.356E+00 -.139E+00 -.245E+04   -.446E-01 -.317E-01 -.362E+00   0.127E-01 -.422E-01 -.279E+00
   0.197E-04 -.417E-04 0.245E+04   0.166E-03 -.199E-04 -.245E+04   -.780E-18 0.134E-17 -.347E+00   -.461E-02 -.238E-02 -.317E+00
   -.891E+00 -.514E+00 0.776E+03   0.105E+01 0.606E+00 -.775E+03   -.219E+00 -.126E+00 -.490E+00   0.301E-01 0.173E-01 -.728E-01
   0.139E-04 -.227E+01 0.774E+03   0.148E-03 0.206E+01 -.774E+03   0.427E-08 0.642E-01 -.232E+00   0.363E-02 0.750E-01 -.518E-01
   0.891E+00 -.514E+00 0.776E+03   -.105E+01 0.606E+00 -.775E+03   0.219E+00 -.126E+00 -.490E+00   -.312E-01 0.183E-01 -.738E-01
   -.196E+01 0.113E+01 0.774E+03   0.179E+01 -.103E+01 -.774E+03   0.556E-01 -.321E-01 -.232E+00   0.670E-01 -.341E-01 -.518E-01
   0.196E+01 0.113E+01 0.774E+03   -.179E+01 -.103E+01 -.774E+03   -.556E-01 -.321E-01 -.232E+00   -.597E-01 -.346E-01 -.528E-01
   0.324E-04 0.321E+01 0.780E+03   0.235E-03 -.323E+01 -.779E+03   0.722E-09 0.109E-01 -.413E+00   -.207E-02 -.188E-01 -.726E-01
   -.206E-04 0.103E+01 0.776E+03   0.162E-03 -.121E+01 -.775E+03   0.168E-07 0.253E+00 -.490E+00   0.351E-04 -.362E-01 -.739E-01
   0.278E+01 -.160E+01 0.780E+03   -.280E+01 0.162E+01 -.779E+03   0.940E-02 -.543E-02 -.413E+00   -.170E-01 0.803E-02 -.726E-01
   -.278E+01 -.160E+01 0.780E+03   0.280E+01 0.161E+01 -.779E+03   -.940E-02 -.543E-02 -.413E+00   0.171E-01 0.961E-02 -.727E-01
   -.421E-04 -.498E+01 -.902E+03   0.565E-04 0.496E+01 0.901E+03   0.242E-09 0.363E-02 0.667E+00   0.352E-02 -.260E-02 0.201E+00
   -.230E+02 -.133E+02 -.929E+03   0.238E+02 0.137E+02 0.929E+03   -.110E+01 -.636E+00 -.847E+00   0.153E+00 0.884E-01 0.412E+00
   0.230E+02 -.133E+02 -.929E+03   -.238E+02 0.137E+02 0.929E+03   0.110E+01 -.636E+00 -.847E+00   -.154E+00 0.894E-01 0.411E+00
   -.180E+02 0.104E+02 -.897E+03   0.176E+02 -.102E+02 0.897E+03   0.323E+00 -.187E+00 0.636E+00   0.990E-01 -.586E-01 0.187E+00
   -.755E-05 0.265E+02 -.929E+03   0.137E-03 -.275E+02 0.929E+03   0.847E-07 0.127E+01 -.847E+00   0.136E-03 -.178E+00 0.411E+00
   0.180E+02 0.104E+02 -.897E+03   -.176E+02 -.102E+02 0.897E+03   -.323E+00 -.187E+00 0.636E+00   -.993E-01 -.573E-01 0.187E+00
   0.431E+01 0.249E+01 -.902E+03   -.429E+01 -.248E+01 0.901E+03   -.314E-02 -.181E-02 0.667E+00   0.734E-02 0.418E-02 0.201E+00
   -.431E+01 0.249E+01 -.902E+03   0.429E+01 -.248E+01 0.901E+03   0.314E-02 -.181E-02 0.667E+00   -.166E-03 0.438E-02 0.201E+00
   0.708E-05 -.208E+02 -.897E+03   0.200E-03 0.203E+02 0.897E+03   0.249E-07 0.374E+00 0.636E+00   -.177E-02 0.115E+00 0.188E+00
   -.883E-05 -.100E-04 -.246E+04   0.265E-04 0.295E-04 0.245E+04   -.490E-18 -.318E-18 0.527E+00   0.322E-03 0.171E-03 0.375E+00
   -.166E+02 -.348E+02 -.247E+04   0.174E+02 0.361E+02 0.247E+04   -.103E+01 -.161E+01 0.126E+00   0.172E+00 0.230E+00 0.412E+00
   0.166E+02 -.348E+02 -.247E+04   -.174E+02 0.361E+02 0.247E+04   0.103E+01 -.161E+01 0.126E+00   -.172E+00 0.231E+00 0.413E+00
   -.385E+02 0.303E+01 -.247E+04   0.400E+02 -.296E+01 0.247E+04   -.190E+01 -.847E-01 0.126E+00   0.285E+00 0.340E-01 0.412E+00
   0.385E+02 0.303E+01 -.247E+04   -.400E+02 -.296E+01 0.247E+04   0.190E+01 -.847E-01 0.126E+00   -.286E+00 0.352E-01 0.412E+00
   -.219E+02 0.318E+02 -.247E+04   0.226E+02 -.332E+02 0.247E+04   -.879E+00 0.169E+01 0.126E+00   0.114E+00 -.265E+00 0.413E+00
   0.219E+02 0.318E+02 -.247E+04   -.226E+02 -.332E+02 0.247E+04   0.879E+00 0.169E+01 0.126E+00   -.112E+00 -.265E+00 0.412E+00
   0.322E-04 -.344E-04 -.246E+04   0.145E-03 -.447E-04 0.246E+04   0.166E-17 0.111E-17 0.560E+00   -.452E-02 -.231E-02 0.415E+00
   -.231E-04 0.190E-05 -.848E+03   0.413E-04 0.374E-05 0.849E+03   0.589E-19 -.355E-18 -.126E+01   0.272E-03 0.165E-03 0.169E+00
   0.525E-05 -.358E-05 -.257E+03   0.419E-05 0.268E-06 0.259E+03   -.187E-18 0.152E-19 -.186E+01   0.525E-04 0.314E-04 -.265E-01
   -.819E-03 -.783E-03 0.444E+01   -.898E-13 0.191E-12 0.136E-11   -.332E-15 -.443E-15 -.658E+01   0.135E-01 0.834E-02 0.275E+01

 POSITION                                       TOTAL-FORCE (eV/Angst)
      0.00000      0.00000      5.28038        -0.000000     -0.000000     -0.162397
      2.93784      0.00000      5.28038        -0.003814     -0.007839     -0.050790
      5.87568      0.00000      5.28038         0.003814     -0.007839     -0.050790
      1.46892      2.54424      5.28038        -0.008696      0.000616     -0.050790
      4.40676      2.54424      5.28038        -0.000000      0.000000     -0.068712
      7.34459      2.54424      5.28038         0.008696      0.000616     -0.050790
      2.93784      5.08848      5.28038        -0.004882      0.007223     -0.050790
      5.87568      5.08848      5.28038         0.004882      0.007223     -0.050790
      8.81351      5.08848      5.28038        -0.000000      0.000000     -0.074256
      1.46892      0.84808      7.67911        -0.029045     -0.016769      0.057852
      4.40676      0.84808      7.67911        -0.000000     -0.067105      0.022658
      7.34459      0.84808      7.67911         0.029045     -0.016769      0.057852
      2.93784      3.39232      7.67911        -0.058115      0.033553      0.022658
      5.87568      3.39232      7.67911         0.058115      0.033553      0.022658
      8.81351      3.39232      7.67911        -0.000000     -0.030489      0.114519
      4.40676      5.93656      7.67911         0.000000      0.033538      0.057852
      7.34459      5.93656      7.67911        -0.026405      0.015245      0.114519
     10.28243      5.93656      7.67911         0.026405      0.015245      0.114519
      8.81351      1.69614     10.07331        -0.000000     -0.024321     -0.005582
      2.94950      1.70289     10.06400        -0.100722     -0.058152     -0.112173
      5.86402      1.70289     10.06400         0.100722     -0.058152     -0.112173
     10.27143      4.24676     10.06599         0.039680     -0.022909      0.030965
      4.40676      4.22694     10.06400         0.000000      0.116303     -0.112173
      7.35560      4.24676     10.06599        -0.039680     -0.022909      0.030965
     11.75137      6.78466     10.07331         0.021063      0.012161     -0.005582
      5.87566      6.78466     10.07331        -0.021063      0.012161     -0.005582
      8.81351      6.77194     10.06599         0.000000      0.045818      0.030965
      0.00000      0.00000     12.49013        -0.000000      0.000000      0.006654
      2.98093      0.06833     12.52966        -0.030211     -0.078777     -0.080094
      5.83259      0.06833     12.52966         0.030211     -0.078777     -0.080094
      1.54964      2.54739     12.52966        -0.083328      0.013225     -0.080094
      7.26387      2.54739     12.52966         0.083328      0.013225     -0.080094
      2.97547      5.01700     12.52966        -0.053117      0.065552     -0.080094
      5.83804      5.01700     12.52966         0.053117      0.065552     -0.080094
      8.81351      5.08848     12.50181        -0.000000      0.000000      0.014586
      4.40676      2.54424     12.25739        -0.000000     -0.000000      0.759359
      4.40676      2.54424     13.96355        -0.000000     -0.000000     -0.014647
    total drift:                                0.012655      0.007560      0.601990

  FREE ENERGIE OF THE ION-ELECTRON SYSTEM (eV)
  free  energy   TOTEN  =      -117.87893215 eV

  energy  without entropy=     -117.87893215  energy(sigma->0) =     -117.87893215

 stress matrix after NEB project (eV)
    -21.48917     -0.00000      0.00000
     -0.00000    -21.48917      0.00000
      0.00000      0.00000      2.98539
  FORCES: max atom, RMS     0.014647    0.002408
  FORCE total and by dimension    0.014647    0.014647
  Stress total and by dimension   30.536557   21.489170
|           W    W    AA    RRRRR   N    N  II  N    N   GGGG   !!!           |
|           W    W   A  A   R    R  NN   N  II  NN   N  G    G  !!!           |
|           W    W  A    A  R    R  N N  N  II  N N  N  G       !!!           |
|           W WW W  AAAAAA  RRRRR   N  N N  II  N  N N  G  GGG   !            |
|           WW  WW  A    A  R   R   N   NN  II  N   NN  G    G                |
|           W    W  A    A  R    R  N    N  II  N    N   GGGG   !!!           |
|     Tetrahedron method does not include variations of the Fermi             |
|     occupations, so forces and stress will be inaccurate. We suggest        |
|     using a different smearing scheme ISMEAR = 1 or 2 for metals in         |
|     relaxations.                                                            |

 total charge

# of ion       s       p       d       tot
    1        0.549   0.237   8.767   9.553
    2        0.541   0.241   8.766   9.548
    3        0.541   0.241   8.766   9.548
    4        0.541   0.241   8.766   9.548
    5        0.544   0.240   8.762   9.547
    6        0.541   0.241   8.766   9.548
    7        0.541   0.241   8.766   9.548
    8        0.541   0.241   8.766   9.548
    9        0.543   0.240   8.767   9.550
   10        0.523   0.306   8.771   9.600
   11        0.518   0.307   8.778   9.604
   12        0.523   0.306   8.771   9.600
   13        0.518   0.307   8.778   9.604
   14        0.518   0.307   8.778   9.604
   15        0.517   0.309   8.773   9.599
   16        0.523   0.306   8.771   9.600
   17        0.517   0.309   8.773   9.599
   18        0.517   0.309   8.773   9.599
   19        0.520   0.297   8.772   9.588
   20        0.560   0.327   8.741   9.629
   21        0.560   0.327   8.741   9.629
   22        0.511   0.308   8.773   9.592
   23        0.560   0.327   8.741   9.629
   24        0.511   0.308   8.773   9.592
   25        0.520   0.297   8.772   9.588
   26        0.520   0.297   8.772   9.588
   27        0.511   0.308   8.773   9.592
   28        0.541   0.228   8.756   9.525
   29        0.582   0.236   8.738   9.556
   30        0.582   0.236   8.738   9.556
   31        0.582   0.236   8.738   9.556
   32        0.582   0.236   8.738   9.556
   33        0.582   0.236   8.738   9.556
   34        0.582   0.236   8.738   9.556
   35        0.538   0.229   8.759   9.526
   36        0.455   0.601   2.247   3.304
   37        0.516   0.006   0.000   0.522
tot         19.875  10.209 308.906 338.991

 BZINTS: Fermi energy:    0.609290;  390.000000 electrons
         Band energy:-0.121970E+04;  BLOECHL correction:   -0.053051