 vasp.6.2.0 18Jan21 (build Jun 12 2021 23:27:24) complex

 executed on             LinuxIFC date 2022.05.26  19:36:17

 INCAR:
   ISMEAR = -5
   SIGMA = 0.1
   ISPIN = 1
   EDIFF = 1.d-5
   EDIFFG = -0.01
   NSW = 0
   NELM = 150
   ENCUT = 500
   ISIF = 2
   IBRION = 2
   LREAL = Auto
   ALGO = Fast
   ICHARG = 11
   LORBIT = 10
   LCHARG = .F.
   LWAVE = .F.

 POTCAR:    PAW_PBE Au 04Oct2007
 POTCAR:    PAW_PBE Pt 04Feb2005
 POTCAR:    PAW_PBE N 08Apr2002
|           W    W    AA    RRRRR   N    N  II  N    N   GGGG   !!!           |
|           W    W   A  A   R    R  NN   N  II  NN   N  G    G  !!!           |
|           W    W  A    A  R    R  N N  N  II  N N  N  G       !!!           |
|           W WW W  AAAAAA  RRRRR   N  N N  II  N  N N  G  GGG   !            |
|           WW  WW  A    A  R   R   N   NN  II  N   NN  G    G                |
|           W    W  A    A  R    R  N    N  II  N    N   GGGG   !!!           |
|     For optimal performance we recommend to set                             |
|       NCORE = 2 up to number-of-cores-per-socket                            |
|     This setting can greatly improve the performance of VASP for DFT.       |
|     The default, NCORE=1 might be grossly inefficient on modern             |
|     multi-core architectures or massively parallel machines. Do your        |
|     Unfortunately you need to use the default for GW and RPA                |
|     calculations (for HF NCORE is supported but not extensively tested      |
|     yet).                                                                   |

 POTCAR:    PAW_PBE Au 04Oct2007
   VRHFIN =Au: s1d10

   TITEL  = PAW_PBE Au 04Oct2007
   POMASS =  196.966; ZVAL   =   11.000    mass and valenz
   ENMAX  =  229.943; ENMIN  =  172.457 eV

 POTCAR:    PAW_PBE Pt 04Feb2005
   VRHFIN =Pt: s1d9

   TITEL  = PAW_PBE Pt 04Feb2005
   POMASS =  195.080; ZVAL   =   10.000    mass and valenz
   ENMAX  =  230.283; ENMIN  =  172.712 eV

 POTCAR:    PAW_PBE N 08Apr2002
   VRHFIN =N: s2p3

   TITEL  = PAW_PBE N 08Apr2002
   POMASS =   14.001; ZVAL   =    5.000    mass and valenz
   ENMAX  =  400.000; ENMIN  =  300.000 eV

 Optimization of the real space projectors (new method)

 maximal supplied QI-value         = 15.12
 optimisation between [QCUT,QGAM] = [ 11.34, 22.83] = [ 36.00,145.93] Ry
 Optimized for a Real-space Cutoff    1.39 Angstroem

   l    n(q)    QCUT    max X(q) W(low)/X(q) W(high)/X(q)  e(spline)
   2      9    11.338    60.898    0.39E-03    0.42E-03    0.21E-06
   2      9    11.338    58.894    0.40E-03    0.42E-03    0.22E-06
   0      9    11.338   109.617    0.13E-03    0.20E-04    0.13E-06
   0      9    11.338    75.026    0.13E-03    0.20E-04    0.13E-06
   1      9    11.338    16.344    0.33E-04    0.24E-03    0.18E-06
   1      9    11.338    10.160    0.26E-04    0.19E-03    0.15E-06
 Optimization of the real space projectors (new method)

[...]

   l    n(q)    QCUT    max X(q) W(low)/X(q) W(high)/X(q)  e(spline)
   2      9    11.346    66.195    0.31E-03    0.12E-04    0.29E-06
   2      9    11.346    64.643    0.32E-03    0.12E-04    0.29E-06
   0     10    11.346    95.520    0.90E-04    0.16E-04    0.19E-06
   0     10    11.346    63.403    0.87E-04    0.15E-04    0.19E-06
   1     10    11.346    19.961    0.17E-03    0.21E-03    0.11E-06
   1     10    11.346    13.289    0.14E-03    0.18E-03    0.89E-07
 Optimization of the real space projectors (new method)

 maximal supplied QI-value         = 25.13
 optimisation between [QCUT,QGAM] = [ 11.31, 22.87] = [ 35.82,146.48] Ry
 Optimized for a Real-space Cutoff    1.27 Angstroem

   l    n(q)    QCUT    max X(q) W(low)/X(q) W(high)/X(q)  e(spline)
   0      9    11.310    79.467    0.75E-04    0.16E-03    0.36E-06
   0      9    11.310    66.151    0.74E-04    0.16E-03    0.36E-06
   1      8    11.310    17.416    0.35E-03    0.12E-03    0.95E-06
   1      8    11.310    12.382    0.37E-03    0.13E-03    0.98E-06
  PAW_PBE Au 04Oct2007                  :
  PAW_PBE Pt 04Feb2005                  :
  PAW_PBE N 08Apr2002                   :

 POSCAR: Au-Pt-N
  positions in direct lattice
  velocities in cartesian coordinates
 exchange correlation table for  LEXCH =        8
   RHO(1)=    0.500       N(1)  =     2000
   RHO(2)=  100.500       N(2)  =     4000

 VTST: version 3.2, (02/03/18)

 CHAIN: initializing optimizer

 OPT: Using VASP Conjugate-Gradient optimizer
 CHAIN: Read ICHAIN            0

 POSCAR: Au-Pt-N
  positions in direct lattice
  velocities in cartesian coordinates

 ion  position               nearest neighbor table
   1  0.000  0.000  0.238-  16 2.94  12 2.94   6 2.94   8 2.94   7 2.94   3 2.94  10 2.94   4 2.94
                             2 2.94
   2  0.333  0.000  0.238-   9 2.94  11 2.94  17 2.94  10 2.94   8 2.94   4 2.94   5 2.94   1 2.94
                             3 2.94
   3  0.667  0.000  0.238-   7 2.94  18 2.94  12 2.94   1 2.94  11 2.94   5 2.94   6 2.94   9 2.94
                             2 2.94
   4  0.000  0.333  0.238-  10 2.94   6 2.94   5 2.94  13 2.94   2 2.94  15 2.94   9 2.94   1 2.94
                             7 2.94
   5  0.333  0.333  0.238-  13 2.94   7 2.94  11 2.94   4 2.94   2 2.94  14 2.94   3 2.94   8 2.94
                             6 2.94
   6  0.667  0.333  0.238-  15 2.94  14 2.94   1 2.94  12 2.94   4 2.94   9 2.94   8 2.94   3 2.94
                             5 2.94
   7  0.000  0.667  0.238-  18 2.94   3 2.94  16 2.94   5 2.94   1 2.94  13 2.94   8 2.94   4 2.94
                             9 2.94
   8  0.333  0.667  0.238-   9 2.94  17 2.94   1 2.94   2 2.94  14 2.94  16 2.94   6 2.94   7 2.94
                             5 2.94
   9  0.667  0.667  0.238-   2 2.94   8 2.94  17 2.94   6 2.94  15 2.94   4 2.94   3 2.94  18 2.94
                             7 2.94
  10  0.111  0.111  0.346-  20 2.91  26 2.93  19 2.93  11 2.94  17 2.94   2 2.94   4 2.94   1 2.94
                            12 2.94  16 2.94  13 2.94  15 2.94
  11  0.444  0.111  0.346-  20 2.92  21 2.92  27 2.93  13 2.94   2 2.94  10 2.94  17 2.94   5 2.94
                             3 2.94  18 2.94  14 2.94  12 2.94
  12  0.778  0.111  0.346-  21 2.91  25 2.93  19 2.93  16 2.94  18 2.94   1 2.94  14 2.94  15 2.94
                             3 2.94   6 2.94  10 2.94  11 2.94
  13  0.111  0.444  0.346-  23 2.92  20 2.92  22 2.93   5 2.94  18 2.94  11 2.94   7 2.94   4 2.94
                            16 2.94  10 2.94  14 2.94  15 2.94
  14  0.444  0.444  0.346-  21 2.92  23 2.92  24 2.93  15 2.94   6 2.94  12 2.94   8 2.94  17 2.94
                             5 2.94  16 2.94  13 2.94  11 2.94
  15  0.778  0.444  0.346-  24 2.93  22 2.93  19 2.93  14 2.94   6 2.94  17 2.94  12 2.94   9 2.94
                             4 2.94  10 2.94  13 2.94  18 2.94
  16  0.111  0.778  0.346-  23 2.91  25 2.93  26 2.93  18 2.94  12 2.94   7 2.94   1 2.94   8 2.94
                            13 2.94  10 2.94  14 2.94  17 2.94
  17  0.444  0.778  0.346-  27 2.93  24 2.93  26 2.93   9 2.94  15 2.94   2 2.94  10 2.94  11 2.94
                             8 2.94  14 2.94  16 2.94  18 2.94
  18  0.778  0.778  0.346-  22 2.93  27 2.93  25 2.93  16 2.94   7 2.94  13 2.94  12 2.94   3 2.94
                            11 2.94   9 2.94  15 2.94  17 2.94
  19  0.889  0.222  0.454-  21 2.93  20 2.93  15 2.93  10 2.93  12 2.93  24 2.94  22 2.94  26 2.94
                            25 2.94  28 2.96  32 2.96  31 2.96
  20  0.221  0.221  0.453-  36 2.82  10 2.91  11 2.92  13 2.92  26 2.93  19 2.93  27 2.94  22 2.94
                            23 2.96  21 2.96  29 2.96  31 2.96
  21  0.557  0.221  0.453-  36 2.82  12 2.91  14 2.92  11 2.92  25 2.93  19 2.93  24 2.94  27 2.94
                            20 2.96  23 2.96  30 2.96  32 2.96
  22  0.888  0.556  0.454-  18 2.93  15 2.93  24 2.93  27 2.93  13 2.93  25 2.94  19 2.94  23 2.94
                            20 2.94  35 2.96  33 2.96  31 2.96
  23  0.221  0.557  0.453-  36 2.82  16 2.91  13 2.92  14 2.92  25 2.93  26 2.93  22 2.94  24 2.94
                            20 2.96  21 2.96  33 2.96  34 2.96
  24  0.556  0.556  0.454-  15 2.93  17 2.93  27 2.93  22 2.93  14 2.93  26 2.94  19 2.94  21 2.94
                            23 2.94  35 2.96  32 2.96  34 2.96
  25  0.889  0.889  0.454-  23 2.93  21 2.93  18 2.93  16 2.93  12 2.93  22 2.94  27 2.94  19 2.94
                            26 2.94  28 2.96  33 2.96  30 2.96
  26  0.222  0.889  0.454-  20 2.93  23 2.93  17 2.93  10 2.93  16 2.93  27 2.94  24 2.94  19 2.94
                            25 2.94  28 2.96  29 2.96  34 2.96
  27  0.556  0.888  0.454-  17 2.93  18 2.93  24 2.93  22 2.93  11 2.93  26 2.94  25 2.94  20 2.94
                            21 2.94  35 2.96  29 2.96  30 2.96
  28  0.000  0.000  0.563-  34 2.95  32 2.95  33 2.95  30 2.95  31 2.95  29 2.95  25 2.96  19 2.96
                            26 2.96
  29  0.333  0.002  0.563-  30 2.92  31 2.92  36 2.93  35 2.95  28 2.95  27 2.96  20 2.96  26 2.96
                            34 2.98
  30  0.664  0.002  0.563-  29 2.92  32 2.92  36 2.93  35 2.95  28 2.95  27 2.96  21 2.96  25 2.96
                            33 2.98
  31  0.002  0.333  0.563-  33 2.92  29 2.92  36 2.93  35 2.95  28 2.95  22 2.96  20 2.96  19 2.96
                            32 2.98
  32  0.664  0.333  0.563-  34 2.92  30 2.92  36 2.93  35 2.95  28 2.95  24 2.96  21 2.96  19 2.96
                            31 2.98
  33  0.002  0.664  0.563-  31 2.92  34 2.92  36 2.93  35 2.95  28 2.95  22 2.96  23 2.96  25 2.96
                            30 2.98
  34  0.333  0.664  0.563-  32 2.92  33 2.92  36 2.93  35 2.95  28 2.95  24 2.96  23 2.96  26 2.96
                            29 2.98
  35  0.667  0.667  0.563-  29 2.95  34 2.95  32 2.95  31 2.95  30 2.95  33 2.95  24 2.96  27 2.96
                            22 2.96
  36  0.333  0.333  0.554-  37 1.76  20 2.82  23 2.82  21 2.82  33 2.93  31 2.93  29 2.93  30 2.93
                            34 2.93  32 2.93
  37  0.333  0.333  0.633-  36 1.76

  LATTYP: Found a hexagonal cell.
 ALAT       =     8.8135128021
 C/A-ratio  =     2.5184286595

  Lattice vectors:

 A1 = (  -4.4067569092,  -7.6327256898,   0.0000000000)
 A2 = (   8.8135128021,   0.0000000000,   0.0000000000)
 A3 = (   0.0000000000,   0.0000000000,  22.1962032318)

Analysis of symmetry for initial positions (statically):
 Subroutine PRICEL returns:
 Original cell was already a primitive cell.

 Routine SETGRP: Setting up the symmetry group for a
 hexagonal supercell.

 Subroutine GETGRP returns: Found  6 space group operations
 (whereof  6 operations were pure point group operations)
 out of a pool of 24 trial point group operations.

The static configuration has the point symmetry C_3v.

Analysis of symmetry for dynamics (positions and initial velocities):
 Subroutine PRICEL returns:
 Original cell was already a primitive cell.

[...]

The dynamic configuration has the point symmetry C_3v.

Analysis of constrained symmetry for selective dynamics:
 Subroutine PRICEL returns:
 Original cell was already a primitive cell.

 Routine SETGRP: Setting up the symmetry group for a
 hexagonal supercell.

 Subroutine GETGRP returns: Found  6 space group operations
[...]
     24      -5.0811      2.00000
     25      -5.0588      2.00000
     26      -5.0367      2.00000
     27      -4.9848      2.00000
     28      -4.9229      2.00000
     29      -4.9212      2.00000
     30      -4.8557      2.00000
     31      -4.8190      2.00000
     32      -4.7896      2.00000
     33      -4.7587      2.00000
     34      -4.7513      2.00000
     35      -4.7146      2.00000
     36      -4.6991      2.00000
     37      -4.6775      2.00000
     38      -4.6236      2.00000
     39      -4.5885      2.00000
     40      -4.5838      2.00000
     41      -4.4935      2.00000
     42      -4.4560      2.00000
     43      -4.3859      2.00000
     44      -4.3677      2.00000
     45      -4.2789      2.00000
     46      -4.2597      2.00000
     47      -4.2229      2.00000
     48      -4.2057      2.00000
     49      -4.1651      2.00000
     50      -4.1314      2.00000
     51      -4.1112      2.00000
     52      -4.0899      2.00000
     53      -4.0794      2.00000
     54      -4.0753      2.00000
     55      -4.0500      2.00000
     56      -3.9935      2.00000
     57      -3.9741      2.00000
     58      -3.9590      2.00000
     59      -3.9311      2.00000
     60      -3.9218      2.00000
[...]
    238       6.5223      0.00000
    239       6.5598      0.00000
    240       6.5786      0.00000
    241       6.6816      0.00000
    242       6.7939      0.00000
    243       6.8388      0.00000
    244       6.8850      0.00000
    245       6.9275      0.00000
    246       7.1820      0.00000
    247       7.2170      0.00000
    248       7.3360      0.00000
    249       7.5133      0.00000
    250       7.6945      0.00000
    251       7.8067      0.00000
    252       7.8802      0.00000

 soft charge-density along one line, spin component           1
         0         1         2         3         4         5         6         7         8         9
 total charge-density along one line

------------------------ aborting loop because EDIFF is reached ----------------------------------------

 total charge

# of ion       s       p       d       tot
    1        0.543   0.239   8.769   9.551
    2        0.544   0.240   8.765   9.549
    3        0.544   0.240   8.765   9.549
    4        0.544   0.240   8.765   9.549
    5        0.542   0.242   8.763   9.547
    6        0.544   0.240   8.765   9.549
    7        0.544   0.240   8.765   9.549
    8        0.544   0.240   8.765   9.549
    9        0.541   0.241   8.763   9.545
   10        0.522   0.310   8.773   9.605
   11        0.517   0.311   8.776   9.604
   12        0.522   0.310   8.773   9.605
   13        0.517   0.311   8.776   9.604
   14        0.517   0.311   8.776   9.604
   15        0.515   0.308   8.779   9.602
   16        0.522   0.310   8.773   9.605
   17        0.515   0.308   8.779   9.602
   18        0.515   0.308   8.779   9.602
   19        0.516   0.307   8.772   9.595
   20        0.536   0.325   8.757   9.619
   21        0.536   0.325   8.757   9.619
   22        0.514   0.304   8.777   9.596
   23        0.536   0.325   8.757   9.619
   24        0.514   0.304   8.777   9.596
   25        0.516   0.307   8.772   9.595
   26        0.516   0.307   8.772   9.595
   27        0.514   0.304   8.777   9.596
   28        0.543   0.230   8.774   9.547
   29        0.525   0.239   8.776   9.540
   30        0.525   0.239   8.776   9.540
   31        0.525   0.239   8.776   9.540
   32        0.525   0.239   8.776   9.540
   33        0.525   0.239   8.776   9.540
   34        0.525   0.239   8.776   9.540
   35        0.540   0.233   8.769   9.542
   36        0.728   0.698   7.981   9.408
   37        1.356   2.086   0.000   3.442
tot         20.570  12.439 314.966 347.975

  FORCE on cell =-STRESS in cart. coord.  units (eV):
  Direction    XX          YY          ZZ          XY          YZ          ZX
  Alpha Z  1024.07446  1024.07446  1024.07446
  Ewald  119913.77677119913.77720************    -0.00033    -0.00008    -0.00013
  Hartree128716.83199128716.83200************     0.00000    -0.00002    -0.00003
  E(xc)   -1792.91634 -1792.91633 -1799.36228    -0.00001    -0.00000    -0.00000
  Local  ************************261211.92321     0.00200     0.00002    -0.00001
  n-local   -79.55117   -31.71231   -29.19277    23.91443    -1.29520     1.45272
  augment  2422.70049  2422.70206  2429.47811    -0.00136     0.00003     0.00009
  Kinetic  5587.60727  5592.52119  5616.91575     3.37685     0.67467     0.13239
  Fock        0.00000     0.00000     0.00000     0.00000     0.00000     0.00000
  Total     -18.74066   -18.74066     3.18096    -0.00000     0.00000    -0.00000
  in kB     -20.10889   -20.10888     3.41319    -0.00000     0.00000    -0.00000

 VOLUME and BASIS-vectors are now :
  energy-cutoff  :      500.00
  volume of cell :     1493.16
      direct lattice vectors                 reciprocal lattice vectors
     8.813512802  0.000000000  0.000000000     0.113462137 -0.065507406  0.000000000
     4.406756909  7.632725690  0.000000000     0.000000000  0.131014796  0.000000000
     0.000000000  0.000000000 22.196203232     0.000000000  0.000000000  0.045052750

  length of vectors
     8.813512802  8.813512802 22.196203232     0.131014796  0.131014796  0.045052750

 FORCES acting on ions
    electron-ion (+dipol)            ewald-force                    non-local-force                 convergence-correction
   -.195E-04 -.162E-04 0.250E+04   0.519E-04 0.433E-04 -.250E+04   0.504E-17 0.105E-17 -.846E+00   -.202E-03 -.130E-03 -.824E+00
   0.872E-01 0.345E+00 0.250E+04   -.229E+00 -.348E+00 -.250E+04   0.522E-01 0.466E-01 -.332E+00   0.832E-01 -.307E-01 -.755E+00
   -.872E-01 0.345E+00 0.250E+04   0.229E+00 -.348E+00 -.250E+04   -.522E-01 0.466E-01 -.332E+00   -.829E-01 -.287E-01 -.754E+00
   0.343E+00 -.971E-01 0.250E+04   -.416E+00 -.239E-01 -.250E+04   0.665E-01 0.219E-01 -.332E+00   0.151E-01 0.873E-01 -.755E+00
   0.833E-05 -.233E-04 0.250E+04   0.952E-04 0.171E-05 -.250E+04   0.357E-18 -.129E-17 -.337E+00   0.430E-02 0.262E-02 -.723E+00
   -.343E+00 -.971E-01 0.250E+04   0.416E+00 -.239E-01 -.250E+04   -.665E-01 0.219E-01 -.332E+00   -.166E-01 0.883E-01 -.754E+00
   0.255E+00 -.248E+00 0.250E+04   -.187E+00 0.372E+00 -.250E+04   0.143E-01 -.685E-01 -.332E+00   -.662E-01 -.574E-01 -.754E+00
   -.255E+00 -.248E+00 0.250E+04   0.187E+00 0.372E+00 -.250E+04   -.143E-01 -.685E-01 -.332E+00   0.681E-01 -.585E-01 -.754E+00
   0.192E-04 -.416E-04 0.250E+04   0.166E-03 -.201E-04 -.250E+04   0.521E-17 -.151E-17 -.500E+00   -.464E-02 -.240E-02 -.748E+00
   0.361E+01 0.209E+01 0.857E+03   -.344E+01 -.198E+01 -.856E+03   -.232E+00 -.134E+00 -.653E+00   0.672E-01 0.387E-01 -.467E-01
   0.137E-04 0.313E+01 0.859E+03   0.149E-03 -.318E+01 -.859E+03   0.314E-08 0.472E-01 -.211E+00   0.381E-02 -.424E-01 -.391E-01
   -.361E+01 0.209E+01 0.857E+03   0.344E+01 -.198E+01 -.856E+03   0.232E+00 -.134E+00 -.653E+00   -.685E-01 0.402E-01 -.471E-01
   0.271E+01 -.157E+01 0.859E+03   -.275E+01 0.159E+01 -.859E+03   0.409E-01 -.236E-01 -.211E+00   -.345E-01 0.248E-01 -.391E-01
   -.271E+01 -.157E+01 0.859E+03   0.275E+01 0.159E+01 -.859E+03   -.409E-01 -.236E-01 -.211E+00   0.424E-01 0.243E-01 -.392E-01
   0.308E-04 0.358E+00 0.855E+03   0.236E-03 -.415E+00 -.855E+03   -.132E-08 -.198E-01 -.411E+00   -.240E-02 0.653E-01 -.970E-01
   -.213E-04 -.417E+01 0.857E+03   0.163E-03 0.397E+01 -.856E+03   0.178E-07 0.268E+00 -.653E+00   0.299E-03 -.795E-01 -.471E-01
   0.310E+00 -.179E+00 0.855E+03   -.359E+00 0.207E+00 -.855E+03   -.171E-01 0.990E-02 -.411E+00   0.556E-01 -.343E-01 -.970E-01
   -.310E+00 -.179E+00 0.855E+03   0.359E+00 0.207E+00 -.855E+03   0.171E-01 0.990E-02 -.411E+00   -.556E-01 -.324E-01 -.973E-01
   -.411E-04 0.150E+01 -.816E+03   0.528E-04 -.166E+01 0.814E+03   0.373E-08 0.561E-01 0.575E+00   -.356E-03 0.912E-01 0.854E+00
   0.121E+02 0.701E+01 -.782E+03   -.118E+02 -.680E+01 0.781E+03   -.498E+00 -.288E+00 -.131E+00   0.229E+00 0.132E+00 0.116E+01
   -.121E+02 0.701E+01 -.782E+03   0.118E+02 -.680E+01 0.781E+03   0.498E+00 -.288E+00 -.131E+00   -.228E+00 0.134E+00 0.116E+01
   0.432E+01 -.250E+01 -.809E+03   -.460E+01 0.265E+01 0.807E+03   0.181E+00 -.104E+00 0.701E+00   0.930E-01 -.579E-01 0.918E+00
   -.145E-04 -.140E+02 -.782E+03   0.145E-03 0.136E+02 0.781E+03   0.383E-07 0.575E+00 -.131E+00   0.195E-02 -.265E+00 0.116E+01
   -.432E+01 -.250E+01 -.809E+03   0.460E+01 0.265E+01 0.807E+03   -.181E+00 -.104E+00 0.701E+00   -.100E+00 -.577E-01 0.918E+00
   -.130E+01 -.748E+00 -.816E+03   0.144E+01 0.831E+00 0.814E+03   -.485E-01 -.280E-01 0.575E+00   -.773E-01 -.447E-01 0.853E+00
   0.130E+01 -.748E+00 -.816E+03   -.144E+01 0.831E+00 0.814E+03   0.485E-01 -.280E-01 0.575E+00   0.791E-01 -.459E-01 0.854E+00
   0.688E-05 0.499E+01 -.809E+03   0.201E-03 -.531E+01 0.807E+03   0.139E-07 0.208E+00 0.701E+00   -.421E-02 0.109E+00 0.918E+00
   -.109E-04 -.121E-04 -.246E+04   0.274E-04 0.337E-04 0.246E+04   0.540E-19 -.586E-19 0.360E+00   0.129E-02 0.726E-03 0.991E+00
   0.195E+02 0.326E+02 -.245E+04   -.202E+02 -.338E+02 0.244E+04   0.197E+00 0.487E+00 0.623E+00   0.252E+00 0.361E+00 0.991E+00
   -.195E+02 0.326E+02 -.245E+04   0.202E+02 -.338E+02 0.244E+04   -.197E+00 0.487E+00 0.623E+00   -.258E+00 0.363E+00 0.991E+00
   0.380E+02 0.634E+00 -.245E+04   -.393E+02 -.599E+00 0.244E+04   0.520E+00 -.734E-01 0.623E+00   0.439E+00 0.375E-01 0.991E+00
   -.380E+02 0.634E+00 -.245E+04   0.393E+02 -.599E+00 0.244E+04   -.520E+00 -.734E-01 0.623E+00   -.447E+00 0.386E-01 0.990E+00
   0.184E+02 -.332E+02 -.245E+04   -.191E+02 0.344E+02 0.244E+04   0.324E+00 -.414E+00 0.623E+00   0.186E+00 -.405E+00 0.991E+00
   -.184E+02 -.332E+02 -.245E+04   0.191E+02 0.344E+02 0.244E+04   -.324E+00 -.414E+00 0.623E+00   -.190E+00 -.406E+00 0.990E+00
   0.278E-04 -.285E-04 -.246E+04   0.148E-03 -.489E-04 0.246E+04   0.132E-17 -.902E-18 0.423E+00   -.359E-02 -.178E-02 0.941E+00
   0.268E-04 -.220E-04 -.195E+04   0.101E-03 0.891E-05 0.196E+04   -.774E-17 0.564E-17 -.403E+01   0.454E-02 0.273E-02 0.162E+01
   0.106E-03 -.614E-04 -.140E+04   0.187E-04 0.119E-05 0.142E+04   -.850E-18 -.198E-17 -.238E+02   0.205E-02 0.124E-02 -.227E-01
   -.580E-03 -.814E-03 0.172E+02   0.144E-13 0.124E-12 -.318E-11   -.118E-15 -.528E-16 -.273E+02   -.126E-01 -.659E-02 0.109E+02

 POSITION                                       TOTAL-FORCE (eV/Angst)
      0.00000      0.00000      5.28038         0.000000      0.000000     -0.075044
      2.93784      0.00000      5.28038        -0.005654      0.013999     -0.060126
      5.87568      0.00000      5.28038         0.005654      0.013999     -0.060126
      1.46892      2.54424      5.28038         0.009297     -0.011896     -0.060126
      4.40676      2.54424      5.28038         0.000000      0.000000     -0.051020
      7.34459      2.54424      5.28038        -0.009297     -0.011896     -0.060126
      2.93784      5.08848      5.28038         0.014951     -0.002103     -0.060126
      5.87568      5.08848      5.28038        -0.014951     -0.002103     -0.060126
      8.81351      5.08848      5.28038         0.000000      0.000000     -0.072329
      1.46892      0.84808      7.67911         0.013462      0.007772      0.123920
      4.40676      0.84808      7.67911        -0.000000     -0.040147      0.070524
      7.34459      0.84808      7.67911        -0.013462      0.007772      0.123920
      2.93784      3.39232      7.67911        -0.034768      0.020073      0.070524
      5.87568      3.39232      7.67911         0.034768      0.020073      0.070524
      8.81351      3.39232      7.67911        -0.000000     -0.011458      0.103388
      4.40676      5.93656      7.67911        -0.000000     -0.015544      0.123920
      7.34459      5.93656      7.67911        -0.009923      0.005729      0.103388
     10.28243      5.93656      7.67911         0.009923      0.005729      0.103388
      8.81351      1.69709     10.07334        -0.000000     -0.019039     -0.037017
      2.92757      1.69024     10.04824         0.102949      0.059437     -0.151245
      5.88594      1.69024     10.04824        -0.102949      0.059437     -0.151245
     10.27700      4.24354     10.06671         0.003512     -0.002027     -0.039954
      4.40676      4.25225     10.04824        -0.000000     -0.118875     -0.151245
      7.35003      4.24354     10.06671        -0.003512     -0.002027     -0.039954
     11.75055      6.78418     10.07334         0.016488      0.009520     -0.037017
      5.87648      6.78418     10.07334        -0.016488      0.009520     -0.037017
      8.81351      6.77837     10.06671         0.000000      0.004055     -0.039954
      0.00000      0.00000     12.49905         0.000000      0.000000     -0.043958
      2.94801      0.01573     12.49317        -0.203200     -0.353772     -0.077503
      5.86551      0.01573     12.49317         0.203200     -0.353772     -0.077503
      1.48763      2.54518     12.49317        -0.407976      0.000910     -0.077503
      7.32589      2.54518     12.49317         0.407976      0.000910     -0.077503
      2.94638      5.07181     12.49317        -0.204776      0.352862     -0.077503
      5.86714      5.07181     12.49317         0.204776      0.352862     -0.077503
      8.81351      5.08848     12.49660         0.000000      0.000000     -0.009794
      4.40676      2.54424     12.29817         0.000000      0.000000      0.846442
      4.40676      2.54424     14.05688         0.000000      0.000000      0.022625
    total drift:                               -0.013170     -0.007409      0.783765

  FREE ENERGIE OF THE ION-ELECTRON SYSTEM (eV)
  free  energy   TOTEN  =      -117.83123813 eV

  energy  without entropy=     -117.83123813  energy(sigma->0) =     -117.83123813

 stress matrix after NEB project (eV)
    -18.74066     -0.00000     -0.00000
     -0.00000    -18.74066      0.00000
     -0.00000      0.00000      3.18096
  FORCES: max atom, RMS     0.022625    0.003720
  FORCE total and by dimension    0.022625    0.022625
  Stress total and by dimension   26.693499   18.740657
|           W    W    AA    RRRRR   N    N  II  N    N   GGGG   !!!           |
|           W    W   A  A   R    R  NN   N  II  NN   N  G    G  !!!           |
|           W    W  A    A  R    R  N N  N  II  N N  N  G       !!!           |
|           W WW W  AAAAAA  RRRRR   N  N N  II  N  N N  G  GGG   !            |
|           WW  WW  A    A  R   R   N   NN  II  N   NN  G    G                |
|           W    W  A    A  R    R  N    N  II  N    N   GGGG   !!!           |
|     Tetrahedron method does not include variations of the Fermi             |
|     occupations, so forces and stress will be inaccurate. We suggest        |
|     using a different smearing scheme ISMEAR = 1 or 2 for metals in         |
|     relaxations.                                                            |

 total charge

# of ion       s       p       d       tot
    1        0.543   0.239   8.769   9.551
    2        0.544   0.240   8.765   9.549
    3        0.544   0.240   8.765   9.549
    4        0.544   0.240   8.765   9.549
    5        0.542   0.242   8.763   9.547
    6        0.544   0.240   8.765   9.549
    7        0.544   0.240   8.765   9.549
    8        0.544   0.240   8.765   9.549
    9        0.541   0.241   8.763   9.545
   10        0.522   0.310   8.773   9.605
   11        0.517   0.311   8.776   9.604
   12        0.522   0.310   8.773   9.605
   13        0.517   0.311   8.776   9.604
   14        0.517   0.311   8.776   9.604
   15        0.515   0.308   8.779   9.602
   16        0.522   0.310   8.773   9.605
   17        0.515   0.308   8.779   9.602
   18        0.515   0.308   8.779   9.602
   19        0.516   0.307   8.772   9.595
   20        0.536   0.325   8.757   9.619
   21        0.536   0.325   8.757   9.619
   22        0.514   0.304   8.777   9.596
   23        0.536   0.325   8.757   9.619
   24        0.514   0.304   8.777   9.596
   25        0.516   0.307   8.772   9.595
   26        0.516   0.307   8.772   9.595
   27        0.514   0.304   8.777   9.596
   28        0.543   0.230   8.774   9.547
   29        0.525   0.239   8.776   9.540
   30        0.525   0.239   8.776   9.540
   31        0.525   0.239   8.776   9.540
   32        0.525   0.239   8.776   9.540
   33        0.525   0.239   8.776   9.540
   34        0.525   0.239   8.776   9.540
   35        0.540   0.233   8.769   9.542
   36        0.728   0.698   7.981   9.408
   37        1.356   2.086   0.000   3.442
tot         20.570  12.439 314.966 347.975

 BZINTS: Fermi energy:    0.729451;  400.000000 electrons
         Band energy:-0.122538E+04;  BLOECHL correction:   -0.056923