 vasp.6.2.0 18Jan21 (build Jun 12 2021 23:27:24) complex

 executed on             LinuxIFC date 2022.05.30  16:26:05

 INCAR:
   ISMEAR = -5
   SIGMA = 0.1
   ISPIN = 1
   EDIFF = 1.d-5
   EDIFFG = -0.01
   NSW = 0
   NELM = 150
   ENCUT = 500
   ISIF = 2
   IBRION = 2
   LREAL = Auto
   ALGO = Fast
   ICHARG = 11
   LORBIT = 10
   LCHARG = .F.
   LWAVE = .F.

 POTCAR:    PAW_PBE Au 04Oct2007
 POTCAR:    PAW_PBE Hf 20Jan2003
 POTCAR:    PAW_PBE C 08Apr2002
|           W    W    AA    RRRRR   N    N  II  N    N   GGGG   !!!           |
|           W    W   A  A   R    R  NN   N  II  NN   N  G    G  !!!           |
|           W    W  A    A  R    R  N N  N  II  N N  N  G       !!!           |
|           W WW W  AAAAAA  RRRRR   N  N N  II  N  N N  G  GGG   !            |
|           WW  WW  A    A  R   R   N   NN  II  N   NN  G    G                |
|           W    W  A    A  R    R  N    N  II  N    N   GGGG   !!!           |
|     For optimal performance we recommend to set                             |
|       NCORE = 2 up to number-of-cores-per-socket                            |
|     This setting can greatly improve the performance of VASP for DFT.       |
|     The default, NCORE=1 might be grossly inefficient on modern             |
|     multi-core architectures or massively parallel machines. Do your        |
|     Unfortunately you need to use the default for GW and RPA                |
|     calculations (for HF NCORE is supported but not extensively tested      |
|     yet).                                                                   |

 POTCAR:    PAW_PBE Au 04Oct2007
   VRHFIN =Au: s1d10

   TITEL  = PAW_PBE Au 04Oct2007
   POMASS =  196.966; ZVAL   =   11.000    mass and valenz
   ENMAX  =  229.943; ENMIN  =  172.457 eV

 POTCAR:    PAW_PBE Hf 20Jan2003
   VRHFIN =Hf: 6s5d

   TITEL  = PAW_PBE Hf 20Jan2003
   POMASS =  178.490; ZVAL   =    4.000    mass and valenz
   ENMAX  =  220.334; ENMIN  =  165.250 eV

 POTCAR:    PAW_PBE C 08Apr2002
   VRHFIN =C: s2p2

   TITEL  = PAW_PBE C 08Apr2002
   POMASS =   12.011; ZVAL   =    4.000    mass and valenz
   ENMAX  =  400.000; ENMIN  =  300.000 eV

 Optimization of the real space projectors (new method)

 maximal supplied QI-value         = 15.12
 optimisation between [QCUT,QGAM] = [ 11.34, 22.83] = [ 36.00,145.93] Ry
 Optimized for a Real-space Cutoff    1.39 Angstroem

   l    n(q)    QCUT    max X(q) W(low)/X(q) W(high)/X(q)  e(spline)
   2      9    11.338    60.898    0.39E-03    0.42E-03    0.21E-06
   2      9    11.338    58.894    0.40E-03    0.42E-03    0.22E-06
   0      9    11.338   109.617    0.13E-03    0.20E-04    0.13E-06
   0      9    11.338    75.026    0.13E-03    0.20E-04    0.13E-06
   1      9    11.338    16.344    0.33E-04    0.24E-03    0.18E-06
   1      9    11.338    10.160    0.26E-04    0.19E-03    0.15E-06
 Optimization of the real space projectors (new method)

[...]

   l    n(q)    QCUT    max X(q) W(low)/X(q) W(high)/X(q)  e(spline)
   2     10    11.350    48.111    0.20E-03    0.11E-03    0.41E-06
   2     10    11.350    40.545    0.19E-03    0.10E-03    0.39E-06
   0     11    11.350   121.658    0.22E-04    0.19E-04    0.24E-06
   0     11    11.350    71.177    0.17E-04    0.17E-04    0.23E-06
   1     11    11.350    14.183    0.25E-03    0.43E-03    0.12E-05
   1     11    11.350     8.257    0.17E-03    0.29E-03    0.81E-06
 Optimization of the real space projectors (new method)

 maximal supplied QI-value         = 25.13
 optimisation between [QCUT,QGAM] = [ 11.31, 22.87] = [ 35.82,146.48] Ry
 Optimized for a Real-space Cutoff    1.00 Angstroem

   l    n(q)    QCUT    max X(q) W(low)/X(q) W(high)/X(q)  e(spline)
   0      7    11.310   115.676    0.43E-03    0.13E-02    0.19E-06
   0      7    11.310    87.132    0.43E-03    0.13E-02    0.18E-06
   1      6    11.310     4.429    0.42E-03    0.74E-03    0.11E-06
   1      6    11.310     2.733    0.34E-03    0.55E-03    0.92E-07
  PAW_PBE Au 04Oct2007                  :
  PAW_PBE Hf 20Jan2003                  :
  PAW_PBE C 08Apr2002                   :

 POSCAR: Au-Hf-C
  positions in direct lattice
  velocities in cartesian coordinates
 exchange correlation table for  LEXCH =        8
   RHO(1)=    0.500       N(1)  =     2000
   RHO(2)=  100.500       N(2)  =     4000

 VTST: version 3.2, (02/03/18)

 CHAIN: initializing optimizer

 OPT: Using VASP Conjugate-Gradient optimizer
 CHAIN: Read ICHAIN            0

 POSCAR: Au-Hf-C
  positions in direct lattice
  velocities in cartesian coordinates

 ion  position               nearest neighbor table
   1  0.000  0.000  0.217-  16 2.94  12 2.94   6 2.94   8 2.94   7 2.94   3 2.94  10 2.94   4 2.94
                             2 2.94
   2  0.333  0.000  0.217-   9 2.94  11 2.94  17 2.94  10 2.94   8 2.94   4 2.94   5 2.94   1 2.94
                             3 2.94
   3  0.667  0.000  0.217-   7 2.94  18 2.94  12 2.94   1 2.94  11 2.94   5 2.94   6 2.94   9 2.94
                             2 2.94
   4  0.000  0.333  0.217-  10 2.94   6 2.94   5 2.94  13 2.94   2 2.94  15 2.94   9 2.94   1 2.94
                             7 2.94
   5  0.333  0.333  0.217-  13 2.94   7 2.94  11 2.94   4 2.94   2 2.94  14 2.94   3 2.94   8 2.94
                             6 2.94
   6  0.667  0.333  0.217-  15 2.94  14 2.94   1 2.94  12 2.94   4 2.94   9 2.94   8 2.94   3 2.94
                             5 2.94
   7  0.000  0.667  0.217-  18 2.94   3 2.94  16 2.94   5 2.94   1 2.94  13 2.94   8 2.94   4 2.94
                             9 2.94
   8  0.333  0.667  0.217-   9 2.94  17 2.94   1 2.94   2 2.94  14 2.94  16 2.94   6 2.94   7 2.94
                             5 2.94
   9  0.667  0.667  0.217-   2 2.94   8 2.94  17 2.94   6 2.94  15 2.94   4 2.94   3 2.94  18 2.94
                             7 2.94
  10  0.111  0.111  0.316-  20 2.93  26 2.94  19 2.94  11 2.94  17 2.94   2 2.94   4 2.94   1 2.94
                            12 2.94  16 2.94  13 2.94  15 2.94
  11  0.444  0.111  0.316-  20 2.92  21 2.92  13 2.94   2 2.94  10 2.94  17 2.94   5 2.94   3 2.94
                            18 2.94  14 2.94  12 2.94  27 2.94
  12  0.778  0.111  0.316-  21 2.93  25 2.94  19 2.94  16 2.94  18 2.94   1 2.94  14 2.94  15 2.94
                             3 2.94   6 2.94  10 2.94  11 2.94
  13  0.111  0.444  0.316-  23 2.92  20 2.92   5 2.94  18 2.94  11 2.94   7 2.94   4 2.94  16 2.94
                            10 2.94  14 2.94  15 2.94  22 2.94
  14  0.444  0.444  0.316-  21 2.92  23 2.92  15 2.94   6 2.94  12 2.94   8 2.94  17 2.94   5 2.94
                            16 2.94  13 2.94  11 2.94  24 2.94
  15  0.778  0.444  0.316-  24 2.93  22 2.93  19 2.94  14 2.94   6 2.94  17 2.94  12 2.94   9 2.94
                             4 2.94  10 2.94  13 2.94  18 2.94
  16  0.111  0.778  0.316-  23 2.93  25 2.94  26 2.94  18 2.94  12 2.94   7 2.94   1 2.94   8 2.94
                            13 2.94  10 2.94  14 2.94  17 2.94
  17  0.444  0.778  0.316-  27 2.93  24 2.93  26 2.94   9 2.94  15 2.94   2 2.94  10 2.94  11 2.94
                             8 2.94  14 2.94  16 2.94  18 2.94
  18  0.778  0.778  0.316-  22 2.93  27 2.93  25 2.94  16 2.94   7 2.94  13 2.94  12 2.94   3 2.94
                            11 2.94   9 2.94  15 2.94  17 2.94
  19  0.889  0.222  0.414-  15 2.94  10 2.94  12 2.94  24 2.94  22 2.94  26 2.94  25 2.94  21 2.94
                            20 2.94  28 2.96  32 3.04  31 3.04
  20  0.223  0.223  0.414-  36 2.81  11 2.92  13 2.92  23 2.93  21 2.93  10 2.93  26 2.94  19 2.94
                            27 2.95  22 2.95  29 2.99  31 2.99
  21  0.555  0.223  0.414-  36 2.81  14 2.92  11 2.92  20 2.93  23 2.93  12 2.93  25 2.94  19 2.94
                            27 2.95  24 2.95  30 2.99  32 2.99
  22  0.887  0.556  0.414-  24 2.92  27 2.92  18 2.93  15 2.93  25 2.94  19 2.94  13 2.94  23 2.95
                            20 2.95  35 2.96  33 3.01  31 3.01
  23  0.223  0.555  0.414-  36 2.81  13 2.92  14 2.92  20 2.93  21 2.93  16 2.93  25 2.94  26 2.94
                            22 2.95  24 2.95  33 2.99  34 2.99
  24  0.556  0.556  0.414-  27 2.92  22 2.92  15 2.93  17 2.93  26 2.94  19 2.94  14 2.94  21 2.95
                            23 2.95  35 2.96  32 3.01  34 3.01
  25  0.889  0.889  0.414-  18 2.94  16 2.94  12 2.94  22 2.94  27 2.94  19 2.94  26 2.94  23 2.94
                            21 2.94  28 2.96  33 3.04  30 3.04
  26  0.222  0.889  0.414-  17 2.94  10 2.94  16 2.94  27 2.94  24 2.94  19 2.94  25 2.94  20 2.94
                            23 2.94  28 2.96  29 3.04  34 3.04
  27  0.556  0.887  0.414-  24 2.92  22 2.92  17 2.93  18 2.93  26 2.94  25 2.94  11 2.94  20 2.95
                            21 2.95  35 2.96  29 3.01  30 3.01
  28  0.000  0.000  0.514-  25 2.96  19 2.96  26 2.96  34 2.98  32 2.98  33 2.98  30 2.98  31 2.98
                            29 2.98
  29  0.334  0.008  0.517-  30 2.86  31 2.87  36 2.88  35 2.97  28 2.98  20 2.99  27 3.01  26 3.04
                            34 3.08
  30  0.658  0.008  0.517-  29 2.86  32 2.87  36 2.88  35 2.97  28 2.98  21 2.99  27 3.01  25 3.04
                            33 3.08
  31  0.008  0.334  0.517-  33 2.86  29 2.87  36 2.88  35 2.97  28 2.98  20 2.99  22 3.01  19 3.04
                            32 3.08
  32  0.658  0.334  0.517-  34 2.86  30 2.87  36 2.88  35 2.97  28 2.98  21 2.99  24 3.01  19 3.04
                            31 3.08
  33  0.008  0.658  0.517-  31 2.86  34 2.87  36 2.88  35 2.97  28 2.98  23 2.99  22 3.01  25 3.04
                            30 3.08
  34  0.334  0.658  0.517-  32 2.86  33 2.87  36 2.88  35 2.97  28 2.98  23 2.99  24 3.01  26 3.04
                            29 3.08
  35  0.667  0.667  0.514-  24 2.96  27 2.96  22 2.96  29 2.97  34 2.97  32 2.97  31 2.97  30 2.97
                            33 2.97
  36  0.333  0.333  0.506-  37 2.02  20 2.81  23 2.81  21 2.81  33 2.88  31 2.88  29 2.88  30 2.88
                            34 2.88  32 2.88
  37  0.333  0.333  0.589-  36 2.02

  LATTYP: Found a hexagonal cell.
 ALAT       =     8.8135128021
 C/A-ratio  =     2.7586513333

  Lattice vectors:

 A1 = (  -4.4067569092,  -7.6327256898,   0.0000000000)
 A2 = (   8.8135128021,   0.0000000000,   0.0000000000)
 A3 = (   0.0000000000,   0.0000000000,  24.3134088421)

Analysis of symmetry for initial positions (statically):
 Subroutine PRICEL returns:
 Original cell was already a primitive cell.

 Routine SETGRP: Setting up the symmetry group for a
 hexagonal supercell.

 Subroutine GETGRP returns: Found  6 space group operations
 (whereof  6 operations were pure point group operations)
 out of a pool of 24 trial point group operations.

The static configuration has the point symmetry C_3v.

Analysis of symmetry for dynamics (positions and initial velocities):
 Subroutine PRICEL returns:
 Original cell was already a primitive cell.

[...]

The dynamic configuration has the point symmetry C_3v.

Analysis of constrained symmetry for selective dynamics:
 Subroutine PRICEL returns:
 Original cell was already a primitive cell.

 Routine SETGRP: Setting up the symmetry group for a
 hexagonal supercell.

 Subroutine GETGRP returns: Found  6 space group operations
[...]
     24      -5.6826      2.00000
     25      -5.6516      2.00000
     26      -5.6315      2.00000
     27      -5.6061      2.00000
     28      -5.5438      2.00000
     29      -5.5184      2.00000
     30      -5.4293      2.00000
     31      -5.4126      2.00000
     32      -5.4025      2.00000
     33      -5.3548      2.00000
     34      -5.3416      2.00000
     35      -5.3295      2.00000
     36      -5.2761      2.00000
     37      -5.2657      2.00000
     38      -5.1480      2.00000
     39      -5.1305      2.00000
     40      -5.0714      2.00000
     41      -5.0190      2.00000
     42      -4.9880      2.00000
     43      -4.9544      2.00000
     44      -4.9320      2.00000
     45      -4.9130      2.00000
     46      -4.8852      2.00000
     47      -4.7988      2.00000
     48      -4.7801      2.00000
     49      -4.7561      2.00000
     50      -4.7239      2.00000
     51      -4.7136      2.00000
     52      -4.7094      2.00000
     53      -4.6987      2.00000
     54      -4.6784      2.00000
     55      -4.6324      2.00000
     56      -4.6060      2.00000
     57      -4.5868      2.00000
     58      -4.5825      2.00000
     59      -4.5681      2.00000
     60      -4.5567      2.00000
[...]
    238       5.9750      0.00000
    239       6.0741      0.00000
    240       6.0932      0.00000
    241       6.1808      0.00000
    242       6.2360      0.00000
    243       6.4176      0.00000
    244       6.4551      0.00000
    245       6.5799      0.00000
    246       6.6723      0.00000
    247       6.7932      0.00000
    248       6.8096      0.00000
    249       6.8963      0.00000
    250       6.9501      0.00000
    251       7.0775      0.00000
    252       7.1438      0.00000

 soft charge-density along one line, spin component           1
         0         1         2         3         4         5         6         7         8         9
 total charge-density along one line

------------------------ aborting loop because EDIFF is reached ----------------------------------------

 total charge

# of ion       s       p       d       tot
    1        0.546   0.238   8.767   9.552
    2        0.541   0.241   8.765   9.547
    3        0.541   0.241   8.765   9.547
    4        0.541   0.241   8.765   9.547
    5        0.549   0.239   8.759   9.547
    6        0.541   0.241   8.765   9.547
    7        0.541   0.241   8.765   9.547
    8        0.541   0.241   8.765   9.547
    9        0.542   0.240   8.768   9.550
   10        0.521   0.308   8.771   9.600
   11        0.521   0.306   8.776   9.604
   12        0.521   0.308   8.771   9.600
   13        0.521   0.306   8.776   9.604
   14        0.521   0.306   8.776   9.604
   15        0.518   0.309   8.773   9.600
   16        0.521   0.308   8.771   9.600
   17        0.518   0.309   8.773   9.600
   18        0.518   0.309   8.773   9.600
   19        0.517   0.299   8.768   9.584
   20        0.559   0.329   8.751   9.639
   21        0.559   0.329   8.751   9.639
   22        0.508   0.305   8.777   9.590
   23        0.559   0.329   8.751   9.639
   24        0.508   0.305   8.777   9.590
   25        0.517   0.299   8.768   9.584
   26        0.517   0.299   8.768   9.584
   27        0.508   0.305   8.777   9.590
   28        0.543   0.225   8.762   9.530
   29        0.577   0.242   8.745   9.564
   30        0.577   0.242   8.745   9.564
   31        0.577   0.242   8.745   9.564
   32        0.577   0.242   8.745   9.564
   33        0.577   0.242   8.745   9.564
   34        0.577   0.242   8.745   9.564
   35        0.544   0.226   8.761   9.531
   36        0.574   0.572   2.272   3.418
   37        1.012   1.111   0.000   2.122
tot         20.446  11.317 309.000 340.763

  FORCE on cell =-STRESS in cart. coord.  units (eV):
  Direction    XX          YY          ZZ          XY          YZ          ZX
  Alpha Z   915.28532   915.28532   915.28532
  Ewald  146382.76496146382.76533************    -0.00033    -0.00009    -0.00016
  Hartree154588.51000154588.50999************     0.00000    -0.00002    -0.00005
  E(xc)   -1756.95752 -1756.95750 -1766.42541    -0.00001    -0.00000    -0.00000
  Local  ************************313297.15430     0.00180     0.00004     0.00007
  n-local   -62.19689   -19.51662   -19.84943    21.61213    -1.32419     1.46074
  augment  2364.52200  2364.52355  2383.59624    -0.00134    -0.00001     0.00001
  Kinetic  5427.07671  5432.71163  5496.64883     4.87416    -0.13524     0.24556
  Fock        0.00000     0.00000     0.00000     0.00000     0.00000     0.00000
  Total     -19.81550   -19.81550     2.14137    -0.00000     0.00000     0.00000
  in kB     -19.41070   -19.41070     2.09762    -0.00000     0.00000     0.00000

 VOLUME and BASIS-vectors are now :
  energy-cutoff  :      500.00
  volume of cell :     1635.59
      direct lattice vectors                 reciprocal lattice vectors
     8.813512802  0.000000000  0.000000000     0.113462137 -0.065507406  0.000000000
     4.406756909  7.632725690  0.000000000     0.000000000  0.131014796  0.000000000
     0.000000000  0.000000000 24.313408842     0.000000000  0.000000000  0.041129568

  length of vectors
     8.813512802  8.813512802 24.313408842     0.131014796  0.131014796  0.041129568

 FORCES acting on ions
    electron-ion (+dipol)            ewald-force                    non-local-force                 convergence-correction
   -.197E-04 -.162E-04 0.262E+04   0.518E-04 0.432E-04 -.262E+04   -.158E-17 -.236E-17 -.581E+00   -.281E-03 -.176E-03 -.387E+00
   -.146E+00 -.575E+00 0.262E+04   0.916E-02 0.332E+00 -.262E+04   0.393E-01 0.134E+00 -.390E+00   0.916E-01 0.836E-01 -.382E+00
   0.146E+00 -.575E+00 0.262E+04   -.922E-02 0.332E+00 -.262E+04   -.393E-01 0.134E+00 -.390E+00   -.913E-01 0.857E-01 -.381E+00
   -.571E+00 0.161E+00 0.262E+04   0.292E+00 -.158E+00 -.262E+04   0.136E+00 -.330E-01 -.390E+00   0.118E+00 0.375E-01 -.382E+00
   0.782E-05 -.238E-04 0.262E+04   0.951E-04 0.172E-05 -.262E+04   -.154E-17 0.231E-17 0.335E-01   0.439E-02 0.267E-02 -.326E+00
   0.571E+00 0.161E+00 0.262E+04   -.292E+00 -.158E+00 -.262E+04   -.136E+00 -.330E-01 -.390E+00   -.120E+00 0.384E-01 -.381E+00
   -.425E+00 0.414E+00 0.262E+04   0.283E+00 -.174E+00 -.262E+04   0.965E-01 -.101E+00 -.390E+00   0.286E-01 -.122E+00 -.381E+00
   0.425E+00 0.414E+00 0.262E+04   -.283E+00 -.174E+00 -.262E+04   -.965E-01 -.101E+00 -.390E+00   -.267E-01 -.123E+00 -.381E+00
   0.195E-04 -.417E-04 0.262E+04   0.166E-03 -.199E-04 -.262E+04   -.155E-17 0.149E-17 -.441E+00   -.466E-02 -.241E-02 -.375E+00
   -.904E+00 -.522E+00 0.846E+03   0.898E+00 0.519E+00 -.845E+03   -.176E+00 -.102E+00 -.516E+00   0.132E+00 0.758E-01 -.285E+00
   0.139E-04 -.212E+01 0.843E+03   0.148E-03 0.202E+01 -.842E+03   -.170E-08 -.255E-01 -.299E+00   0.426E-02 0.104E+00 -.284E+00
   0.904E+00 -.522E+00 0.846E+03   -.898E+00 0.519E+00 -.845E+03   0.176E+00 -.102E+00 -.516E+00   -.133E+00 0.778E-01 -.284E+00
   -.184E+01 0.106E+01 0.843E+03   0.175E+01 -.101E+01 -.842E+03   -.221E-01 0.128E-01 -.299E+00   0.925E-01 -.481E-01 -.284E+00
   0.184E+01 0.106E+01 0.843E+03   -.175E+01 -.101E+01 -.842E+03   0.221E-01 0.128E-01 -.299E+00   -.842E-01 -.487E-01 -.283E+00
   0.325E-04 0.259E+01 0.849E+03   0.235E-03 -.257E+01 -.848E+03   0.100E-09 0.151E-02 -.599E+00   -.297E-02 -.481E-01 -.356E+00
   -.205E-04 0.104E+01 0.846E+03   0.162E-03 -.104E+01 -.845E+03   0.135E-07 0.203E+00 -.516E+00   0.385E-03 -.154E+00 -.284E+00
   0.225E+01 -.130E+01 0.849E+03   -.223E+01 0.129E+01 -.848E+03   0.131E-02 -.754E-03 -.599E+00   -.429E-01 0.219E-01 -.356E+00
   -.225E+01 -.130E+01 0.849E+03   0.223E+01 0.129E+01 -.848E+03   -.131E-02 -.754E-03 -.599E+00   0.430E-01 0.246E-01 -.355E+00
   -.426E-04 -.579E+01 -.933E+03   0.561E-04 0.588E+01 0.932E+03   0.239E-08 0.359E-01 0.804E+00   -.609E-02 -.570E-01 0.240E+00
   -.252E+02 -.145E+02 -.955E+03   0.256E+02 0.148E+02 0.956E+03   -.763E+00 -.440E+00 -.944E+00   0.928E-01 0.534E-01 0.161E+00
   0.252E+02 -.145E+02 -.955E+03   -.256E+02 0.148E+02 0.956E+03   0.763E+00 -.440E+00 -.944E+00   -.835E-01 0.550E-01 0.160E+00
   -.184E+02 0.107E+02 -.928E+03   0.181E+02 -.104E+02 0.928E+03   0.250E+00 -.144E+00 0.610E+00   0.129E+00 -.778E-01 0.177E+00
   -.822E-05 0.291E+02 -.955E+03   0.137E-03 -.295E+02 0.956E+03   0.586E-07 0.881E+00 -.944E+00   0.562E-02 -.998E-01 0.160E+00
   0.184E+02 0.107E+02 -.928E+03   -.181E+02 -.104E+02 0.928E+03   -.250E+00 -.144E+00 0.610E+00   -.137E+00 -.793E-01 0.177E+00
   0.501E+01 0.289E+01 -.933E+03   -.509E+01 -.294E+01 0.932E+03   -.311E-01 -.180E-01 0.804E+00   0.471E-01 0.271E-01 0.240E+00
   -.501E+01 0.289E+01 -.933E+03   0.509E+01 -.294E+01 0.932E+03   0.311E-01 -.180E-01 0.804E+00   -.521E-01 0.233E-01 0.240E+00
   0.720E-05 -.213E+02 -.928E+03   0.199E-03 0.209E+02 0.928E+03   0.192E-07 0.288E+00 0.610E+00   -.322E-02 0.151E+00 0.177E+00
   -.103E-04 -.105E-04 -.259E+04   0.268E-04 0.305E-04 0.259E+04   0.217E-17 -.141E-17 0.524E+00   -.145E-02 -.854E-03 0.295E+00
   -.742E+01 -.205E+02 -.260E+04   0.831E+01 0.219E+02 0.260E+04   -.101E+01 -.164E+01 0.349E+00   0.345E-01 0.925E-01 0.300E+00
   0.742E+01 -.205E+02 -.260E+04   -.831E+01 0.219E+02 0.260E+04   0.101E+01 -.164E+01 0.349E+00   -.275E-01 0.941E-01 0.299E+00
   -.215E+02 0.384E+01 -.260E+04   0.231E+02 -.376E+01 0.260E+04   -.193E+01 -.558E-01 0.349E+00   0.974E-01 -.164E-01 0.300E+00
   0.215E+02 0.384E+01 -.260E+04   -.231E+02 -.376E+01 0.260E+04   0.193E+01 -.558E-01 0.349E+00   -.921E-01 -.157E-01 0.298E+00
   -.141E+02 0.167E+02 -.260E+04   0.148E+02 -.182E+02 0.260E+04   -.915E+00 0.170E+01 0.349E+00   0.678E-01 -.709E-01 0.299E+00
   0.141E+02 0.167E+02 -.260E+04   -.148E+02 -.182E+02 0.260E+04   0.915E+00 0.170E+01 0.349E+00   -.596E-01 -.718E-01 0.298E+00
   0.313E-04 -.330E-04 -.259E+04   0.145E-03 -.457E-04 0.259E+04   0.394E-17 0.847E-17 0.547E+00   -.590E-02 -.311E-02 0.379E+00
   -.137E-04 0.318E-05 -.863E+03   0.408E-04 0.362E-05 0.866E+03   -.243E-17 0.174E-17 -.237E+01   0.207E-03 0.123E-03 0.112E+00
   0.436E-04 -.272E-04 -.108E+04   0.119E-04 0.811E-06 0.108E+04   0.920E-17 0.341E-17 -.335E+01   0.452E-03 0.277E-03 0.295E-01
   -.767E-03 -.797E-03 0.109E+02   -.213E-13 0.511E-13 -.114E-10   0.233E-15 0.236E-15 -.871E+01   0.146E-01 0.901E-02 -.180E+01

 POSITION                                       TOTAL-FORCE (eV/Angst)
      0.00000      0.00000      5.28038        -0.000000     -0.000000     -0.095027
      2.93784      0.00000      5.28038        -0.005211     -0.024273     -0.032919
      5.87568      0.00000      5.28038         0.005210     -0.024273     -0.032919
      1.46892      2.54424      5.28038        -0.023626      0.007624     -0.032919
      4.40676      2.54424      5.28038        -0.000000     -0.000000     -0.062752
      7.34459      2.54424      5.28038         0.023626      0.007624     -0.032919
      2.93784      5.08848      5.28038        -0.018415      0.016649     -0.032919
      5.87568      5.08848      5.28038         0.018415      0.016649     -0.032919
      8.81351      5.08848      5.28038        -0.000000     -0.000000     -0.032955
      1.46892      0.84808      7.67911        -0.048237     -0.027849      0.037505
      4.40676      0.84808      7.67911        -0.000000     -0.023123     -0.027270
      7.34459      0.84808      7.67911         0.048237     -0.027849      0.037505
      2.93784      3.39232      7.67911        -0.020025      0.011561     -0.027270
      5.87568      3.39232      7.67911         0.020025      0.011561     -0.027270
      8.81351      3.39232      7.67911        -0.000000     -0.024795      0.071034
      4.40676      5.93656      7.67911         0.000000      0.055699      0.037505
      7.34459      5.93656      7.67911        -0.021473      0.012397      0.071034
     10.28243      5.93656      7.67911         0.021473      0.012397      0.071034
      8.81351      1.69636     10.07469         0.000000      0.072956      0.158373
      2.94338      1.69936     10.06127        -0.254143     -0.146730     -0.245804
      5.87013      1.69936     10.06127         0.254143     -0.146730     -0.245804
     10.27220      4.24631     10.06987         0.005739     -0.003313      0.077943
      4.40676      4.23400     10.06127         0.000000      0.293459     -0.245804
      7.35483      4.24631     10.06987        -0.005739     -0.003313      0.077943
     11.75117      6.78454     10.07469        -0.063182     -0.036478      0.158373
      5.87585      6.78454     10.07469         0.063182     -0.036478      0.158373
      8.81351      6.77283     10.06987         0.000000      0.006626      0.077943
      0.00000      0.00000     12.49672        -0.000000     -0.000000     -0.088563
      2.97727      0.06002     12.55884        -0.086565     -0.152497      0.020998
      5.83624      0.06002     12.55884         0.086565     -0.152497      0.020998
      1.54061      2.54838     12.55884        -0.175349      0.001281      0.020998
      7.27290      2.54838     12.55884         0.175349      0.001281      0.020998
      2.97010      5.02433     12.55884        -0.088784      0.151216      0.020998
      5.84341      5.02433     12.55884         0.088784      0.151216      0.020998
      8.81351      5.08848     12.50791        -0.000000     -0.000000     -0.089017
      4.40676      2.54424     12.31155        -0.000000     -0.000000      0.266633
      4.40676      2.54424     14.32801        -0.000000     -0.000000     -0.042138
    total drift:                                0.013847      0.008212      0.343832

  FREE ENERGIE OF THE ION-ELECTRON SYSTEM (eV)
  free  energy   TOTEN  =      -122.09808052 eV

  energy  without entropy=     -122.09808052  energy(sigma->0) =     -122.09808052

 stress matrix after NEB project (eV)
    -19.81550     -0.00000      0.00000
     -0.00000    -19.81550      0.00000
      0.00000      0.00000      2.14137
  FORCES: max atom, RMS     0.042138    0.006927
  FORCE total and by dimension    0.042138    0.042138
  Stress total and by dimension   28.105049   19.815504
|           W    W    AA    RRRRR   N    N  II  N    N   GGGG   !!!           |
|           W    W   A  A   R    R  NN   N  II  NN   N  G    G  !!!           |
|           W    W  A    A  R    R  N N  N  II  N N  N  G       !!!           |
|           W WW W  AAAAAA  RRRRR   N  N N  II  N  N N  G  GGG   !            |
|           WW  WW  A    A  R   R   N   NN  II  N   NN  G    G                |
|           W    W  A    A  R    R  N    N  II  N    N   GGGG   !!!           |
|     Tetrahedron method does not include variations of the Fermi             |
|     occupations, so forces and stress will be inaccurate. We suggest        |
|     using a different smearing scheme ISMEAR = 1 or 2 for metals in         |
|     relaxations.                                                            |

 total charge

# of ion       s       p       d       tot
    1        0.546   0.238   8.767   9.552
    2        0.541   0.241   8.765   9.547
    3        0.541   0.241   8.765   9.547
    4        0.541   0.241   8.765   9.547
    5        0.549   0.239   8.759   9.547
    6        0.541   0.241   8.765   9.547
    7        0.541   0.241   8.765   9.547
    8        0.541   0.241   8.765   9.547
    9        0.542   0.240   8.768   9.550
   10        0.521   0.308   8.771   9.600
   11        0.521   0.306   8.776   9.604
   12        0.521   0.308   8.771   9.600
   13        0.521   0.306   8.776   9.604
   14        0.521   0.306   8.776   9.604
   15        0.518   0.309   8.773   9.600
   16        0.521   0.308   8.771   9.600
   17        0.518   0.309   8.773   9.600
   18        0.518   0.309   8.773   9.600
   19        0.517   0.299   8.768   9.584
   20        0.559   0.329   8.751   9.639
   21        0.559   0.329   8.751   9.639
   22        0.508   0.305   8.777   9.590
   23        0.559   0.329   8.751   9.639
   24        0.508   0.305   8.777   9.590
   25        0.517   0.299   8.768   9.584
   26        0.517   0.299   8.768   9.584
   27        0.508   0.305   8.777   9.590
   28        0.543   0.225   8.762   9.530
   29        0.577   0.242   8.745   9.564
   30        0.577   0.242   8.745   9.564
   31        0.577   0.242   8.745   9.564
   32        0.577   0.242   8.745   9.564
   33        0.577   0.242   8.745   9.564
   34        0.577   0.242   8.745   9.564
   35        0.544   0.226   8.761   9.531
   36        0.574   0.572   2.272   3.418
   37        1.012   1.111   0.000   2.122
tot         20.446  11.317 309.000 340.763

 BZINTS: Fermi energy:    0.091551;  393.000000 electrons
         Band energy:-0.144219E+04;  BLOECHL correction:   -0.043989