 vasp.6.2.0 18Jan21 (build Jun 12 2021 23:27:24) complex

 executed on             LinuxIFC date 2022.05.26  19:46:49

 INCAR:
   ISMEAR = -5
   SIGMA = 0.1
   ISPIN = 1
   EDIFF = 1.d-5
   EDIFFG = -0.01
   NSW = 0
   NELM = 150
   ENCUT = 500
   ISIF = 2
   IBRION = 2
   LREAL = Auto
   ALGO = Fast
   ICHARG = 11
   LORBIT = 10
   LCHARG = .F.
   LWAVE = .F.

 POTCAR:    PAW_PBE Ag 02Apr2005
 POTCAR:    PAW_PBE Nb_sv 25May2007
 POTCAR:    PAW_PBE O 08Apr2002
|           W    W    AA    RRRRR   N    N  II  N    N   GGGG   !!!           |
|           W    W   A  A   R    R  NN   N  II  NN   N  G    G  !!!           |
|           W    W  A    A  R    R  N N  N  II  N N  N  G       !!!           |
|           W WW W  AAAAAA  RRRRR   N  N N  II  N  N N  G  GGG   !            |
|           WW  WW  A    A  R   R   N   NN  II  N   NN  G    G                |
|           W    W  A    A  R    R  N    N  II  N    N   GGGG   !!!           |
|     For optimal performance we recommend to set                             |
|       NCORE = 2 up to number-of-cores-per-socket                            |
|     This setting can greatly improve the performance of VASP for DFT.       |
|     The default, NCORE=1 might be grossly inefficient on modern             |
|     multi-core architectures or massively parallel machines. Do your        |
|     Unfortunately you need to use the default for GW and RPA                |
|     calculations (for HF NCORE is supported but not extensively tested      |
|     yet).                                                                   |

 POTCAR:    PAW_PBE Ag 02Apr2005
   VRHFIN =Ag : s1 d10

   TITEL  = PAW_PBE Ag 02Apr2005
   POMASS =  107.868; ZVAL   =   11.000    mass and valenz
   ENMAX  =  249.844; ENMIN  =  187.383 eV

 POTCAR:    PAW_PBE Nb_sv 25May2007
   VRHFIN =Nb: 4p5s4d

   TITEL  = PAW_PBE Nb_sv 25May2007
   POMASS =   92.910; ZVAL   =   13.000    mass and valenz
   ENMAX  =  293.235; ENMIN  =  219.927 eV

 POTCAR:    PAW_PBE O 08Apr2002
   VRHFIN =O: s2p4

   TITEL  = PAW_PBE O 08Apr2002
   POMASS =   16.000; ZVAL   =    6.000    mass and valenz
   ENMAX  =  400.000; ENMIN  =  300.000 eV

 Optimization of the real space projectors (new method)

 maximal supplied QI-value         = 15.12
 optimisation between [QCUT,QGAM] = [ 11.34, 22.83] = [ 36.00,145.93] Ry
 Optimized for a Real-space Cutoff    1.43 Angstroem

   l    n(q)    QCUT    max X(q) W(low)/X(q) W(high)/X(q)  e(spline)
   2      9    11.338    53.897    0.16E-03    0.20E-03    0.28E-06
   2      9    11.338    52.416    0.16E-03    0.20E-03    0.29E-06
   0     10    11.338   122.045    0.31E-04    0.76E-04    0.15E-06
   0     10    11.338    73.629    0.30E-04    0.72E-04    0.15E-06
   1      9    11.338    15.255    0.20E-03    0.19E-04    0.17E-06
   1      9    11.338     9.562    0.16E-03    0.15E-04    0.14E-06
 Optimization of the real space projectors (new method)

[...]

   l    n(q)    QCUT    max X(q) W(low)/X(q) W(high)/X(q)  e(spline)
   0     11    11.450    10.201    0.21E-04    0.96E-05    0.78E-07
   0     11    11.450     8.174    0.31E-04    0.18E-04    0.14E-06
   1     10    11.450     3.488    0.27E-04    0.12E-04    0.96E-07
   1     10    11.450     4.917    0.11E-03    0.11E-03    0.37E-06
   2     10    11.450   153.744    0.37E-03    0.81E-03    0.10E-05
   2     10    11.450   126.342    0.37E-03    0.81E-03    0.10E-05
 Optimization of the real space projectors (new method)

 maximal supplied QI-value         = 24.76
 optimisation between [QCUT,QGAM] = [ 11.39, 22.77] = [ 36.31,145.25] Ry
 Optimized for a Real-space Cutoff    1.00 Angstroem

   l    n(q)    QCUT    max X(q) W(low)/X(q) W(high)/X(q)  e(spline)
   0      7    11.387    20.381    0.39E-03    0.13E-02    0.15E-06
   0      7    11.387    15.268    0.42E-03    0.14E-02    0.17E-06
   1      6    11.387     5.964    0.41E-03    0.11E-02    0.17E-06
   1      6    11.387     5.382    0.39E-03    0.87E-03    0.15E-06
  PAW_PBE Ag 02Apr2005                  :
  PAW_PBE Nb_sv 25May2007               :
  PAW_PBE O 08Apr2002                   :

 POSCAR: Ag-Nb-O
  positions in direct lattice
  velocities in cartesian coordinates
 exchange correlation table for  LEXCH =        8
   RHO(1)=    0.500       N(1)  =     2000
   RHO(2)=  100.500       N(2)  =     4000

 VTST: version 3.2, (02/03/18)

 CHAIN: initializing optimizer

 OPT: Using VASP Conjugate-Gradient optimizer
 CHAIN: Read ICHAIN            0

 POSCAR: Ag-Nb-O
  positions in direct lattice
  velocities in cartesian coordinates

 ion  position               nearest neighbor table
   1  0.000  0.000  0.238-   2 2.93   8 2.93   7 2.93   6 2.93   4 2.93  12 2.93  16 2.93  10 2.93
                             3 2.93
   2  0.333  0.000  0.238-   1 2.93   8 2.93   9 2.93   3 2.93   4 2.93   5 2.93  10 2.93  17 2.93
                            11 2.93
   3  0.667  0.000  0.238-   9 2.93   2 2.93   5 2.93  11 2.93   7 2.93  18 2.93   1 2.93   6 2.93
                            12 2.93
   4  0.000  0.333  0.238-   5 2.93   6 2.93   2 2.93   1 2.93   7 2.93  13 2.93  15 2.93   9 2.93
                            10 2.93
   5  0.333  0.333  0.238-   4 2.93   3 2.93   7 2.93   2 2.93   8 2.93  14 2.93  13 2.93  11 2.93
                             6 2.93
   6  0.667  0.333  0.238-   4 2.93   9 2.93   1 2.93  15 2.93   8 2.93  12 2.93   3 2.93   5 2.93
                            14 2.93
   7  0.000  0.667  0.238-   8 2.93   1 2.93   5 2.93   3 2.93   4 2.93  16 2.93  18 2.93  13 2.93
                             9 2.93
   8  0.333  0.667  0.238-   7 2.93   1 2.93   2 2.93   9 2.93   5 2.93  16 2.93   6 2.93  17 2.93
                            14 2.93
   9  0.667  0.667  0.238-   3 2.93   2 2.93   8 2.93   6 2.93  17 2.93   4 2.93  15 2.93   7 2.93
                            18 2.93
  10  0.111  0.111  0.346-  20 2.90  19 2.93  26 2.93  12 2.93  16 2.93  15 2.93  17 2.93  13 2.93
                            11 2.93   2 2.93   1 2.93   4 2.93
  11  0.444  0.111  0.346-  21 2.90  20 2.90  14 2.93  17 2.93  18 2.93   3 2.93  12 2.93  13 2.93
                            10 2.93   5 2.93   2 2.93  27 2.93
  12  0.778  0.111  0.346-  21 2.90  25 2.93  19 2.93  10 2.93  16 2.93  18 2.93  15 2.93  11 2.93
                             1 2.93  14 2.93   6 2.93   3 2.93
  13  0.111  0.444  0.346-  20 2.90  23 2.90  15 2.93  14 2.93  18 2.93  10 2.93  11 2.93  16 2.93
                             4 2.93   5 2.93   7 2.93  22 2.93
  14  0.444  0.444  0.346-  23 2.90  21 2.90  13 2.93  11 2.93  16 2.93   5 2.93  12 2.93  17 2.93
                             8 2.93  15 2.93   6 2.93  24 2.93
  15  0.778  0.444  0.346-  19 2.93  13 2.93  10 2.93  12 2.93  17 2.93  18 2.93   4 2.93   6 2.93
                             9 2.93  14 2.93  24 2.93  22 2.93
  16  0.111  0.778  0.346-  23 2.90  26 2.93  25 2.93  18 2.93  12 2.93  10 2.93  14 2.93  17 2.93
                            13 2.93   7 2.93   8 2.93   1 2.93
  17  0.444  0.778  0.346-  26 2.93  11 2.93  10 2.93   9 2.93  18 2.93  15 2.93  16 2.93   2 2.93
                            14 2.93   8 2.93  27 2.93  24 2.93
  18  0.778  0.778  0.346-  25 2.93  16 2.93  12 2.93  13 2.93  11 2.93  17 2.93  15 2.93   7 2.93
                             3 2.93   9 2.93  22 2.93  27 2.93
  19  0.889  0.222  0.454-  15 2.93  10 2.93  12 2.93  20 2.93  21 2.93  28 2.93  24 2.93  22 2.93
                            26 2.93  25 2.93  32 2.97  31 2.97
  20  0.222  0.222  0.452-  36 2.82  10 2.90  13 2.90  11 2.90  19 2.93  26 2.93  27 2.93  22 2.93
                            21 2.94  23 2.94  31 2.97  29 2.97
  21  0.556  0.222  0.452-  36 2.82  12 2.90  11 2.90  14 2.90  25 2.93  19 2.93  27 2.93  24 2.93
                            20 2.94  23 2.94  30 2.97  32 2.97
  22  0.889  0.556  0.454-  24 2.93  27 2.93  25 2.93  19 2.93  18 2.93  15 2.93  23 2.93  20 2.93
                            35 2.93  13 2.93  33 2.95  31 2.95
  23  0.222  0.556  0.452-  36 2.82  16 2.90  14 2.90  13 2.90  26 2.93  25 2.93  22 2.93  24 2.93
                            21 2.94  20 2.94  34 2.97  33 2.97
  24  0.556  0.556  0.454-  27 2.93  22 2.93  19 2.93  26 2.93  15 2.93  17 2.93  23 2.93  21 2.93
                            35 2.93  14 2.93  32 2.95  34 2.95
  25  0.889  0.889  0.454-  18 2.93  16 2.93  12 2.93  23 2.93  21 2.93  28 2.93  22 2.93  27 2.93
                            26 2.93  19 2.93  33 2.97  30 2.97
  26  0.222  0.889  0.454-  17 2.93  16 2.93  10 2.93  23 2.93  20 2.93  28 2.93  27 2.93  24 2.93
                            25 2.93  19 2.93  34 2.97  29 2.97
  27  0.556  0.889  0.454-  24 2.93  22 2.93  26 2.93  25 2.93  17 2.93  18 2.93  20 2.93  21 2.93
                            35 2.93  11 2.93  29 2.95  30 2.95
  28  0.000  0.000  0.561-  26 2.93  25 2.93  19 2.93  29 2.95  34 2.95  33 2.95  32 2.95  31 2.95
                            30 2.95
  29  0.333  0.004  0.563-  30 2.90  31 2.90  36 2.91  35 2.95  28 2.95  27 2.95  20 2.97  26 2.97
                            34 2.99
  30  0.663  0.004  0.563-  29 2.90  32 2.90  36 2.91  35 2.95  28 2.95  27 2.95  21 2.97  25 2.97
                            33 2.99
  31  0.004  0.333  0.563-  33 2.90  29 2.90  36 2.91  35 2.95  28 2.95  22 2.95  20 2.97  19 2.97
                            32 2.99
  32  0.663  0.333  0.563-  34 2.90  30 2.90  36 2.91  35 2.95  28 2.95  24 2.95  21 2.97  19 2.97
                            31 2.99
  33  0.004  0.663  0.563-  31 2.90  34 2.90  36 2.91  35 2.95  28 2.95  22 2.95  23 2.97  25 2.97
                            30 2.99
  34  0.333  0.663  0.563-  32 2.90  33 2.90  36 2.91  35 2.95  28 2.95  24 2.95  23 2.97  26 2.97
                            29 2.99
  35  0.667  0.667  0.562-  24 2.93  27 2.93  22 2.93  30 2.95  29 2.95  32 2.95  34 2.95  31 2.95
                            33 2.95
  36  0.333  0.333  0.554-  37 1.73  21 2.82  20 2.82  23 2.82  31 2.91  33 2.91  30 2.91  29 2.91
                            34 2.91  32 2.91
  37  0.333  0.333  0.632-  36 1.73

  LATTYP: Found a hexagonal cell.
 ALAT       =     8.7913665772
 C/A-ratio  =     2.5227160501

  Lattice vectors:

 A1 = (  -4.3956832886,  -7.6135467898,   0.0000000000)
 A2 = (   8.7913665771,   0.0000000000,   0.0000000000)
 A3 = (   0.0000000000,   0.0000000000,  22.1781215668)

Analysis of symmetry for initial positions (statically):
 Subroutine PRICEL returns:
 Original cell was already a primitive cell.

 Routine SETGRP: Setting up the symmetry group for a
 hexagonal supercell.

 Subroutine GETGRP returns: Found  6 space group operations
 (whereof  6 operations were pure point group operations)
 out of a pool of 24 trial point group operations.

The static configuration has the point symmetry C_3v.

Analysis of symmetry for dynamics (positions and initial velocities):
 Subroutine PRICEL returns:
 Original cell was already a primitive cell.

[...]

The dynamic configuration has the point symmetry C_3v.

Analysis of constrained symmetry for selective dynamics:
 Subroutine PRICEL returns:
 Original cell was already a primitive cell.

 Routine SETGRP: Setting up the symmetry group for a
 hexagonal supercell.

 Subroutine GETGRP returns: Found  6 space group operations
[...]
     24      -4.6889      2.00000
     25      -4.6784      2.00000
     26      -4.6598      2.00000
     27      -4.6488      2.00000
     28      -4.6281      2.00000
     29      -4.6124      2.00000
     30      -4.5981      2.00000
     31      -4.5931      2.00000
     32      -4.5592      2.00000
     33      -4.5511      2.00000
     34      -4.5481      2.00000
     35      -4.5276      2.00000
     36      -4.5079      2.00000
     37      -4.4843      2.00000
     38      -4.4824      2.00000
     39      -4.4518      2.00000
     40      -4.4283      2.00000
     41      -4.4017      2.00000
     42      -4.3912      2.00000
     43      -4.3578      2.00000
     44      -4.3443      2.00000
     45      -4.3299      2.00000
     46      -4.3080      2.00000
     47      -4.2890      2.00000
     48      -4.2265      2.00000
     49      -4.1967      2.00000
     50      -4.1711      2.00000
     51      -4.1639      2.00000
     52      -4.1612      2.00000
     53      -4.1549      2.00000
     54      -4.1447      2.00000
     55      -4.1402      2.00000
     56      -4.1346      2.00000
     57      -4.1217      2.00000
     58      -4.0717      2.00000
     59      -4.0595      2.00000
     60      -4.0424      2.00000
[...]
    238       6.0615      0.00000
    239       6.2031      0.00000
    240       6.2404      0.00000
    241       6.2704      0.00000
    242       6.3689      0.00000
    243       6.4251      0.00000
    244       6.5357      0.00000
    245       7.2522      0.00000
    246       7.2802      0.00000
    247       7.3441      0.00000
    248       7.4036      0.00000
    249       7.4083      0.00000
    250       7.4286      0.00000
    251       7.4977      0.00000
    252       7.6616      0.00000

 soft charge-density along one line, spin component           1
         0         1         2         3         4         5         6         7         8         9
 total charge-density along one line

------------------------ aborting loop because EDIFF is reached ----------------------------------------

 total charge

# of ion       s       p       d       tot
    1        0.421   0.202   9.177   9.800
    2        0.416   0.204   9.177   9.797
    3        0.416   0.204   9.177   9.797
    4        0.416   0.204   9.177   9.797
    5        0.416   0.202   9.178   9.796
    6        0.416   0.204   9.177   9.797
    7        0.416   0.204   9.177   9.797
    8        0.416   0.204   9.177   9.797
    9        0.415   0.204   9.177   9.795
   10        0.408   0.270   9.165   9.843
   11        0.403   0.272   9.166   9.841
   12        0.408   0.270   9.165   9.843
   13        0.403   0.272   9.166   9.841
   14        0.403   0.272   9.166   9.841
   15        0.402   0.269   9.165   9.837
   16        0.408   0.270   9.165   9.843
   17        0.402   0.269   9.165   9.837
   18        0.402   0.269   9.165   9.837
   19        0.403   0.262   9.168   9.834
   20        0.436   0.298   9.140   9.874
   21        0.436   0.298   9.140   9.874
   22        0.394   0.274   9.162   9.830
   23        0.436   0.298   9.140   9.874
   24        0.394   0.274   9.162   9.830
   25        0.403   0.262   9.168   9.834
   26        0.403   0.262   9.168   9.834
   27        0.394   0.274   9.162   9.830
   28        0.416   0.201   9.172   9.790
   29        0.435   0.215   9.162   9.812
   30        0.435   0.215   9.162   9.812
   31        0.435   0.215   9.162   9.812
   32        0.435   0.215   9.162   9.812
   33        0.435   0.215   9.162   9.812
   34        0.435   0.215   9.162   9.812
   35        0.413   0.206   9.171   9.790
   36        2.219   6.025   2.486  10.729
   37        1.613   3.328   0.000   4.941
tot         18.355  17.815 323.294 359.464

  FORCE on cell =-STRESS in cart. coord.  units (eV):
  Direction    XX          YY          ZZ          XY          YZ          ZX
  Alpha Z   774.05813   774.05813   774.05813
  Ewald  122173.90463122173.90480************     0.00005     0.00001     0.00005
  Hartree132714.59915132714.59922************     0.00002     0.00000     0.00002
  E(xc)   -2118.33058 -2118.33059 -2123.19279     0.00000    -0.00000    -0.00000
  Local  ************************266219.13790     0.00041    -0.00007    -0.00017
  n-local  -350.34775  -335.98256  -356.95812     9.48951    -0.63563     0.67451
  augment  3242.47791  3242.47811  3255.87077    -0.00018    -0.00002     0.00001
  Kinetic  5143.53669  5148.16705  5171.78147     3.01472     1.02743    -0.45414
  Fock        0.00000     0.00000     0.00000     0.00000     0.00000     0.00000
  Total      -5.89367    -5.89367    -0.52985    -0.00000     0.00000    -0.00000
  in kB      -6.36105    -6.36105    -0.57187    -0.00000     0.00000    -0.00000

 VOLUME and BASIS-vectors are now :
  energy-cutoff  :      500.00
  volume of cell :     1484.46
      direct lattice vectors                 reciprocal lattice vectors
     8.791366577  0.000000000  0.000000000     0.113747958 -0.065672414  0.000000000
     4.395683289  7.613546790  0.000000000     0.000000000  0.131344829  0.000000000
     0.000000000  0.000000000 22.178121567     0.000000000  0.000000000  0.045089481

  length of vectors
     8.791366577  8.791366577 22.178121567     0.131344829  0.131344829  0.045089481

 FORCES acting on ions
    electron-ion (+dipol)            ewald-force                    non-local-force                 convergence-correction
   0.463E-04 -.280E-04 0.253E+04   -.954E-04 0.593E-04 -.253E+04   0.138E-18 -.271E-17 -.174E+01   -.129E-03 -.181E-03 -.164E+00
   0.317E+00 0.110E+01 0.253E+04   -.395E+00 -.109E+01 -.253E+04   -.532E-02 0.243E-01 -.168E+01   0.781E-01 -.301E-01 -.153E+00
   -.317E+00 0.110E+01 0.253E+04   0.395E+00 -.109E+01 -.253E+04   0.532E-02 0.243E-01 -.168E+01   -.787E-01 -.281E-01 -.152E+00
   0.111E+01 -.274E+00 0.253E+04   -.114E+01 0.203E+00 -.253E+04   0.184E-01 -.167E-01 -.168E+01   0.132E-01 0.829E-01 -.153E+00
   -.527E-05 -.185E-04 0.253E+04   0.980E-04 -.199E-05 -.253E+04   -.215E-18 0.907E-18 -.170E+01   0.630E-02 0.385E-02 -.334E-01
   -.111E+01 -.274E+00 0.253E+04   0.114E+01 0.203E+00 -.253E+04   -.184E-01 -.167E-01 -.168E+01   -.147E-01 0.838E-01 -.152E+00
   0.792E+00 -.824E+00 0.253E+04   -.747E+00 0.887E+00 -.253E+04   0.237E-01 -.753E-02 -.168E+01   -.632E-01 -.536E-01 -.152E+00
   -.792E+00 -.824E+00 0.253E+04   0.747E+00 0.887E+00 -.253E+04   -.237E-01 -.753E-02 -.168E+01   0.649E-01 -.546E-01 -.152E+00
   0.363E-04 -.130E-04 0.253E+04   0.792E-04 -.643E-04 -.253E+04   -.448E-17 -.955E-18 -.168E+01   -.670E-02 -.346E-02 -.133E+00
   0.619E+01 0.357E+01 0.893E+03   -.604E+01 -.349E+01 -.892E+03   -.267E+00 -.154E+00 -.550E+00   0.104E+00 0.602E-01 0.355E+00
   -.284E-04 0.994E+01 0.902E+03   0.411E-04 -.104E+02 -.902E+03   0.103E-11 0.157E+00 -.531E+00   0.640E-02 0.199E+00 0.261E+00
   -.619E+01 0.357E+01 0.893E+03   0.604E+01 -.349E+01 -.892E+03   0.267E+00 -.154E+00 -.550E+00   -.106E+00 0.617E-01 0.356E+00
   0.861E+01 -.497E+01 0.902E+03   -.898E+01 0.518E+01 -.902E+03   0.136E+00 -.785E-01 -.531E+00   0.175E+00 -.938E-01 0.261E+00
   -.861E+01 -.497E+01 0.902E+03   0.898E+01 0.518E+01 -.902E+03   -.136E+00 -.785E-01 -.531E+00   -.164E+00 -.945E-01 0.262E+00
   0.161E-04 -.254E+01 0.888E+03   -.109E-03 0.246E+01 -.887E+03   0.396E-12 0.603E-01 -.555E+00   -.203E-02 0.103E-01 0.285E+00
   -.807E-05 -.714E+01 0.893E+03   0.207E-04 0.698E+01 -.892E+03   0.202E-11 0.308E+00 -.550E+00   0.335E-03 -.123E+00 0.356E+00
   -.220E+01 0.127E+01 0.888E+03   0.213E+01 -.123E+01 -.887E+03   0.522E-01 -.302E-01 -.555E+00   0.784E-02 -.690E-02 0.285E+00
   0.220E+01 0.127E+01 0.888E+03   -.213E+01 -.123E+01 -.887E+03   -.522E-01 -.302E-01 -.555E+00   -.801E-02 -.465E-02 0.285E+00
   0.407E-04 0.452E+00 -.789E+03   -.132E-03 -.606E+00 0.788E+03   0.636E-12 0.968E-01 0.933E+00   -.190E-02 0.347E-01 0.450E+00
   0.460E+02 0.266E+02 -.715E+03   -.457E+02 -.264E+02 0.714E+03   -.681E+00 -.393E+00 -.160E+00   0.131E+00 0.755E-01 0.551E+00
   -.460E+02 0.266E+02 -.715E+03   0.457E+02 -.264E+02 0.714E+03   0.681E+00 -.393E+00 -.160E+00   -.120E+00 0.767E-01 0.551E+00
   0.200E+02 -.115E+02 -.782E+03   -.203E+02 0.117E+02 0.781E+03   0.262E+00 -.151E+00 0.712E+00   0.122E+00 -.704E-01 0.366E+00
   -.576E-04 -.531E+02 -.715E+03   0.503E-04 0.528E+02 0.714E+03   0.517E-11 0.787E+00 -.160E+00   0.683E-02 -.141E+00 0.551E+00
   -.200E+02 -.115E+02 -.782E+03   0.203E+02 0.117E+02 0.781E+03   -.262E+00 -.151E+00 0.712E+00   -.124E+00 -.714E-01 0.366E+00
   -.392E+00 -.226E+00 -.789E+03   0.524E+00 0.303E+00 0.788E+03   -.838E-01 -.484E-01 0.933E+00   -.291E-01 -.169E-01 0.449E+00
   0.392E+00 -.226E+00 -.789E+03   -.524E+00 0.303E+00 0.788E+03   0.838E-01 -.484E-01 0.933E+00   0.288E-01 -.191E-01 0.450E+00
   0.216E-04 0.231E+02 -.782E+03   0.109E-03 -.235E+02 0.781E+03   0.198E-11 0.302E+00 0.712E+00   -.463E-03 0.141E+00 0.366E+00
   0.546E-04 -.359E-04 -.246E+04   -.118E-03 0.786E-04 0.246E+04   0.490E-17 -.178E-17 0.157E+01   -.160E-03 -.231E-03 0.629E-01
   0.544E+02 0.885E+02 -.246E+04   -.538E+02 -.880E+02 0.246E+04   -.778E+00 -.967E+00 0.201E+01   0.233E-02 0.247E+00 0.404E-01
   -.544E+02 0.885E+02 -.246E+04   0.538E+02 -.880E+02 0.246E+04   0.778E+00 -.967E+00 0.201E+01   -.268E-02 0.249E+00 0.403E-01
   0.104E+03 0.288E+01 -.246E+04   -.103E+03 -.257E+01 0.246E+04   -.123E+01 -.190E+00 0.201E+01   0.216E+00 -.121E+00 0.404E-01
   -.104E+03 0.288E+01 -.246E+04   0.103E+03 -.257E+01 0.246E+04   0.123E+01 -.190E+00 0.201E+01   -.217E+00 -.121E+00 0.397E-01
   0.494E+02 -.914E+02 -.246E+04   -.493E+02 0.905E+02 0.246E+04   -.448E+00 0.116E+01 0.201E+01   0.215E+00 -.127E+00 0.403E-01
   -.494E+02 -.914E+02 -.246E+04   0.493E+02 0.905E+02 0.246E+04   0.448E+00 0.116E+01 0.201E+01   -.214E+00 -.128E+00 0.396E-01
   0.197E-04 -.880E-05 -.247E+04   0.107E-03 -.674E-04 0.247E+04   0.343E-17 -.540E-17 0.176E+01   -.681E-02 -.351E-02 0.123E+00
   0.277E-03 -.161E-03 -.248E+04   0.123E-03 0.141E-04 0.248E+04   -.215E-17 0.783E-19 -.535E+01   0.805E-02 0.491E-02 0.110E+00
   0.202E-03 -.103E-03 -.179E+04   0.282E-04 0.397E-06 0.182E+04   0.825E-18 -.737E-18 -.285E+02   0.395E-02 0.242E-02 -.231E+00
   0.874E-03 -.917E-03 0.285E+02   -.426E-13 0.338E-13 0.409E-11   0.169E-15 0.438E-15 -.341E+02   0.306E-01 0.212E-01 0.586E+01

 POSITION                                       TOTAL-FORCE (eV/Angst)
      0.00000      0.00000      5.28219         0.000000     -0.000000     -0.004403
      2.93046      0.00000      5.28219        -0.003805      0.003039      0.037968
      5.86091      0.00000      5.28219         0.003805      0.003039      0.037968
      1.46523      2.53785      5.28219         0.000730     -0.004815      0.037968
      4.39568      2.53785      5.28219         0.000000     -0.000000      0.011827
      7.32614      2.53785      5.28219        -0.000730     -0.004815      0.037968
      2.93046      5.07570      5.28219         0.004535      0.001775      0.037968
      5.86091      5.07570      5.28219        -0.004535      0.001775      0.037968
      8.79137      5.07570      5.28219         0.000000     -0.000000      0.027181
      1.46523      0.84595      7.67490        -0.019454     -0.011232     -0.053851
      4.39568      0.84595      7.67490        -0.000000     -0.071204     -0.048027
      7.32614      0.84595      7.67490         0.019454     -0.011232     -0.053851
      2.93046      3.38380      7.67490        -0.061665      0.035602     -0.048027
      5.86091      3.38380      7.67490         0.061665      0.035602     -0.048027
      8.79137      3.38380      7.67490        -0.000000     -0.003134      0.051447
      4.39568      5.92165      7.67490         0.000000      0.022463     -0.053851
      7.32614      5.92165      7.67490        -0.002714      0.001567      0.051447
     10.25659      5.92165      7.67490         0.002714      0.001567      0.051447
      8.79137      1.69211     10.06133        -0.000000     -0.021951     -0.003882
      2.92756      1.69022     10.03254        -0.260780     -0.150561     -0.228467
      5.86381      1.69022     10.03254         0.260780     -0.150561     -0.228467
     10.25459      4.23091     10.07004         0.037602     -0.021709      0.010350
      4.39568      4.23310     10.03254         0.000000      0.301122     -0.228467
      7.32815      4.23091     10.07004        -0.037602     -0.021709      0.010350
     11.72164      6.76749     10.06133         0.019010      0.010976     -0.003882
      5.86110      6.76749     10.06133        -0.019010      0.010976     -0.003882
      8.79137      6.76528     10.07004         0.000000      0.043419      0.010350
      0.00000      0.00000     12.45237         0.000000     -0.000000     -0.015348
      2.94700      0.02679     12.48745        -0.118104     -0.216657     -0.180215
      5.84437      0.02679     12.48745         0.118104     -0.216657     -0.180215
      1.49670      2.53878     12.48745        -0.246683      0.006048     -0.180215
      7.29466      2.53878     12.48745         0.246683      0.006048     -0.180215
      2.94539      5.04797     12.48745        -0.128579      0.210609     -0.180215
      5.84598      5.04797     12.48745         0.128579      0.210609     -0.180215
      8.79137      5.07570     12.46721         0.000000     -0.000000     -0.008027
      4.39568      2.53785     12.28926         0.000000     -0.000000      1.661190
      4.39568      2.53785     14.01729         0.000000     -0.000000     -0.001640
    total drift:                                0.031458      0.020261      0.167456

  FREE ENERGIE OF THE ION-ELECTRON SYSTEM (eV)
  free  energy   TOTEN  =      -105.69239412 eV

  energy  without entropy=     -105.69239412  energy(sigma->0) =     -105.69239412

 stress matrix after NEB project (eV)
     -5.89367     -0.00000     -0.00000
     -0.00000     -5.89367     -0.00000
      0.00000      0.00000     -0.52985
  FORCES: max atom, RMS     0.001640    0.000270
  FORCE total and by dimension    0.001640    0.001640
  Stress total and by dimension    8.351738    5.893674
|           W    W    AA    RRRRR   N    N  II  N    N   GGGG   !!!           |
|           W    W   A  A   R    R  NN   N  II  NN   N  G    G  !!!           |
|           W    W  A    A  R    R  N N  N  II  N N  N  G       !!!           |
|           W WW W  AAAAAA  RRRRR   N  N N  II  N  N N  G  GGG   !            |
|           WW  WW  A    A  R   R   N   NN  II  N   NN  G    G                |
|           W    W  A    A  R    R  N    N  II  N    N   GGGG   !!!           |
|     Tetrahedron method does not include variations of the Fermi             |
|     occupations, so forces and stress will be inaccurate. We suggest        |
|     using a different smearing scheme ISMEAR = 1 or 2 for metals in         |
|     relaxations.                                                            |

 total charge

# of ion       s       p       d       tot
    1        0.421   0.202   9.177   9.800
    2        0.416   0.204   9.177   9.797
    3        0.416   0.204   9.177   9.797
    4        0.416   0.204   9.177   9.797
    5        0.416   0.202   9.178   9.796
    6        0.416   0.204   9.177   9.797
    7        0.416   0.204   9.177   9.797
    8        0.416   0.204   9.177   9.797
    9        0.415   0.204   9.177   9.795
   10        0.408   0.270   9.165   9.843
   11        0.403   0.272   9.166   9.841
   12        0.408   0.270   9.165   9.843
   13        0.403   0.272   9.166   9.841
   14        0.403   0.272   9.166   9.841
   15        0.402   0.269   9.165   9.837
   16        0.408   0.270   9.165   9.843
   17        0.402   0.269   9.165   9.837
   18        0.402   0.269   9.165   9.837
   19        0.403   0.262   9.168   9.834
   20        0.436   0.298   9.140   9.874
   21        0.436   0.298   9.140   9.874
   22        0.394   0.274   9.162   9.830
   23        0.436   0.298   9.140   9.874
   24        0.394   0.274   9.162   9.830
   25        0.403   0.262   9.168   9.834
   26        0.403   0.262   9.168   9.834
   27        0.394   0.274   9.162   9.830
   28        0.416   0.201   9.172   9.790
   29        0.435   0.215   9.162   9.812
   30        0.435   0.215   9.162   9.812
   31        0.435   0.215   9.162   9.812
   32        0.435   0.215   9.162   9.812
   33        0.435   0.215   9.162   9.812
   34        0.435   0.215   9.162   9.812
   35        0.413   0.206   9.171   9.790
   36        2.219   6.025   2.486  10.729
   37        1.613   3.328   0.000   4.941
tot         18.355  17.815 323.294 359.464

 BZINTS: Fermi energy:    0.860269;  404.000000 electrons
         Band energy:-0.161185E+04;  BLOECHL correction:   -0.037130