 vasp.6.2.0 18Jan21 (build Jun 12 2021 23:27:24) complex

 executed on             LinuxIFC date 2022.05.28  02:20:45

 INCAR:
   ISMEAR = -5
   SIGMA = 0.1
   ISPIN = 1
   EDIFF = 1.d-5
   EDIFFG = -0.01
   NSW = 0
   NELM = 150
   ENCUT = 500
   ISIF = 2
   IBRION = 2
   LREAL = Auto
   ALGO = Fast
   ICHARG = 11
   LORBIT = 10
   LCHARG = .F.
   LWAVE = .F.

 POTCAR:    PAW_PBE Cu 22Jun2005
 POTCAR:    PAW_PBE Mn 06Sep2000
 POTCAR:    PAW_PBE O 08Apr2002
 POTCAR:    PAW_PBE H 15Jun2001
|           W    W    AA    RRRRR   N    N  II  N    N   GGGG   !!!           |
|           W    W   A  A   R    R  NN   N  II  NN   N  G    G  !!!           |
|           W    W  A    A  R    R  N N  N  II  N N  N  G       !!!           |
|           W WW W  AAAAAA  RRRRR   N  N N  II  N  N N  G  GGG   !            |
|           WW  WW  A    A  R   R   N   NN  II  N   NN  G    G                |
|           W    W  A    A  R    R  N    N  II  N    N   GGGG   !!!           |
|     For optimal performance we recommend to set                             |
|       NCORE = 2 up to number-of-cores-per-socket                            |
|     This setting can greatly improve the performance of VASP for DFT.       |
|     The default, NCORE=1 might be grossly inefficient on modern             |
|     multi-core architectures or massively parallel machines. Do your        |
|     Unfortunately you need to use the default for GW and RPA                |
|     calculations (for HF NCORE is supported but not extensively tested      |
|     yet).                                                                   |

 POTCAR:    PAW_PBE Cu 22Jun2005
   VRHFIN =Cu: d10 p1

   TITEL  = PAW_PBE Cu 22Jun2005
   POMASS =   63.546; ZVAL   =   11.000    mass and valenz
   ENMAX  =  295.446; ENMIN  =  221.585 eV

 POTCAR:    PAW_PBE Mn 06Sep2000
   VRHFIN =Mn: d6 s1

   TITEL  = PAW_PBE Mn 06Sep2000
   POMASS =   54.938; ZVAL   =    7.000    mass and valenz
   ENMAX  =  269.864; ENMIN  =  202.398 eV

 POTCAR:    PAW_PBE O 08Apr2002
   VRHFIN =O: s2p4

   TITEL  = PAW_PBE O 08Apr2002
   POMASS =   16.000; ZVAL   =    6.000    mass and valenz
   ENMAX  =  400.000; ENMIN  =  300.000 eV

 POTCAR:    PAW_PBE H 15Jun2001
   VRHFIN =H: ultrasoft test

   TITEL  = PAW_PBE H 15Jun2001
   POMASS =    1.000; ZVAL   =    1.000    mass and valenz
   ENMAX  =  250.000; ENMIN  =  200.000 eV

 Optimization of the real space projectors (new method)

 maximal supplied QI-value         = 16.25
 optimisation between [QCUT,QGAM] = [ 11.38, 22.75] = [ 36.24,144.96] Ry
 Optimized for a Real-space Cutoff    1.52 Angstroem

   l    n(q)    QCUT    max X(q) W(low)/X(q) W(high)/X(q)  e(spline)
   2      9    11.376     4.610    0.21E-03    0.10E-03    0.26E-06
   2      9    11.376     8.522    0.33E-03    0.16E-03    0.37E-06
   0     10    11.376    51.609    0.62E-04    0.20E-04    0.13E-06
   0     10    11.376    27.747    0.54E-04    0.20E-04    0.13E-06
   1     10    11.376    20.408    0.13E-04    0.99E-04    0.19E-06
   1     10    11.376    13.425    0.12E-04    0.87E-04    0.17E-06
 Optimization of the real space projectors (new method)

[...]

   l    n(q)    QCUT    max X(q) W(low)/X(q) W(high)/X(q)  e(spline)
   0      7    11.387    20.381    0.39E-03    0.13E-02    0.15E-06
   0      7    11.387    15.268    0.42E-03    0.14E-02    0.17E-06
   1      6    11.387     5.964    0.41E-03    0.11E-02    0.17E-06
   1      6    11.387     5.382    0.39E-03    0.87E-03    0.15E-06
 Optimization of the real space projectors (new method)

 maximal supplied QI-value         = 34.20
 optimisation between [QCUT,QGAM] = [ 11.29, 22.57] = [ 35.68,142.71] Ry
 Optimized for a Real-space Cutoff    1.16 Angstroem

   l    n(q)    QCUT    max X(q) W(low)/X(q) W(high)/X(q)  e(spline)
   0      8    11.287    19.460    0.40E-03    0.73E-03    0.16E-06
   0      8    11.287    12.209    0.38E-03    0.70E-03    0.15E-06
   1      7    11.287     4.655    0.22E-03    0.25E-04    0.22E-06
  PAW_PBE Cu 22Jun2005                  :
  PAW_PBE Mn 06Sep2000                  :
  PAW_PBE O 08Apr2002                   :
  PAW_PBE H 15Jun2001                   :

 POSCAR: Cu-Mn-OOH
  positions in direct lattice
  velocities in cartesian coordinates
 exchange correlation table for  LEXCH =        8
   RHO(1)=    0.500       N(1)  =     2000
   RHO(2)=  100.500       N(2)  =     4000

 VTST: version 3.2, (02/03/18)

 CHAIN: initializing optimizer

 OPT: Using VASP Conjugate-Gradient optimizer
 CHAIN: Read ICHAIN            0

 POSCAR: Cu-Mn-OOH
  positions in direct lattice
  velocities in cartesian coordinates

 ion  position               nearest neighbor table
   1  0.000  0.000  0.212-   7 2.57   3 2.57   4 2.57   2 2.57   6 2.57   8 2.57  12 2.57  10 2.57
                            16 2.57
   2  0.333  0.000  0.212-   8 2.57   9 2.57   5 2.57   1 2.57   3 2.57  11 2.57   4 2.57  10 2.57
                            17 2.57
   3  0.667  0.000  0.212-   1 2.57   7 2.57   6 2.57   9 2.57   2 2.57  12 2.57   5 2.57  18 2.57
                            11 2.57
   4  0.000  0.333  0.212-   5 2.57   6 2.57   1 2.57   7 2.57   2 2.57  13 2.57   9 2.57  10 2.57
                            15 2.57
   5  0.333  0.333  0.212-   4 2.57   2 2.57   7 2.57  13 2.57   8 2.57   6 2.57   3 2.57  11 2.57
                            14 2.57
   6  0.667  0.333  0.212-   4 2.57   9 2.57  15 2.57   3 2.57   1 2.57   8 2.57  14 2.57   5 2.57
                            12 2.57
   7  0.000  0.667  0.212-   1 2.57   3 2.57  16 2.57  18 2.57   4 2.57   5 2.57   8 2.57   9 2.57
                            13 2.57
   8  0.333  0.667  0.212-   9 2.57   2 2.57  17 2.57   6 2.57   1 2.57   7 2.57   5 2.57  14 2.57
                            16 2.57
   9  0.667  0.667  0.212-   8 2.57   6 2.57   2 2.57  17 2.57   3 2.57   7 2.57   4 2.57  15 2.57
                            18 2.57
  10  0.111  0.111  0.294-  20 2.55  26 2.56  19 2.56  11 2.57  12 2.57  13 2.57   1 2.57   2 2.57
                             4 2.57  15 2.57  16 2.57  17 2.57
  11  0.444  0.111  0.294-  20 2.55  21 2.55  27 2.56  10 2.57  13 2.57   2 2.57  17 2.57  14 2.57
                            12 2.57   5 2.57   3 2.57  18 2.57
  12  0.778  0.111  0.294-  21 2.55  19 2.56  25 2.56  15 2.57  10 2.57  14 2.57  18 2.57   3 2.57
                             1 2.57  16 2.57  11 2.57   6 2.57
  13  0.111  0.444  0.294-  23 2.55  20 2.55  22 2.56  16 2.57  18 2.57  10 2.57  11 2.57  14 2.57
                             5 2.57   4 2.57   7 2.57  15 2.57
  14  0.444  0.444  0.294-  21 2.55  23 2.55  24 2.56  15 2.57  17 2.57  12 2.57  16 2.57  13 2.57
                            11 2.57   6 2.57   8 2.57   5 2.57
  15  0.778  0.444  0.294-  19 2.56  24 2.56  22 2.56  14 2.57  17 2.57  12 2.57   6 2.57  18 2.57
                            10 2.57   9 2.57  13 2.57   4 2.57
  16  0.111  0.778  0.294-  23 2.55  25 2.56  26 2.56  18 2.57  13 2.57   7 2.57  14 2.57  17 2.57
                            12 2.57  10 2.57   8 2.57   1 2.57
  17  0.444  0.778  0.294-  26 2.56  27 2.56  24 2.56  14 2.57  15 2.57   8 2.57   9 2.57  11 2.57
                            16 2.57  18 2.57  10 2.57   2 2.57
  18  0.778  0.778  0.294-  25 2.56  22 2.56  27 2.56  16 2.57  13 2.57   7 2.57  15 2.57  12 2.57
                            17 2.57   9 2.57   3 2.57  11 2.57
  19  0.889  0.222  0.376-  28 2.55  15 2.56  12 2.56  10 2.56  22 2.56  24 2.56  21 2.57  20 2.57
                            25 2.57  26 2.57  32 2.57  31 2.57
  20  0.222  0.222  0.376-  36 2.48  11 2.55  13 2.55  10 2.55  29 2.56  31 2.56  23 2.56  21 2.56
                            26 2.57  19 2.57  27 2.57  22 2.57
  21  0.555  0.222  0.376-  36 2.48  14 2.55  11 2.55  12 2.55  32 2.56  30 2.56  20 2.56  23 2.56
                            19 2.57  25 2.57  24 2.57  27 2.57
  22  0.888  0.556  0.377-  35 2.55  24 2.56  27 2.56  31 2.56  33 2.56  18 2.56  15 2.56  13 2.56
                            19 2.56  25 2.56  23 2.57  20 2.57
  23  0.222  0.555  0.376-  36 2.48  13 2.55  14 2.55  16 2.55  33 2.56  34 2.56  20 2.56  21 2.56
                            25 2.57  26 2.57  22 2.57  24 2.57
  24  0.556  0.556  0.377-  35 2.55  22 2.56  27 2.56  32 2.56  34 2.56  15 2.56  17 2.56  14 2.56
                            19 2.56  26 2.56  21 2.57  23 2.57
  25  0.889  0.889  0.376-  28 2.55  18 2.56  16 2.56  12 2.56  22 2.56  27 2.56  21 2.57  23 2.57
                            19 2.57  26 2.57  33 2.57  30 2.57
  26  0.222  0.889  0.376-  28 2.55  17 2.56  10 2.56  16 2.56  27 2.56  24 2.56  20 2.57  23 2.57
                            25 2.57  19 2.57  29 2.57  34 2.57
  27  0.556  0.888  0.377-  35 2.55  24 2.56  22 2.56  29 2.56  30 2.56  17 2.56  18 2.56  11 2.56
                            26 2.56  25 2.56  20 2.57  21 2.57
  28  0.000  0.000  0.458-  25 2.55  19 2.55  26 2.55  33 2.58  30 2.58  31 2.58  29 2.58  32 2.58
                            34 2.58
  29  0.333  0.003  0.459-  38 2.03  31 2.54  36 2.55  30 2.55  20 2.56  27 2.56  26 2.57  28 2.58
                            35 2.58  34 2.61
  30  0.664  0.003  0.459-  32 2.54  36 2.55  29 2.55  21 2.56  27 2.56  25 2.57  28 2.58  35 2.58
                            33 2.61
  31  0.003  0.333  0.459-  38 2.02  29 2.54  36 2.55  33 2.55  20 2.56  22 2.56  19 2.57  28 2.58
                            35 2.58  32 2.61
  32  0.664  0.333  0.459-  37 1.96  30 2.54  36 2.55  34 2.55  21 2.56  24 2.56  19 2.57  28 2.58
                            35 2.58  31 2.61
  33  0.003  0.664  0.459-  34 2.54  36 2.55  31 2.55  23 2.56  22 2.56  25 2.57  28 2.58  35 2.58
                            30 2.61
  34  0.333  0.664  0.459-  37 1.96  33 2.54  36 2.55  32 2.55  23 2.56  24 2.56  26 2.57  28 2.58
                            35 2.58  29 2.61
  35  0.667  0.667  0.458-  24 2.55  27 2.55  22 2.55  34 2.58  32 2.58  29 2.58  30 2.58  33 2.58
                            31 2.58
  36  0.333  0.333  0.454-  37 1.75  38 2.00  23 2.48  20 2.48  21 2.48  31 2.55  29 2.55  33 2.55
                            34 2.55  32 2.55  30 2.55
  37  0.426  0.426  0.503-  36 1.75  34 1.96  32 1.96
  38  0.229  0.232  0.512-  39 0.98  36 2.00  31 2.02  29 2.03
  39  0.260  0.267  0.546-  38 0.98

  LATTYP: Found a hexagonal cell.
 ALAT       =     7.6967864036
 C/A-ratio  =     3.2973366172

  Lattice vectors:

 A1 = (  -3.8483927580,  -6.6656128093,   0.0000000000)
 A2 = (   7.6967864037,   0.0000000000,   0.0000000000)
 A3 = (   0.0000000000,   0.0000000000,  25.3788956434)

Analysis of symmetry for initial positions (statically):
 Subroutine PRICEL returns:
 Original cell was already a primitive cell.

 Routine SETGRP: Setting up the symmetry group for a
 hexagonal supercell.

 Subroutine GETGRP returns: Found  1 space group operations
 (whereof  1 operations were pure point group operations)
 out of a pool of 24 trial point group operations.

The static configuration has the point symmetry C_1 .

Analysis of symmetry for dynamics (positions and initial velocities):
 Subroutine PRICEL returns:
 Original cell was already a primitive cell.

[...]

The dynamic configuration has the point symmetry C_1 .

[...]
     41      -4.4638      2.00000
     42      -4.3770      2.00000
     43      -4.3261      2.00000
     44      -4.2964      2.00000
     45      -4.2879      2.00000
     46      -4.2429      2.00000
     47      -4.2134      2.00000
     48      -4.1930      2.00000
     49      -4.1783      2.00000
     50      -4.1656      2.00000
     51      -4.1559      2.00000
     52      -4.1218      2.00000
     53      -4.0382      2.00000
     54      -3.9766      2.00000
     55      -3.9475      2.00000
     56      -3.9410      2.00000
     57      -3.9312      2.00000
     58      -3.8845      2.00000
     59      -3.8771      2.00000
     60      -3.8593      2.00000
[...]
    238       5.2135      0.00000
    239       5.3081      0.00000
    240       5.3737      0.00000
    241       5.4731      0.00000
    242       5.5284      0.00000
    243       5.7203      0.00000
    244       5.8226      0.00000
    245       5.8710      0.00000
    246       5.9183      0.00000
    247       5.9733      0.00000
    248       6.2134      0.00000
    249       6.2685      0.00000
    250       6.3252      0.00000
    251       6.7829      0.00000
    252       6.8141      0.00000

 soft charge-density along one line, spin component           1
         0         1         2         3         4         5         6         7         8         9
 total charge-density along one line

------------------------ aborting loop because EDIFF is reached ----------------------------------------

 total charge

# of ion       s       p       d       tot
    1        0.450   0.282   9.189   9.921
    2        0.447   0.285   9.185   9.917
    3        0.447   0.285   9.185   9.918
    4        0.447   0.285   9.184   9.917
    5        0.447   0.287   9.182   9.915
    6        0.449   0.284   9.184   9.918
    7        0.447   0.285   9.185   9.918
    8        0.449   0.284   9.184   9.917
    9        0.447   0.284   9.186   9.916
   10        0.444   0.369   9.175   9.988
   11        0.441   0.368   9.181   9.990
   12        0.443   0.371   9.175   9.988
   13        0.441   0.368   9.181   9.990
   14        0.441   0.367   9.183   9.991
   15        0.440   0.366   9.181   9.987
   16        0.443   0.371   9.175   9.988
   17        0.440   0.366   9.181   9.987
   18        0.439   0.370   9.177   9.986
   19        0.435   0.378   9.172   9.986
   20        0.468   0.393   9.166  10.026
   21        0.459   0.401   9.163  10.022
   22        0.433   0.375   9.179   9.986
   23        0.459   0.401   9.163  10.022
   24        0.440   0.370   9.185   9.994
   25        0.440   0.364   9.185   9.990
   26        0.435   0.378   9.173   9.986
   27        0.433   0.375   9.179   9.986
   28        0.449   0.277   9.205   9.931
   29        0.420   0.348   9.184   9.953
   30        0.443   0.291   9.202   9.936
   31        0.421   0.352   9.183   9.956
   32        0.432   0.372   9.165   9.970
   33        0.443   0.291   9.203   9.936
   34        0.432   0.372   9.165   9.970
   35        0.445   0.279   9.201   9.925
   36        0.360   0.440   5.192   5.992
   37        1.589   3.345   0.000   4.934
   38        1.553   3.542   0.000   5.094
   39        0.604   0.119   0.000   0.723
tot         19.594  19.336 326.537 365.466

  FORCE on cell =-STRESS in cart. coord.  units (eV):
  Direction    XX          YY          ZZ          XY          YZ          ZX
  Alpha Z   763.50004   763.50004   763.50004
  Ewald  261212.03573261164.90893************    38.99577    18.48903    31.92361
  Hartree273990.65944273967.67200************    18.46050     0.07484     1.26330
  E(xc)   -2342.93858 -2343.09341 -2346.71988     0.13283     0.09119     0.14631
  Local  ************************548466.42070   -53.01850   -12.50992   -23.37179
  n-local  -830.09591  -830.77387  -842.08579     0.52708     0.53623     1.04664
  augment  3351.40983  3352.42159  3365.02850    -0.82734    -0.73946    -1.30540
  Kinetic  3474.71037  3479.80967  3481.89067    -4.59246    -5.69403    -9.17445
  Fock        0.00000     0.00000     0.00000     0.00000     0.00000     0.00000
  Total      -4.74303    -4.40580    -1.93566    -0.32212     0.24788     0.52821
  in kB      -5.83639    -5.42143    -2.38187    -0.39637     0.30502     0.64997

 VOLUME and BASIS-vectors are now :
  energy-cutoff  :      500.00
  volume of cell :     1302.03
      direct lattice vectors                 reciprocal lattice vectors
     7.696786404  0.000000000  0.000000000     0.129924354 -0.075011849  0.000000000
     3.848392758  6.665612809  0.000000000     0.000000000  0.150023716  0.000000000
     0.000000000  0.000000000 25.378895643     0.000000000  0.000000000  0.039402818

  length of vectors
     7.696786404  7.696786404 25.378895643     0.150023716  0.150023716  0.039402818

 FORCES acting on ions
    electron-ion (+dipol)            ewald-force                    non-local-force                 convergence-correction
   0.186E+00 0.107E+00 0.391E+04   -.133E+00 -.773E-01 -.391E+04   -.639E-01 -.376E-01 -.255E+01   0.102E-01 0.691E-02 -.428E+00
   -.156E+00 0.201E+00 0.391E+04   0.267E-01 -.197E+00 -.391E+04   0.753E-01 0.544E-01 -.198E+01   0.532E-01 -.420E-01 -.407E+00
   -.452E-01 0.207E+00 0.391E+04   0.107E+00 -.294E+00 -.391E+04   0.117E-01 0.548E-01 -.188E+01   -.703E-01 0.397E-01 -.464E+00
   0.975E-01 -.233E+00 0.391E+04   -.157E+00 0.119E+00 -.391E+04   0.833E-01 0.382E-01 -.198E+01   -.977E-02 0.669E-01 -.403E+00
   -.886E-01 -.424E-01 0.391E+04   -.215E-01 -.153E-01 -.391E+04   0.887E-01 0.472E-01 -.160E+01   0.360E-01 0.192E-01 -.480E+00
   -.805E-01 -.523E-01 0.391E+04   0.179E+00 -.513E-01 -.391E+04   -.119E+00 0.162E-01 -.179E+01   0.403E-02 0.781E-01 -.463E+00
   0.161E+00 -.151E+00 0.391E+04   -.201E+00 0.242E+00 -.391E+04   0.520E-01 -.133E-01 -.187E+01   -.386E-02 -.798E-01 -.462E+00
   -.938E-01 -.464E-01 0.391E+04   0.472E-01 0.182E+00 -.391E+04   -.430E-01 -.110E+00 -.179E+01   0.734E-01 -.356E-01 -.464E+00
   0.106E-01 0.351E-02 0.391E+04   0.154E+00 0.915E-01 -.391E+04   -.867E-01 -.513E-01 -.217E+01   -.788E-01 -.445E-01 -.402E+00
   0.167E+01 0.979E+00 0.139E+04   -.157E+01 -.923E+00 -.138E+04   -.214E+00 -.122E+00 -.118E+01   0.810E-01 0.474E-01 -.119E+01
   -.495E+00 0.278E+01 0.138E+04   0.697E+00 -.268E+01 -.138E+04   -.115E+00 0.230E-01 -.351E+00   -.866E-01 -.163E+00 -.127E+01
   -.134E+01 0.212E+01 0.138E+04   0.873E+00 -.188E+01 -.138E+04   0.441E+00 -.216E+00 -.101E+01   0.497E-01 -.115E-01 -.120E+01
   0.215E+01 -.180E+01 0.138E+04   -.196E+01 0.193E+01 -.138E+04   -.368E-01 -.113E+00 -.352E+00   -.186E+00 0.792E-02 -.127E+01
   -.151E+01 -.861E+00 0.139E+04   0.140E+01 0.798E+00 -.138E+04   -.270E-01 -.161E-01 -.150E+00   0.145E+00 0.826E-01 -.138E+01
   -.408E+00 -.809E+00 0.138E+04   0.564E+00 0.636E+00 -.138E+04   -.198E+00 0.118E+00 -.831E+00   0.368E-01 0.564E-01 -.119E+01
   0.116E+01 -.224E+01 0.138E+04   -.118E+01 0.171E+01 -.138E+04   0.330E-01 0.493E+00 -.101E+01   0.127E-01 0.477E-01 -.120E+01
   -.910E+00 0.339E-01 0.138E+04   0.839E+00 0.191E+00 -.138E+04   0.165E-02 -.232E+00 -.831E+00   0.678E-01 0.295E-02 -.119E+01
   -.329E+00 -.210E+00 0.138E+04   0.336E+00 0.217E+00 -.138E+04   0.731E-01 0.441E-01 -.750E+00   -.877E-01 -.548E-01 -.116E+01
   0.250E+01 0.300E+01 -.117E+04   -.288E+01 -.287E+01 0.117E+04   0.306E+00 0.165E-01 0.433E+00   0.821E-01 -.409E-01 -.143E+01
   -.973E+01 -.541E+01 -.115E+04   0.106E+02 0.594E+01 0.115E+04   -.626E+00 -.365E+00 -.142E+01   -.433E+00 -.252E+00 -.195E+01
   0.652E+01 0.693E+01 -.116E+04   -.773E+01 -.560E+01 0.116E+04   0.798E+00 -.949E+00 -.111E+01   0.375E+00 -.383E+00 -.184E+01
   -.440E+01 -.593E+01 -.117E+04   0.463E+01 0.588E+01 0.117E+04   0.509E-02 -.193E+00 0.667E+00   -.212E+00 0.134E+00 -.151E+01
   0.911E+01 0.217E+01 -.116E+04   -.857E+01 -.389E+01 0.116E+04   -.419E+00 0.117E+01 -.111E+01   -.143E+00 0.516E+00 -.185E+01
   -.437E+01 -.256E+01 -.116E+04   0.390E+01 0.230E+01 0.116E+04   0.989E-02 -.134E-02 0.710E+00   0.380E+00 0.217E+00 -.143E+01
   0.333E+01 0.184E+01 -.118E+04   -.350E+01 -.194E+01 0.118E+04   0.140E+00 0.801E-01 0.905E+00   0.285E-01 0.185E-01 -.134E+01
   0.370E+01 0.623E+00 -.117E+04   -.379E+01 -.102E+01 0.117E+04   0.178E+00 0.268E+00 0.447E+00   0.625E-02 0.936E-01 -.143E+01
   -.725E+01 -.102E+01 -.117E+04   0.734E+01 0.123E+01 0.118E+04   -.175E+00 0.108E+00 0.690E+00   0.103E-01 -.249E+00 -.151E+01
   0.318E+02 0.184E+02 -.374E+04   -.324E+02 -.188E+02 0.373E+04   0.643E+00 0.377E+00 0.260E+01   -.186E+00 -.108E+00 -.421E+00
   -.416E+01 0.121E+03 -.363E+04   0.471E+01 -.125E+03 0.362E+04   -.259E+00 0.358E+01 0.420E+01   -.322E+00 -.873E+00 -.665E+00
   -.263E+02 0.463E+02 -.373E+04   0.262E+02 -.473E+02 0.373E+04   -.120E+00 0.118E+01 0.305E+01   0.521E+00 -.737E+00 -.458E+00
   0.105E+03 -.638E+02 -.363E+04   -.108E+03 0.659E+02 0.362E+04   0.294E+01 -.195E+01 0.405E+01   -.917E+00 0.155E+00 -.669E+00
   -.120E+03 0.626E+02 -.364E+04   0.123E+03 -.643E+02 0.364E+04   -.279E+01 0.145E+01 0.220E+01   0.751E+00 -.200E-01 -.471E+00
   0.269E+02 -.470E+02 -.373E+04   -.278E+02 0.474E+02 0.372E+04   0.945E+00 -.731E+00 0.307E+01   -.381E+00 0.822E+00 -.457E+00
   -.651E+01 -.136E+03 -.364E+04   0.642E+01 0.139E+03 0.364E+04   -.145E+00 -.314E+01 0.219E+01   0.363E+00 0.662E+00 -.467E+00
   -.277E+02 -.166E+02 -.374E+04   0.283E+02 0.169E+02 0.374E+04   -.437E+00 -.246E+00 0.256E+01   0.106E-01 0.866E-02 -.529E+00
   0.260E+02 0.160E+02 -.211E+04   -.261E+02 -.160E+02 0.212E+04   0.190E+00 0.115E+00 0.421E+00   0.847E-01 0.463E-01 -.518E+00
   -.637E+01 -.328E+01 -.256E+04   0.781E+01 0.409E+01 0.258E+04   -.212E+01 -.121E+01 -.264E+02   0.661E+00 0.386E+00 0.485E+00
   0.153E+02 0.107E+02 -.252E+04   -.305E+02 -.205E+02 0.251E+04   0.157E+02 0.101E+02 0.147E+02   -.536E+00 -.304E+00 0.592E+00
   -.244E+02 -.159E+02 -.475E+03   0.276E+02 0.178E+02 0.482E+03   -.313E+01 -.198E+01 -.727E+01   -.125E-01 -.503E-02 0.124E+00
   -.118E+02 -.770E+01 0.512E+02   0.711E-14 0.220E-12 0.819E-11   0.116E+02 0.760E+01 -.186E+02   0.177E+00 0.111E+00 -.327E+02

 POSITION                                       TOTAL-FORCE (eV/Angst)
      0.00000      0.00000      5.37156        -0.001420     -0.001266     -0.001625
      2.56560      0.00000      5.37156        -0.000969      0.016335      0.064072
      5.13119      0.00000      5.37156         0.003198      0.007527      0.072519
      1.28280      2.22187      5.37156         0.014080     -0.009840      0.064055
      3.84839      2.22187      5.37156         0.014850      0.008285      0.071545
      6.41399      2.22187      5.37156        -0.016162     -0.009745      0.052881
      2.56560      4.44374      5.37156         0.008656     -0.002045      0.072294
      5.13119      4.44374      5.37156        -0.015946     -0.010395      0.052918
      7.69679      4.44374      5.37156        -0.000985     -0.001329      0.040955
      1.28280      0.74062      7.46636        -0.030896     -0.018966     -0.111160
      3.84839      0.74062      7.46636         0.001740     -0.039759     -0.113719
      6.41399      0.74062      7.46636         0.021578      0.017615     -0.054985
      2.56560      2.96249      7.46636        -0.032448      0.020401     -0.114096
      5.13119      2.96249      7.46636         0.007038      0.003135     -0.078507
      7.69679      2.96249      7.46636        -0.005187      0.000616     -0.070211
      3.84839      5.18437      7.46636         0.026380      0.009246     -0.054910
      6.41399      5.18437      7.46636        -0.001285     -0.005143     -0.068824
      8.97958      5.18437      7.46636        -0.007049     -0.004406      0.004103
      7.69679      1.48275      9.55327         0.015062      0.103175      0.231314
      2.56715      1.48214      9.54261        -0.144927     -0.084254     -0.270875
      5.12964      1.48214      9.54261        -0.041663     -0.007874     -0.095441
      8.97640      3.70496      9.55687         0.029567     -0.102088      0.089229
      3.84839      3.70133      9.54261        -0.025834     -0.034938     -0.092958
      6.41717      3.70496      9.55687        -0.078022     -0.046595     -0.087128
     10.26108      5.92424      9.55327         0.000855      0.000172      0.044223
      5.13249      5.92424      9.55327         0.095301     -0.038801      0.230150
      7.69679      5.92131      9.55687        -0.072048      0.076623      0.089547
      0.00000      0.00000     11.63217        -0.133280     -0.079462     -0.159899
      2.57513      0.01976     11.64308        -0.030800     -0.804028     -0.169666
      5.12165      0.01976     11.64308         0.283979     -0.534323     -0.349847
      1.30468      2.22025     11.64308        -0.731630      0.378488     -0.182943
      6.39211      2.22025     11.64308         0.675872     -0.243821     -0.009531
      2.57794      4.42560     11.64308        -0.320573      0.520266     -0.352829
      5.11885      4.42560     11.64308         0.128400      0.711173     -0.009915
      7.69679      4.44374     11.63403         0.165078      0.097867     -0.073147
      3.84839      2.22187     11.52902         0.213776      0.117483      1.297353
      4.91944      2.84065     12.77252        -0.014032     -0.007687      0.014342
      2.65607      1.54417     12.98451        -0.000549      0.006732      0.042578
      3.03204      1.78182     13.85350         0.000293     -0.008374     -0.011863
    total drift:                               -0.009203      0.018731     -0.095621

  FREE ENERGIE OF THE ION-ELECTRON SYSTEM (eV)
  free  energy   TOTEN  =      -147.77173441 eV

  energy  without entropy=     -147.77173441  energy(sigma->0) =     -147.77173441

 stress matrix after NEB project (eV)
     -4.74303     -0.32212      0.52821
     -0.32212     -4.40580      0.24788
      0.52821      0.24788     -1.93566
  FORCES: max atom, RMS     0.043111    0.008056
  FORCE total and by dimension    0.050311    0.042578
  Stress total and by dimension    6.822218    4.743033
|           W    W    AA    RRRRR   N    N  II  N    N   GGGG   !!!           |
|           W    W   A  A   R    R  NN   N  II  NN   N  G    G  !!!           |
|           W    W  A    A  R    R  N N  N  II  N N  N  G       !!!           |
|           W WW W  AAAAAA  RRRRR   N  N N  II  N  N N  G  GGG   !            |
|           WW  WW  A    A  R   R   N   NN  II  N   NN  G    G                |
|           W    W  A    A  R    R  N    N  II  N    N   GGGG   !!!           |
|     Tetrahedron method does not include variations of the Fermi             |
|     occupations, so forces and stress will be inaccurate. We suggest        |
|     using a different smearing scheme ISMEAR = 1 or 2 for metals in         |
|     relaxations.                                                            |

 total charge

# of ion       s       p       d       tot
    1        0.450   0.282   9.189   9.921
    2        0.447   0.285   9.185   9.917
    3        0.447   0.285   9.185   9.918
    4        0.447   0.285   9.184   9.917
    5        0.447   0.287   9.182   9.915
    6        0.449   0.284   9.184   9.918
    7        0.447   0.285   9.185   9.918
    8        0.449   0.284   9.184   9.917
    9        0.447   0.284   9.186   9.916
   10        0.444   0.369   9.175   9.988
   11        0.441   0.368   9.181   9.990
   12        0.443   0.371   9.175   9.988
   13        0.441   0.368   9.181   9.990
   14        0.441   0.367   9.183   9.991
   15        0.440   0.366   9.181   9.987
   16        0.443   0.371   9.175   9.988
   17        0.440   0.366   9.181   9.987
   18        0.439   0.370   9.177   9.986
   19        0.435   0.378   9.172   9.986
   20        0.468   0.393   9.166  10.026
   21        0.459   0.401   9.163  10.022
   22        0.433   0.375   9.179   9.986
   23        0.459   0.401   9.163  10.022
   24        0.440   0.370   9.185   9.994
   25        0.440   0.364   9.185   9.990
   26        0.435   0.378   9.173   9.986
   27        0.433   0.375   9.179   9.986
   28        0.449   0.277   9.205   9.931
   29        0.420   0.348   9.184   9.953
   30        0.443   0.291   9.202   9.936
   31        0.421   0.352   9.183   9.956
   32        0.432   0.372   9.165   9.970
   33        0.443   0.291   9.203   9.936
   34        0.432   0.372   9.165   9.970
   35        0.445   0.279   9.201   9.925
   36        0.360   0.440   5.192   5.992
   37        1.589   3.345   0.000   4.934
   38        1.553   3.542   0.000   5.094
   39        0.604   0.119   0.000   0.723
tot         19.594  19.336 326.537 365.466

 BZINTS: Fermi energy:   -0.503461;  405.000000 electrons
         Band energy:-0.143843E+04;  BLOECHL correction:   -0.027856