 vasp.6.2.0 18Jan21 (build Jun 12 2021 23:27:24) complex

 executed on             LinuxIFC date 2022.05.26  20:24:46

 INCAR:
   ISMEAR = -5
   SIGMA = 0.1
   ISPIN = 1
   EDIFF = 1.d-5
   EDIFFG = -0.01
   NSW = 0
   NELM = 150
   ENCUT = 500
   ISIF = 2
   IBRION = 2
   LREAL = Auto
   ALGO = Fast
   ICHARG = 11
   LORBIT = 10
   LCHARG = .F.
   LWAVE = .F.

 POTCAR:    PAW_PBE Cu 22Jun2005
 POTCAR:    PAW_PBE V 08Apr2002
|           W    W    AA    RRRRR   N    N  II  N    N   GGGG   !!!           |
|           W    W   A  A   R    R  NN   N  II  NN   N  G    G  !!!           |
|           W    W  A    A  R    R  N N  N  II  N N  N  G       !!!           |
|           W WW W  AAAAAA  RRRRR   N  N N  II  N  N N  G  GGG   !            |
|           WW  WW  A    A  R   R   N   NN  II  N   NN  G    G                |
|           W    W  A    A  R    R  N    N  II  N    N   GGGG   !!!           |
|     For optimal performance we recommend to set                             |
|       NCORE = 2 up to number-of-cores-per-socket                            |
|     This setting can greatly improve the performance of VASP for DFT.       |
|     The default, NCORE=1 might be grossly inefficient on modern             |
|     multi-core architectures or massively parallel machines. Do your        |
|     Unfortunately you need to use the default for GW and RPA                |
|     calculations (for HF NCORE is supported but not extensively tested      |
|     yet).                                                                   |

 POTCAR:    PAW_PBE Cu 22Jun2005
   VRHFIN =Cu: d10 p1

   TITEL  = PAW_PBE Cu 22Jun2005
   POMASS =   63.546; ZVAL   =   11.000    mass and valenz
   ENMAX  =  295.446; ENMIN  =  221.585 eV

 POTCAR:    PAW_PBE V 08Apr2002
   VRHFIN =V: p6 d4 s1

   TITEL  = PAW_PBE V 08Apr2002
   POMASS =   50.941; ZVAL   =    5.000    mass and valenz
   ENMAX  =  192.543; ENMIN  =  144.408 eV

 Optimization of the real space projectors (new method)

 maximal supplied QI-value         = 16.25
 optimisation between [QCUT,QGAM] = [ 11.38, 22.75] = [ 36.24,144.96] Ry
 Optimized for a Real-space Cutoff    1.52 Angstroem

   l    n(q)    QCUT    max X(q) W(low)/X(q) W(high)/X(q)  e(spline)
   2      9    11.376     4.610    0.21E-03    0.10E-03    0.26E-06
   2      9    11.376     8.522    0.33E-03    0.16E-03    0.37E-06
   0     10    11.376    51.609    0.62E-04    0.20E-04    0.13E-06
   0     10    11.376    27.747    0.54E-04    0.20E-04    0.13E-06
   1     10    11.376    20.408    0.13E-04    0.99E-04    0.19E-06
   1     10    11.376    13.425    0.12E-04    0.87E-04    0.17E-06
 Optimization of the real space projectors (new method)

 maximal supplied QI-value         = 13.98
 optimisation between [QCUT,QGAM] = [ 11.33, 22.79] = [ 35.93,145.49] Ry
 Optimized for a Real-space Cutoff    1.56 Angstroem

   l    n(q)    QCUT    max X(q) W(low)/X(q) W(high)/X(q)  e(spline)
   2     10    11.327    96.114    0.36E-03    0.35E-03    0.42E-06
   2     10    11.327    88.986    0.37E-03    0.35E-03    0.42E-06
   0     11    11.327    20.919    0.40E-04    0.56E-04    0.79E-06
   0     11    11.327     9.593    0.30E-04    0.41E-04    0.60E-06
   1     10    11.327    11.615    0.15E-03    0.10E-03    0.19E-06
   1     10    11.327     7.031    0.11E-03    0.73E-04    0.14E-06
  PAW_PBE Cu 22Jun2005                  :
  PAW_PBE V 08Apr2002                   :

 POSCAR: Cu-V
  positions in direct lattice
  velocities in cartesian coordinates
 exchange correlation table for  LEXCH =        8
   RHO(1)=    0.500       N(1)  =     2000
   RHO(2)=  100.500       N(2)  =     4000

 VTST: version 3.2, (02/03/18)

 CHAIN: initializing optimizer

 OPT: Using VASP Conjugate-Gradient optimizer
 CHAIN: Read ICHAIN            0

 POSCAR: Cu-V
  positions in direct lattice
  velocities in cartesian coordinates

 ion  position               nearest neighbor table
   1  0.000  0.000  0.252-   7 2.57   3 2.57   4 2.57   2 2.57   6 2.57   8 2.57  12 2.57  10 2.57
                            16 2.57
   2  0.333  0.000  0.252-   8 2.57   9 2.57   5 2.57   1 2.57   3 2.57  11 2.57   4 2.57  10 2.57
                            17 2.57
   3  0.667  0.000  0.252-   1 2.57   7 2.57   6 2.57   9 2.57   2 2.57  12 2.57   5 2.57  18 2.57
                            11 2.57
   4  0.000  0.333  0.252-   5 2.57   6 2.57   1 2.57   7 2.57   2 2.57  13 2.57   9 2.57  10 2.57
                            15 2.57
   5  0.333  0.333  0.252-   4 2.57   2 2.57   7 2.57  13 2.57   8 2.57   6 2.57   3 2.57  11 2.57
                            14 2.57
   6  0.667  0.333  0.252-   4 2.57   9 2.57  15 2.57   3 2.57   1 2.57   8 2.57  14 2.57   5 2.57
                            12 2.57
   7  0.000  0.667  0.252-   1 2.57   3 2.57  16 2.57  18 2.57   4 2.57   5 2.57   8 2.57   9 2.57
                            13 2.57
   8  0.333  0.667  0.252-   9 2.57   2 2.57  17 2.57   6 2.57   1 2.57   7 2.57   5 2.57  14 2.57
                            16 2.57
   9  0.667  0.667  0.252-   8 2.57   6 2.57   2 2.57  17 2.57   3 2.57   7 2.57   4 2.57  15 2.57
                            18 2.57
  10  0.111  0.111  0.351-  26 2.56  19 2.56  20 2.56  11 2.57  12 2.57  13 2.57   1 2.57   2 2.57
                             4 2.57  15 2.57  16 2.57  17 2.57
  11  0.444  0.111  0.351-  20 2.56  21 2.56  10 2.57  13 2.57   2 2.57  17 2.57  14 2.57  12 2.57
                             5 2.57   3 2.57  18 2.57  27 2.57
  12  0.778  0.111  0.351-  19 2.56  25 2.56  21 2.56  15 2.57  10 2.57  14 2.57  18 2.57   3 2.57
                             1 2.57  16 2.57  11 2.57   6 2.57
  13  0.111  0.444  0.351-  23 2.56  20 2.56  16 2.57  18 2.57  10 2.57  11 2.57  14 2.57   5 2.57
                             4 2.57   7 2.57  15 2.57  22 2.57
  14  0.444  0.444  0.351-  21 2.56  23 2.56  15 2.57  17 2.57  12 2.57  16 2.57  13 2.57  11 2.57
                             6 2.57   8 2.57   5 2.57  24 2.57
  15  0.778  0.444  0.351-  19 2.56  24 2.57  22 2.57  14 2.57  17 2.57  12 2.57   6 2.57  18 2.57
                            10 2.57   9 2.57  13 2.57   4 2.57
  16  0.111  0.778  0.351-  25 2.56  26 2.56  23 2.56  18 2.57  13 2.57   7 2.57  14 2.57  17 2.57
                            12 2.57  10 2.57   8 2.57   1 2.57
  17  0.444  0.778  0.351-  26 2.56  27 2.57  24 2.57  14 2.57  15 2.57   8 2.57   9 2.57  11 2.57
                            16 2.57  18 2.57  10 2.57   2 2.57
  18  0.778  0.778  0.351-  25 2.56  22 2.57  27 2.57  16 2.57  13 2.57   7 2.57  15 2.57  12 2.57
                            17 2.57   9 2.57   3 2.57  11 2.57
  19  0.889  0.222  0.449-  12 2.56  10 2.56  15 2.56  28 2.56  25 2.56  26 2.56  21 2.57  20 2.57
                            22 2.57  24 2.57  32 2.58  31 2.58
  20  0.222  0.222  0.449-  36 2.54  11 2.56  13 2.56  10 2.56  23 2.56  21 2.56  26 2.57  19 2.57
                            27 2.57  22 2.57  29 2.57  31 2.57
  21  0.555  0.222  0.449-  36 2.54  14 2.56  11 2.56  12 2.56  20 2.56  23 2.56  19 2.57  25 2.57
                            24 2.57  27 2.57  32 2.57  30 2.57
  22  0.888  0.556  0.449-  24 2.56  27 2.56  35 2.56  18 2.57  15 2.57  19 2.57  25 2.57  31 2.57
                            33 2.57  13 2.57  23 2.57  20 2.57
  23  0.222  0.555  0.449-  36 2.54  13 2.56  14 2.56  16 2.56  20 2.56  21 2.56  25 2.57  26 2.57
                            22 2.57  24 2.57  33 2.57  34 2.57
  24  0.556  0.556  0.449-  22 2.56  27 2.56  35 2.56  15 2.57  17 2.57  19 2.57  26 2.57  32 2.57
                            34 2.57  14 2.57  21 2.57  23 2.57
  25  0.889  0.889  0.449-  12 2.56  16 2.56  18 2.56  28 2.56  19 2.56  26 2.56  21 2.57  23 2.57
                            22 2.57  27 2.57  33 2.58  30 2.58
  26  0.222  0.889  0.449-  10 2.56  16 2.56  17 2.56  28 2.56  25 2.56  19 2.56  20 2.57  23 2.57
                            27 2.57  24 2.57  29 2.58  34 2.58
  27  0.556  0.888  0.449-  24 2.56  22 2.56  35 2.56  17 2.57  18 2.57  26 2.57  25 2.57  29 2.57
                            30 2.57  11 2.57  20 2.57  21 2.57
  28  0.000  0.000  0.547-  25 2.56  19 2.56  26 2.56  33 2.57  30 2.57  31 2.57  29 2.57  32 2.57
                            34 2.57
  29  0.333  0.000  0.548-  30 2.56  36 2.56  31 2.56  27 2.57  35 2.57  28 2.57  20 2.57  34 2.57
                            26 2.58
  30  0.666  0.000  0.548-  29 2.56  36 2.56  32 2.56  27 2.57  35 2.57  28 2.57  21 2.57  33 2.57
                            25 2.58
  31  0.000  0.333  0.548-  33 2.56  36 2.56  29 2.56  22 2.57  35 2.57  28 2.57  20 2.57  32 2.57
                            19 2.58
  32  0.666  0.333  0.548-  34 2.56  36 2.56  30 2.56  24 2.57  35 2.57  28 2.57  21 2.57  31 2.57
                            19 2.58
  33  0.000  0.666  0.548-  31 2.56  36 2.56  34 2.56  22 2.57  35 2.57  28 2.57  23 2.57  30 2.57
                            25 2.58
  34  0.333  0.666  0.548-  32 2.56  36 2.56  33 2.56  24 2.57  35 2.57  28 2.57  23 2.57  29 2.57
                            26 2.58
  35  0.667  0.667  0.548-  24 2.56  27 2.56  22 2.56  34 2.57  32 2.57  29 2.57  30 2.57  33 2.57
                            31 2.57
  36  0.333  0.333  0.546-  23 2.54  20 2.54  21 2.54  31 2.56  29 2.56  33 2.56  32 2.56  34 2.56
                            30 2.56

  LATTYP: Found a hexagonal cell.
 ALAT       =     7.6967864036
 C/A-ratio  =     2.7653617908

  Lattice vectors:

 A1 = (  -3.8483927580,  -6.6656128093,   0.0000000000)
 A2 = (   7.6967864037,   0.0000000000,   0.0000000000)
 A3 = (   0.0000000000,   0.0000000000,  21.2843990326)

Analysis of symmetry for initial positions (statically):
 Subroutine PRICEL returns:
 Original cell was already a primitive cell.

 Routine SETGRP: Setting up the symmetry group for a
 hexagonal supercell.

 Subroutine GETGRP returns: Found  6 space group operations
 (whereof  6 operations were pure point group operations)
 out of a pool of 24 trial point group operations.

The static configuration has the point symmetry C_3v.

Analysis of symmetry for dynamics (positions and initial velocities):
 Subroutine PRICEL returns:
 Original cell was already a primitive cell.

[...]

The dynamic configuration has the point symmetry C_3v.

Analysis of constrained symmetry for selective dynamics:
 Subroutine PRICEL returns:
 Original cell was already a primitive cell.

 Routine SETGRP: Setting up the symmetry group for a
 hexagonal supercell.

 Subroutine GETGRP returns: Found  6 space group operations
 (whereof  6 operations were pure point group operations)
 out of a pool of 24 trial point group operations.

The constrained configuration has the point symmetry C_3v.

 Subroutine INISYM returns: Found  6 space group operations
 (whereof  6 operations are pure point group operations),
 and found     1 'primitive' translations

                                     Primitive cell

  volume of cell :    1091.9705

  direct lattice vectors                    reciprocal lattice vectors
     7.696786404  0.000000000  0.000000000     0.129924354 -0.075011849  0.000000000
     3.848392758  6.665612809  0.000000000     0.000000000  0.150023716  0.000000000
[...]
     15      -4.4947      2.00000
     16      -4.4871      2.00000
     17      -4.4802      2.00000
     18      -4.4099      2.00000
     19      -4.4049      2.00000
     20      -4.3399      2.00000
     21      -4.3327      2.00000
     22      -4.3179      2.00000
     23      -4.2946      2.00000
     24      -4.1157      2.00000
     25      -4.1043      2.00000
     26      -4.0587      2.00000
     27      -4.0421      2.00000
     28      -4.0361      2.00000
     29      -4.0347      2.00000
     30      -4.0276      2.00000
     31      -4.0153      2.00000
     32      -3.9801      2.00000
     33      -3.9687      2.00000
     34      -3.9466      2.00000
     35      -3.8653      2.00000
     36      -3.8510      2.00000
     37      -3.7197      2.00000
     38      -3.7166      2.00000
     39      -3.6409      2.00000
     40      -3.6359      2.00000
     41      -3.6300      2.00000
     42      -3.6043      2.00000
     43      -3.5915      2.00000
     44      -3.5870      2.00000
     45      -3.5843      2.00000
     46      -3.4066      2.00000
     47      -3.3922      2.00000
     48      -3.3799      2.00000
     49      -3.3641      2.00000
     50      -3.3213      2.00000
     51      -3.3158      2.00000
     52      -3.2953      2.00000
     53      -3.2941      2.00000
     54      -3.2814      2.00000
     55      -3.2716      2.00000
     56      -3.2379      2.00000
     57      -3.2357      2.00000
     58      -3.2264      2.00000
     59      -3.2150      2.00000
     60      -3.2045      2.00000
[...]
    238       6.8497      0.00000
    239       6.8794      0.00000
    240       6.9935      0.00000
    241       7.0390      0.00000
    242       7.2755      0.00000
    243       7.2893      0.00000
    244       7.3576      0.00000
    245       7.3960      0.00000
    246       7.5614      0.00000
    247       7.6657      0.00000
    248       7.8627      0.00000
    249       7.9309      0.00000
    250       8.1579      0.00000
    251       8.2180      0.00000
    252       8.4253      0.00000

 soft charge-density along one line, spin component           1
         0         1         2         3         4         5         6         7         8         9
 total charge-density along one line

------------------------ aborting loop because EDIFF is reached ----------------------------------------

 total charge

# of ion       s       p       d       tot
    1        0.450   0.283   9.188   9.920
    2        0.447   0.286   9.185   9.918
    3        0.447   0.286   9.185   9.918
    4        0.447   0.286   9.185   9.918
    5        0.449   0.287   9.181   9.916
    6        0.447   0.286   9.185   9.918
    7        0.447   0.286   9.185   9.918
    8        0.447   0.286   9.185   9.918
    9        0.449   0.283   9.188   9.920
   10        0.443   0.371   9.175   9.989
   11        0.441   0.366   9.183   9.990
   12        0.443   0.371   9.175   9.989
   13        0.441   0.366   9.183   9.990
   14        0.441   0.366   9.183   9.990
   15        0.440   0.370   9.176   9.985
   16        0.443   0.371   9.175   9.989
   17        0.440   0.370   9.176   9.985
   18        0.440   0.370   9.176   9.985
   19        0.442   0.370   9.178   9.989
   20        0.463   0.394   9.157  10.013
   21        0.463   0.394   9.157  10.013
   22        0.433   0.374   9.180   9.986
   23        0.463   0.394   9.157  10.013
   24        0.433   0.374   9.180   9.986
   25        0.442   0.370   9.178   9.989
   26        0.442   0.370   9.178   9.989
   27        0.433   0.374   9.180   9.986
   28        0.445   0.289   9.180   9.913
   29        0.472   0.305   9.162   9.939
   30        0.472   0.305   9.162   9.939
   31        0.472   0.305   9.162   9.939
   32        0.472   0.305   9.162   9.939
   33        0.472   0.305   9.162   9.939
   34        0.472   0.305   9.162   9.939
   35        0.439   0.292   9.179   9.910
   36        0.496   0.462   3.350   4.308
tot         16.223  12.171 324.493 352.887

  FORCE on cell =-STRESS in cart. coord.  units (eV):
  Direction    XX          YY          ZZ          XY          YZ          ZX
  Alpha Z   853.21832   853.21832   853.21832
  Ewald  170573.69615170573.69582************     0.00035     0.00012     0.00014
  Hartree183368.33074183368.33076************     0.00002     0.00005     0.00005
  E(xc)   -2267.58926 -2267.58877 -2272.01587    -0.00042    -0.00004    -0.00006
  Local  ************************366909.55225     0.01851    -0.00057    -0.00088
  n-local  -762.30130  -747.62329  -768.71948     7.27452    -0.22887     0.40562
  augment  3327.51212  3327.53245  3349.89604    -0.01760     0.00021     0.00034
  Kinetic  3157.07359  3157.80086  3190.74223     1.68801     1.66875    -1.49399
  Fock        0.00000     0.00000     0.00000     0.00000     0.00000     0.00000
  Total     -11.28147   -11.28147    -3.78493     0.00000    -0.00000     0.00000
  in kB     -16.55256   -16.55256    -5.55338     0.00000    -0.00000     0.00000

 VOLUME and BASIS-vectors are now :
  energy-cutoff  :      500.00
  volume of cell :     1091.97
      direct lattice vectors                 reciprocal lattice vectors
     7.696786404  0.000000000  0.000000000     0.129924354 -0.075011849  0.000000000
     3.848392758  6.665612809  0.000000000     0.000000000  0.150023716  0.000000000
     0.000000000  0.000000000 21.284399033     0.000000000  0.000000000  0.046982769

  length of vectors
     7.696786404  7.696786404 21.284399033     0.150023716  0.150023716  0.046982769

 FORCES acting on ions
    electron-ion (+dipol)            ewald-force                    non-local-force                 convergence-correction
   -.416E-04 0.117E-06 0.344E+04   0.581E-04 -.429E-05 -.343E+04   0.778E-17 0.398E-17 -.232E+01   -.278E-03 -.128E-03 0.307E+00
   -.743E+00 -.636E+00 0.343E+04   0.648E+00 0.652E+00 -.343E+04   0.758E-01 0.116E+00 -.190E+01   0.246E-01 -.118E+00 0.267E+00
   0.743E+00 -.636E+00 0.343E+04   -.648E+00 0.652E+00 -.343E+04   -.758E-01 0.116E+00 -.190E+01   -.239E-01 -.115E+00 0.268E+00
   -.922E+00 -.326E+00 0.343E+04   0.888E+00 0.235E+00 -.343E+04   0.138E+00 0.773E-02 -.190E+01   -.895E-01 0.801E-01 0.267E+00
   -.621E-04 -.364E-05 0.343E+04   0.116E-03 -.101E-04 -.343E+04   -.529E-17 0.492E-18 -.146E+01   0.121E-01 0.740E-02 0.541E+00
   0.922E+00 -.326E+00 0.343E+04   -.888E+00 0.235E+00 -.343E+04   -.138E+00 0.773E-02 -.190E+01   0.880E-01 0.813E-01 0.268E+00
   -.179E+00 0.961E+00 0.343E+04   0.241E+00 -.887E+00 -.343E+04   0.624E-01 -.124E+00 -.190E+01   -.112E+00 0.369E-01 0.268E+00
   0.179E+00 0.961E+00 0.343E+04   -.241E+00 -.887E+00 -.343E+04   -.624E-01 -.124E+00 -.190E+01   0.115E+00 0.355E-01 0.268E+00
   -.144E-03 -.330E-04 0.343E+04   0.263E-03 0.204E-04 -.343E+04   -.420E-19 0.540E-18 -.208E+01   -.132E-01 -.680E-02 0.148E+00
   -.524E+01 -.302E+01 0.110E+04   0.561E+01 0.324E+01 -.110E+04   -.341E+00 -.197E+00 -.976E+00   -.372E-01 -.215E-01 -.273E-01
   -.907E-04 -.625E+01 0.109E+04   0.189E-03 0.596E+01 -.109E+04   -.152E-07 0.229E+00 -.159E+00   0.115E-01 0.210E-01 -.795E-01
   0.524E+01 -.302E+01 0.110E+04   -.561E+01 0.324E+01 -.110E+04   0.341E+00 -.197E+00 -.976E+00   0.360E-01 -.205E-01 -.284E-01
   -.542E+01 0.313E+01 0.109E+04   0.516E+01 -.298E+01 -.109E+04   0.198E+00 -.114E+00 -.159E+00   0.244E-01 0.285E-03 -.794E-01
   0.542E+01 0.313E+01 0.109E+04   -.516E+01 -.298E+01 -.109E+04   -.198E+00 -.114E+00 -.159E+00   -.867E-03 -.874E-03 -.816E-01
   -.141E-03 -.967E+00 0.110E+04   0.297E-03 0.769E+00 -.110E+04   -.770E-08 0.116E+00 -.944E+00   -.311E-02 0.743E-01 -.851E-01
   -.925E-04 0.605E+01 0.110E+04   0.187E-03 -.648E+01 -.110E+04   -.263E-07 0.394E+00 -.976E+00   -.703E-03 0.402E-01 -.285E-01
   -.837E+00 0.483E+00 0.110E+04   0.666E+00 -.384E+00 -.110E+04   0.100E+00 -.578E-01 -.944E+00   0.635E-01 -.399E-01 -.852E-01
   0.837E+00 0.483E+00 0.110E+04   -.666E+00 -.384E+00 -.110E+04   -.100E+00 -.578E-01 -.944E+00   -.623E-01 -.377E-01 -.842E-01
   -.667E-04 -.760E+01 -.123E+04   0.734E-04 0.768E+01 0.123E+04   0.381E-08 -.572E-01 0.857E+00   0.103E-02 -.270E-01 -.134E+00
   -.552E+02 -.319E+02 -.130E+04   0.566E+02 0.327E+02 0.131E+04   -.108E+01 -.621E+00 -.698E+00   -.308E+00 -.178E+00 -.453E+00
   0.552E+02 -.319E+02 -.130E+04   -.566E+02 0.327E+02 0.131E+04   0.108E+01 -.621E+00 -.698E+00   0.288E+00 -.179E+00 -.455E+00
   -.278E+02 0.161E+02 -.125E+04   0.277E+02 -.160E+02 0.124E+04   0.319E+00 -.184E+00 0.594E+00   -.182E+00 0.104E+00 -.245E+00
   -.827E-04 0.637E+02 -.130E+04   0.152E-03 -.653E+02 0.131E+04   -.827E-07 0.124E+01 -.698E+00   -.125E-01 0.337E+00 -.455E+00
   0.278E+02 0.161E+02 -.125E+04   -.277E+02 -.160E+02 0.124E+04   -.319E+00 -.184E+00 0.594E+00   0.183E+00 0.105E+00 -.244E+00
   0.658E+01 0.380E+01 -.123E+04   -.665E+01 -.384E+01 0.123E+04   0.495E-01 0.286E-01 0.857E+00   0.237E-01 0.137E-01 -.134E+00
   -.658E+01 0.380E+01 -.123E+04   0.665E+01 -.384E+01 0.123E+04   -.495E-01 0.286E-01 0.857E+00   -.225E-01 0.146E-01 -.134E+00
   -.124E-03 -.321E+02 -.125E+04   0.238E-03 0.320E+02 0.124E+04   -.245E-07 0.369E+00 0.594E+00   -.986E-03 -.209E+00 -.244E+00
   -.409E-04 0.141E-04 -.347E+04   0.464E-04 -.314E-04 0.347E+04   0.422E-17 0.263E-17 0.184E+01   -.133E-02 -.716E-03 -.267E+00
   -.503E+02 -.934E+02 -.348E+04   0.513E+02 0.947E+02 0.348E+04   -.817E+00 -.103E+01 0.892E+00   -.117E+00 -.259E+00 -.254E+00
   0.503E+02 -.934E+02 -.348E+04   -.513E+02 0.947E+02 0.348E+04   0.817E+00 -.103E+01 0.892E+00   0.139E+00 -.257E+00 -.254E+00
   -.106E+03 0.309E+01 -.348E+04   0.108E+03 -.292E+01 0.348E+04   -.130E+01 -.193E+00 0.892E+00   -.282E+00 0.280E-01 -.254E+00
   0.106E+03 0.309E+01 -.348E+04   -.108E+03 -.292E+01 0.348E+04   0.130E+01 -.193E+00 0.892E+00   0.305E+00 0.292E-01 -.253E+00
   -.557E+02 0.903E+02 -.348E+04   0.563E+02 -.917E+02 0.348E+04   -.482E+00 0.122E+01 0.892E+00   -.153E+00 0.249E+00 -.254E+00
   0.557E+02 0.903E+02 -.348E+04   -.563E+02 -.917E+02 0.348E+04   0.482E+00 0.122E+01 0.892E+00   0.178E+00 0.249E+00 -.253E+00
   -.120E-03 -.153E-04 -.348E+04   0.245E-03 0.191E-05 0.348E+04   0.709E-17 -.120E-17 0.249E+01   -.142E-01 -.740E-02 -.436E-01
   -.480E-04 -.540E-05 -.158E+04   0.627E-04 0.126E-04 0.157E+04   0.200E-17 -.116E-17 0.295E+01   -.911E-04 -.433E-04 -.486E-01
   -.250E-03 0.736E-05 0.110E+02   0.143E-12 0.515E-12 -.387E-11   0.287E-15 -.236E-17 -.860E+01   0.556E-01 0.290E-01 -.236E+01

 POSITION                                       TOTAL-FORCE (eV/Angst)
      0.00000      0.00000      5.37156        -0.000000      0.000000     -0.022632
      2.56560      0.00000      5.37156         0.005457      0.015263      0.051165
      5.13119      0.00000      5.37156        -0.005457      0.015263      0.051165
      1.28280      2.22187      5.37156         0.015946     -0.002905      0.051165
      3.84839      2.22187      5.37156        -0.000000      0.000000      0.049517
      6.41399      2.22187      5.37156        -0.015946     -0.002905      0.051165
      2.56560      4.44374      5.37156         0.010489     -0.012357      0.051165
      5.13119      4.44374      5.37156        -0.010489     -0.012357      0.051165
      7.69679      4.44374      5.37156         0.000000      0.000000      0.024467
      1.28280      0.74062      7.46636        -0.002728     -0.001575     -0.081188
      3.84839      0.74062      7.46636         0.000000     -0.051210     -0.060324
      6.41399      0.74062      7.46636         0.002728     -0.001575     -0.081188
      2.56560      2.96249      7.46636        -0.044349      0.025605     -0.060324
      5.13119      2.96249      7.46636         0.044349      0.025605     -0.060324
      7.69679      2.96249      7.46636         0.000000     -0.008608     -0.023046
      3.84839      5.18437      7.46636        -0.000000      0.003150     -0.081188
      6.41399      5.18437      7.46636        -0.007455      0.004304     -0.023046
      8.97958      5.18437      7.46636         0.007455      0.004304     -0.023046
      7.69679      1.48017      9.54910        -0.000000      0.003257      0.006059
      2.56637      1.48170      9.55121         0.002054      0.001186      0.008043
      5.13041      1.48170      9.55121        -0.002054      0.001186      0.008043
      8.97729      3.70444      9.56154         0.006554     -0.003784     -0.005403
      3.84839      3.70222      9.55121         0.000000     -0.002372      0.008043
      6.41628      3.70444      9.56154        -0.006554     -0.003784     -0.005403
     10.26332      5.92553      9.54910        -0.002821     -0.001628      0.006059
      5.13026      5.92553      9.54910         0.002821     -0.001628      0.006059
      7.69679      5.92234      9.56154        -0.000000      0.007568     -0.005403
      0.00000      0.00000     11.64072        -0.000000      0.000000      0.023215
      2.56831      0.00307     11.65724         0.001461     -0.003076      0.010774
      5.12847      0.00307     11.65724        -0.001461     -0.003076      0.010774
      1.28681      2.22269     11.65724        -0.001934      0.002803      0.010774
      6.40997      2.22269     11.65724         0.001934      0.002803      0.010774
      2.56689      4.43985     11.65724        -0.003394      0.000273      0.010774
      5.12989      4.43985     11.65724         0.003394      0.000273      0.010774
      7.69679      4.44374     11.65596        -0.000000      0.000000      0.011682
      3.84839      2.22187     11.62023        -0.000000      0.000000      0.009693
    total drift:                                0.055322      0.029013      0.000686

  FREE ENERGIE OF THE ION-ELECTRON SYSTEM (eV)
  free  energy   TOTEN  =      -129.51479787 eV

  energy  without entropy=     -129.51479787  energy(sigma->0) =     -129.51479787

 stress matrix after NEB project (eV)
    -11.28147      0.00000      0.00000
      0.00000    -11.28147      0.00000
     -0.00000     -0.00000     -3.78493
  FORCES: max atom, RMS     0.023215    0.007724
  FORCE total and by dimension    0.046344    0.023215
  Stress total and by dimension   16.397215   11.281466
|           W    W    AA    RRRRR   N    N  II  N    N   GGGG   !!!           |
|           W    W   A  A   R    R  NN   N  II  NN   N  G    G  !!!           |
|           W    W  A    A  R    R  N N  N  II  N N  N  G       !!!           |
|           W WW W  AAAAAA  RRRRR   N  N N  II  N  N N  G  GGG   !            |
|           WW  WW  A    A  R   R   N   NN  II  N   NN  G    G                |
|           W    W  A    A  R    R  N    N  II  N    N   GGGG   !!!           |
|     Tetrahedron method does not include variations of the Fermi             |
|     occupations, so forces and stress will be inaccurate. We suggest        |
|     using a different smearing scheme ISMEAR = 1 or 2 for metals in         |
|     relaxations.                                                            |

 total charge

# of ion       s       p       d       tot
    1        0.450   0.283   9.188   9.920
    2        0.447   0.286   9.185   9.918
    3        0.447   0.286   9.185   9.918
    4        0.447   0.286   9.185   9.918
    5        0.449   0.287   9.181   9.916
    6        0.447   0.286   9.185   9.918
    7        0.447   0.286   9.185   9.918
    8        0.447   0.286   9.185   9.918
    9        0.449   0.283   9.188   9.920
   10        0.443   0.371   9.175   9.989
   11        0.441   0.366   9.183   9.990
   12        0.443   0.371   9.175   9.989
   13        0.441   0.366   9.183   9.990
   14        0.441   0.366   9.183   9.990
   15        0.440   0.370   9.176   9.985
   16        0.443   0.371   9.175   9.989
   17        0.440   0.370   9.176   9.985
   18        0.440   0.370   9.176   9.985
   19        0.442   0.370   9.178   9.989
   20        0.463   0.394   9.157  10.013
   21        0.463   0.394   9.157  10.013
   22        0.433   0.374   9.180   9.986
   23        0.463   0.394   9.157  10.013
   24        0.433   0.374   9.180   9.986
   25        0.442   0.370   9.178   9.989
   26        0.442   0.370   9.178   9.989
   27        0.433   0.374   9.180   9.986
   28        0.445   0.289   9.180   9.913
   29        0.472   0.305   9.162   9.939
   30        0.472   0.305   9.162   9.939
   31        0.472   0.305   9.162   9.939
   32        0.472   0.305   9.162   9.939
   33        0.472   0.305   9.162   9.939
   34        0.472   0.305   9.162   9.939
   35        0.439   0.292   9.179   9.910
   36        0.496   0.462   3.350   4.308
tot         16.223  12.171 324.493 352.887

 BZINTS: Fermi energy:    0.097594;  390.000000 electrons
         Band energy:-0.107164E+04;  BLOECHL correction:   -0.019667