 vasp.6.2.0 18Jan21 (build Jun 12 2021 23:27:24) complex

 executed on             LinuxIFC date 2022.05.30  18:38:34

 INCAR:
   ISMEAR = -5
   SIGMA = 0.1
   ISPIN = 1
   EDIFF = 1.d-5
   EDIFFG = -0.01
   NSW = 0
   NELM = 150
   ENCUT = 500
   ISIF = 2
   IBRION = 2
   LREAL = Auto
   ALGO = Fast
   ICHARG = 11
   LORBIT = 10
   LCHARG = .F.
   LWAVE = .F.

 POTCAR:    PAW_PBE Cu 22Jun2005
 POTCAR:    PAW_PBE Re 17Jan2003
 POTCAR:    PAW_PBE C 08Apr2002
 POTCAR:    PAW_PBE O 08Apr2002
 POTCAR:    PAW_PBE H 15Jun2001
|           W    W    AA    RRRRR   N    N  II  N    N   GGGG   !!!           |
|           W    W   A  A   R    R  NN   N  II  NN   N  G    G  !!!           |
|           W    W  A    A  R    R  N N  N  II  N N  N  G       !!!           |
|           W WW W  AAAAAA  RRRRR   N  N N  II  N  N N  G  GGG   !            |
|           WW  WW  A    A  R   R   N   NN  II  N   NN  G    G                |
|           W    W  A    A  R    R  N    N  II  N    N   GGGG   !!!           |
|     For optimal performance we recommend to set                             |
|       NCORE = 2 up to number-of-cores-per-socket                            |
|     This setting can greatly improve the performance of VASP for DFT.       |
|     The default, NCORE=1 might be grossly inefficient on modern             |
|     multi-core architectures or massively parallel machines. Do your        |
|     Unfortunately you need to use the default for GW and RPA                |
|     calculations (for HF NCORE is supported but not extensively tested      |
|     yet).                                                                   |

 POTCAR:    PAW_PBE Cu 22Jun2005
   VRHFIN =Cu: d10 p1

   TITEL  = PAW_PBE Cu 22Jun2005
   POMASS =   63.546; ZVAL   =   11.000    mass and valenz
   ENMAX  =  295.446; ENMIN  =  221.585 eV

 POTCAR:    PAW_PBE Re 17Jan2003
   VRHFIN =Re: 5p6s5d

   TITEL  = PAW_PBE Re 17Jan2003
   POMASS =  186.207; ZVAL   =    7.000    mass and valenz
   ENMAX  =  226.216; ENMIN  =  169.662 eV

 POTCAR:    PAW_PBE C 08Apr2002
   VRHFIN =C: s2p2

   TITEL  = PAW_PBE C 08Apr2002
   POMASS =   12.011; ZVAL   =    4.000    mass and valenz
   ENMAX  =  400.000; ENMIN  =  300.000 eV

 POTCAR:    PAW_PBE O 08Apr2002
   VRHFIN =O: s2p4

   TITEL  = PAW_PBE O 08Apr2002
   POMASS =   16.000; ZVAL   =    6.000    mass and valenz
   ENMAX  =  400.000; ENMIN  =  300.000 eV

 POTCAR:    PAW_PBE H 15Jun2001
   VRHFIN =H: ultrasoft test

   TITEL  = PAW_PBE H 15Jun2001
   POMASS =    1.000; ZVAL   =    1.000    mass and valenz
   ENMAX  =  250.000; ENMIN  =  200.000 eV

 Optimization of the real space projectors (new method)

 maximal supplied QI-value         = 16.25
 optimisation between [QCUT,QGAM] = [ 11.38, 22.75] = [ 36.24,144.96] Ry
 Optimized for a Real-space Cutoff    1.52 Angstroem

   l    n(q)    QCUT    max X(q) W(low)/X(q) W(high)/X(q)  e(spline)
   2      9    11.376     4.610    0.21E-03    0.10E-03    0.26E-06
   2      9    11.376     8.522    0.33E-03    0.16E-03    0.37E-06
   0     10    11.376    51.609    0.62E-04    0.20E-04    0.13E-06
   0     10    11.376    27.747    0.54E-04    0.20E-04    0.13E-06
   1     10    11.376    20.408    0.13E-04    0.99E-04    0.19E-06
   1     10    11.376    13.425    0.12E-04    0.87E-04    0.17E-06
 Optimization of the real space projectors (new method)

[...]

   l    n(q)    QCUT    max X(q) W(low)/X(q) W(high)/X(q)  e(spline)
   0      7    11.387    20.381    0.39E-03    0.13E-02    0.15E-06
   0      7    11.387    15.268    0.42E-03    0.14E-02    0.17E-06
   1      6    11.387     5.964    0.41E-03    0.11E-02    0.17E-06
   1      6    11.387     5.382    0.39E-03    0.87E-03    0.15E-06
 Optimization of the real space projectors (new method)

 maximal supplied QI-value         = 34.20
 optimisation between [QCUT,QGAM] = [ 11.29, 22.57] = [ 35.68,142.71] Ry
 Optimized for a Real-space Cutoff    1.16 Angstroem

   l    n(q)    QCUT    max X(q) W(low)/X(q) W(high)/X(q)  e(spline)
   0      8    11.287    19.460    0.40E-03    0.73E-03    0.16E-06
   0      8    11.287    12.209    0.38E-03    0.70E-03    0.15E-06
   1      7    11.287     4.655    0.22E-03    0.25E-04    0.22E-06
  PAW_PBE Cu 22Jun2005                  :
  PAW_PBE Re 17Jan2003                  :
  PAW_PBE C 08Apr2002                   :
  PAW_PBE O 08Apr2002                   :
  PAW_PBE H 15Jun2001                   :

 POSCAR: Cu-Re-COH
  positions in direct lattice
  velocities in cartesian coordinates
 exchange correlation table for  LEXCH =        8
   RHO(1)=    0.500       N(1)  =     2000
   RHO(2)=  100.500       N(2)  =     4000

 VTST: version 3.2, (02/03/18)

 CHAIN: initializing optimizer

 OPT: Using VASP Conjugate-Gradient optimizer
 CHAIN: Read ICHAIN            0

 POSCAR: Cu-Re-COH
  positions in direct lattice
  velocities in cartesian coordinates

 ion  position               nearest neighbor table
   1  0.000  0.000  0.206-   7 2.57   3 2.57   4 2.57   2 2.57   6 2.57   8 2.57  12 2.57  10 2.57
                            16 2.57
   2  0.333  0.000  0.206-   8 2.57   9 2.57   5 2.57   1 2.57   3 2.57  11 2.57   4 2.57  10 2.57
                            17 2.57
   3  0.667  0.000  0.206-   1 2.57   7 2.57   6 2.57   9 2.57   2 2.57  12 2.57   5 2.57  18 2.57
                            11 2.57
   4  0.000  0.333  0.206-   5 2.57   6 2.57   1 2.57   7 2.57   2 2.57  13 2.57   9 2.57  10 2.57
                            15 2.57
   5  0.333  0.333  0.206-   4 2.57   2 2.57   7 2.57  13 2.57   8 2.57   6 2.57   3 2.57  11 2.57
                            14 2.57
   6  0.667  0.333  0.206-   4 2.57   9 2.57  15 2.57   3 2.57   1 2.57   8 2.57  14 2.57   5 2.57
                            12 2.57
   7  0.000  0.667  0.206-   1 2.57   3 2.57  16 2.57  18 2.57   4 2.57   5 2.57   8 2.57   9 2.57
                            13 2.57
   8  0.333  0.667  0.206-   9 2.57   2 2.57  17 2.57   6 2.57   1 2.57   7 2.57   5 2.57  14 2.57
                            16 2.57
   9  0.667  0.667  0.206-   8 2.57   6 2.57   2 2.57  17 2.57   3 2.57   7 2.57   4 2.57  15 2.57
                            18 2.57
  10  0.111  0.111  0.286-  20 2.53  11 2.57  12 2.57  13 2.57   1 2.57   2 2.57   4 2.57  15 2.57
                            16 2.57  17 2.57  26 2.57  19 2.57
  11  0.444  0.111  0.286-  20 2.55  21 2.55  10 2.57  13 2.57   2 2.57  17 2.57  14 2.57  12 2.57
                             5 2.57   3 2.57  18 2.57  27 2.58
  12  0.778  0.111  0.286-  21 2.53  15 2.57  10 2.57  14 2.57  18 2.57   3 2.57   1 2.57  16 2.57
                            11 2.57   6 2.57  19 2.57  25 2.57
  13  0.111  0.444  0.286-  23 2.55  20 2.55  16 2.57  18 2.57  10 2.57  11 2.57  14 2.57   5 2.57
                             4 2.57   7 2.57  15 2.57  22 2.58
  14  0.444  0.444  0.286-  21 2.55  23 2.55  15 2.57  17 2.57  12 2.57  16 2.57  13 2.57  11 2.57
                             6 2.57   8 2.57   5 2.57  24 2.58
  15  0.778  0.444  0.286-  19 2.57  14 2.57  17 2.57  12 2.57   6 2.57  18 2.57  10 2.57   9 2.57
                            13 2.57   4 2.57  24 2.57  22 2.57
  16  0.111  0.778  0.286-  23 2.53  18 2.57  13 2.57   7 2.57  14 2.57  17 2.57  12 2.57  10 2.57
                             8 2.57   1 2.57  25 2.57  26 2.57
  17  0.444  0.778  0.286-  26 2.57  14 2.57  15 2.57   8 2.57   9 2.57  11 2.57  16 2.57  18 2.57
                            10 2.57   2 2.57  27 2.57  24 2.57
  18  0.778  0.778  0.286-  25 2.57  16 2.57  13 2.57   7 2.57  15 2.57  12 2.57  17 2.57   9 2.57
                             3 2.57  11 2.57  22 2.57  27 2.57
  19  0.889  0.223  0.366-  21 2.55  20 2.55  22 2.56  24 2.56  28 2.56  15 2.57  12 2.57  10 2.57
                            25 2.57  26 2.57  32 2.59  31 2.59
  20  0.221  0.221  0.365-  36 2.53  10 2.53  11 2.55  13 2.55  26 2.55  19 2.55  27 2.57  22 2.57
                            23 2.59  21 2.59  29 2.61  31 2.61
  21  0.558  0.221  0.365-  36 2.53  12 2.53  14 2.55  11 2.55  19 2.55  25 2.55  24 2.57  27 2.57
                            20 2.59  23 2.59  32 2.61  30 2.61
  22  0.888  0.556  0.366-  24 2.55  27 2.55  35 2.55  19 2.56  25 2.56  18 2.57  15 2.57  23 2.57
                            20 2.57  13 2.58  31 2.59  33 2.59
  23  0.221  0.558  0.365-  36 2.53  16 2.53  13 2.55  14 2.55  25 2.55  26 2.55  22 2.57  24 2.57
                            20 2.59  21 2.59  33 2.61  34 2.61
  24  0.556  0.556  0.366-  22 2.55  27 2.55  35 2.55  19 2.56  26 2.56  15 2.57  17 2.57  21 2.57
                            23 2.57  14 2.58  32 2.59  34 2.59
  25  0.889  0.889  0.366-  21 2.55  23 2.55  22 2.56  27 2.56  28 2.56  18 2.57  16 2.57  12 2.57
                            19 2.57  26 2.57  33 2.59  30 2.59
  26  0.223  0.889  0.366-  20 2.55  23 2.55  27 2.56  24 2.56  28 2.56  17 2.57  10 2.57  16 2.57
                            25 2.57  19 2.57  29 2.59  34 2.59
  27  0.556  0.888  0.366-  24 2.55  22 2.55  35 2.55  26 2.56  25 2.56  17 2.57  18 2.57  20 2.57
                            21 2.57  11 2.58  29 2.59  30 2.59
  28  0.000  0.000  0.446-  33 2.56  30 2.56  31 2.56  29 2.56  32 2.56  34 2.56  25 2.56  19 2.56
                            26 2.56
  29  0.333  0.000  0.447-  31 2.56  28 2.56  36 2.57  34 2.57  35 2.57  30 2.57  26 2.59  27 2.59
                            20 2.61
  30  0.667  0.000  0.447-  32 2.56  28 2.56  36 2.57  33 2.57  35 2.57  29 2.57  25 2.59  27 2.59
                            21 2.61
  31  0.000  0.333  0.447-  29 2.56  28 2.56  36 2.57  32 2.57  35 2.57  33 2.57  19 2.59  22 2.59
                            20 2.61
  32  0.667  0.333  0.447-  30 2.56  28 2.56  36 2.57  31 2.57  35 2.57  34 2.57  19 2.59  24 2.59
                            21 2.61
  33  0.000  0.667  0.447-  34 2.56  28 2.56  36 2.57  30 2.57  35 2.57  31 2.57  25 2.59  22 2.59
                            23 2.61
  34  0.333  0.667  0.447-  33 2.56  28 2.56  36 2.57  29 2.57  35 2.57  32 2.57  26 2.59  24 2.59
                            23 2.61
  35  0.667  0.667  0.446-  24 2.55  27 2.55  22 2.55  34 2.57  32 2.57  29 2.57  30 2.57  33 2.57
                            31 2.57
  36  0.333  0.333  0.443-  37 1.82  23 2.53  20 2.53  21 2.53  31 2.57  29 2.57  33 2.57  34 2.57
                            32 2.57  30 2.57
  37  0.333  0.333  0.513-  38 1.27  36 1.82
  38  0.333  0.333  0.561-  39 0.96  37 1.27
  39  0.333  0.333  0.598-  38 0.96

  LATTYP: Found a hexagonal cell.
 ALAT       =     7.6967864036
 C/A-ratio  =     3.3950614187

  Lattice vectors:

 A1 = (  -3.8483927580,  -6.6656128093,   0.0000000000)
 A2 = (   7.6967864037,   0.0000000000,   0.0000000000)
 A3 = (   0.0000000000,   0.0000000000,  26.1310625667)

Analysis of symmetry for initial positions (statically):
 Subroutine PRICEL returns:
 Original cell was already a primitive cell.

 Routine SETGRP: Setting up the symmetry group for a
 hexagonal supercell.

 Subroutine GETGRP returns: Found  6 space group operations
 (whereof  6 operations were pure point group operations)
 out of a pool of 24 trial point group operations.

The static configuration has the point symmetry C_3v.

Analysis of symmetry for dynamics (positions and initial velocities):
[...]
     41      -4.0102      2.00000
     42      -3.8617      2.00000
     43      -3.8605      2.00000
     44      -3.8351      2.00000
     45      -3.7969      2.00000
     46      -3.7813      2.00000
     47      -3.7608      2.00000
     48      -3.7512      2.00000
     49      -3.7344      2.00000
     50      -3.7286      2.00000
     51      -3.5489      2.00000
     52      -3.5334      2.00000
     53      -3.5204      2.00000
     54      -3.5100      2.00000
     55      -3.4668      2.00000
     56      -3.4650      2.00000
     57      -3.4612      2.00000
     58      -3.4402      2.00000
     59      -3.4278      2.00000
     60      -3.4242      2.00000
[...]
    238       5.1907      0.00000
    239       5.4519      0.00000
    240       5.4828      0.00000
    241       5.5120      0.00000
    242       5.5352      0.00000
    243       5.6342      0.00000
    244       5.6676      0.00000
    245       5.8791      0.00000
    246       5.8843      0.00000
    247       5.9309      0.00000
    248       6.0039      0.00000
    249       6.1887      0.00000
    250       6.3024      0.00000
    251       6.7468      0.00000
    252       6.9164      0.00000

 soft charge-density along one line, spin component           1
         0         1         2         3         4         5         6         7         8         9
 total charge-density along one line

------------------------ aborting loop because EDIFF is reached ----------------------------------------

 total charge

# of ion       s       p       d       tot
    1        0.449   0.284   9.189   9.923
    2        0.450   0.286   9.186   9.921
    3        0.450   0.286   9.186   9.921
    4        0.450   0.286   9.186   9.921
    5        0.448   0.288   9.181   9.917
    6        0.450   0.286   9.186   9.921
    7        0.450   0.286   9.186   9.921
    8        0.450   0.286   9.186   9.921
    9        0.446   0.285   9.189   9.920
   10        0.441   0.372   9.176   9.989
   11        0.444   0.367   9.183   9.993
   12        0.441   0.372   9.176   9.989
   13        0.444   0.367   9.183   9.993
   14        0.444   0.367   9.183   9.993
   15        0.436   0.370   9.177   9.982
   16        0.441   0.372   9.176   9.989
   17        0.436   0.370   9.177   9.982
   18        0.436   0.370   9.177   9.982
   19        0.441   0.366   9.180   9.987
   20        0.465   0.403   9.165  10.033
   21        0.465   0.403   9.165  10.033
   22        0.429   0.372   9.179   9.980
   23        0.465   0.403   9.165  10.033
   24        0.429   0.372   9.179   9.980
   25        0.441   0.366   9.180   9.987
   26        0.441   0.366   9.180   9.987
   27        0.429   0.372   9.179   9.980
   28        0.450   0.289   9.187   9.926
   29        0.456   0.319   9.173   9.948
   30        0.456   0.319   9.173   9.948
   31        0.456   0.319   9.173   9.948
   32        0.456   0.319   9.173   9.948
   33        0.456   0.319   9.173   9.948
   34        0.456   0.319   9.173   9.948
   35        0.445   0.294   9.183   9.923
   36        0.638   0.638   5.029   6.304
   37        0.916   1.466   0.000   2.383
   38        1.520   3.769   0.000   5.289
   39        0.565   0.138   0.000   0.703
tot         19.277  17.831 326.289 363.397

  FORCE on cell =-STRESS in cart. coord.  units (eV):
  Direction    XX          YY          ZZ          XY          YZ          ZX
  Alpha Z   754.02710   754.02710   754.02710
  Ewald  268673.51002268673.50960************     0.00039     0.00013     0.00017
  Hartree281605.11942281605.11941************     0.00004     0.00007     0.00006
  E(xc)   -2327.23433 -2327.23394 -2330.82173    -0.00034    -0.00003    -0.00005
  Local  ************************563156.90463     0.01885    -0.00062    -0.00097
  n-local  -808.95796  -794.57999  -813.87547     7.61144    -0.09289     0.21933
  augment  3324.51550  3324.53580  3341.94026    -0.01758     0.00038     0.00066
  Kinetic  3444.50593  3449.80651  3403.27226     4.08394     1.78483    -1.34874
  Fock        0.00000     0.00000     0.00000     0.00000     0.00000     0.00000
  Total      -4.80358    -4.80359     1.09086     0.00000    -0.00000    -0.00000
  in kB      -5.74076    -5.74076     1.30369     0.00000    -0.00000    -0.00000

 VOLUME and BASIS-vectors are now :
  energy-cutoff  :      500.00
  volume of cell :     1340.62
      direct lattice vectors                 reciprocal lattice vectors
     7.696786404  0.000000000  0.000000000     0.129924354 -0.075011849  0.000000000
     3.848392758  6.665612809  0.000000000     0.000000000  0.150023716  0.000000000
     0.000000000  0.000000000 26.131062567     0.000000000  0.000000000  0.038268631

  length of vectors
     7.696786404  7.696786404 26.131062567     0.150023716  0.150023716  0.038268631

 FORCES acting on ions
    electron-ion (+dipol)            ewald-force                    non-local-force                 convergence-correction
   -.436E-04 -.102E-05 0.393E+04   0.580E-04 -.434E-05 -.393E+04   -.325E-17 -.132E-17 -.287E+01   -.400E-03 -.198E-03 -.108E+00
   -.301E+00 0.929E-01 0.393E+04   0.204E+00 -.772E-01 -.393E+04   0.372E-01 0.616E-01 -.181E+01   0.685E-01 -.513E-01 -.122E-01
   0.301E+00 0.930E-01 0.393E+04   -.204E+00 -.772E-01 -.393E+04   -.372E-01 0.616E-01 -.181E+01   -.676E-01 -.489E-01 -.111E-01
   -.698E-01 -.307E+00 0.393E+04   0.349E-01 0.215E+00 -.393E+04   0.719E-01 0.141E-02 -.181E+01   -.101E-01 0.849E-01 -.122E-01
   -.697E-04 -.803E-05 0.393E+04   0.116E-03 -.101E-04 -.393E+04   -.262E-17 0.257E-17 -.162E+01   0.121E-01 0.741E-02 0.371E-01
   0.698E-01 -.307E+00 0.393E+04   -.350E-01 0.215E+00 -.393E+04   -.719E-01 0.141E-02 -.181E+01   0.856E-02 0.860E-01 -.110E-01
   0.231E+00 0.214E+00 0.393E+04   -.169E+00 -.138E+00 -.393E+04   0.347E-01 -.630E-01 -.181E+01   -.761E-01 -.342E-01 -.110E-01
   -.231E+00 0.214E+00 0.393E+04   0.168E+00 -.138E+00 -.393E+04   -.347E-01 -.630E-01 -.181E+01   0.795E-01 -.356E-01 -.111E-01
   -.145E-03 -.337E-04 0.393E+04   0.263E-03 0.205E-04 -.393E+04   0.208E-17 -.176E-17 -.252E+01   -.131E-01 -.674E-02 -.273E-01
   0.189E+01 0.109E+01 0.136E+04   -.145E+01 -.840E+00 -.136E+04   -.548E+00 -.316E+00 -.110E+01   0.855E-01 0.493E-01 0.365E-01
   -.905E-04 0.223E+00 0.135E+04   0.190E-03 -.481E+00 -.135E+04   -.159E-07 0.239E+00 -.550E+00   0.123E-01 -.371E-01 0.168E-01
   -.189E+01 0.109E+01 0.136E+04   0.145E+01 -.840E+00 -.136E+04   0.548E+00 -.316E+00 -.110E+01   -.874E-01 0.500E-01 0.367E-01
   0.193E+00 -.111E+00 0.135E+04   -.416E+00 0.240E+00 -.135E+04   0.207E+00 -.119E+00 -.550E+00   -.256E-01 0.300E-01 0.168E-01
   -.193E+00 -.111E+00 0.135E+04   0.416E+00 0.240E+00 -.135E+04   -.207E+00 -.119E+00 -.550E+00   0.489E-01 0.279E-01 0.140E-01
   -.142E-03 -.995E+00 0.135E+04   0.298E-03 0.783E+00 -.135E+04   -.753E-08 0.113E+00 -.974E+00   -.323E-02 0.928E-01 0.115E-01
   -.918E-04 -.218E+01 0.136E+04   0.186E-03 0.168E+01 -.136E+04   -.421E-07 0.632E+00 -.110E+01   -.131E-02 -.102E+00 0.367E-01
   -.862E+00 0.497E+00 0.135E+04   0.678E+00 -.391E+00 -.135E+04   0.980E-01 -.566E-01 -.974E+00   0.794E-01 -.492E-01 0.114E-01
   0.862E+00 0.497E+00 0.135E+04   -.679E+00 -.391E+00 -.135E+04   -.980E-01 -.566E-01 -.974E+00   -.774E-01 -.464E-01 0.145E-01
   -.602E-04 -.309E+01 -.123E+04   0.696E-04 0.294E+01 0.123E+04   -.147E-08 0.221E-01 0.975E+00   -.110E-01 0.104E+00 -.133E+00
   -.324E+02 -.187E+02 -.124E+04   0.331E+02 0.191E+02 0.124E+04   -.100E+01 -.578E+00 -.612E+00   0.272E-01 0.156E-01 -.133E+00
   0.324E+02 -.187E+02 -.124E+04   -.331E+02 0.191E+02 0.124E+04   0.100E+01 -.578E+00 -.612E+00   -.463E-01 0.121E-01 -.133E+00
   -.202E+02 0.117E+02 -.124E+04   0.196E+02 -.113E+02 0.124E+04   0.697E+00 -.402E+00 0.986E+00   0.416E-01 -.876E-02 -.247E+00
   -.927E-04 0.374E+02 -.124E+04   0.146E-03 -.382E+02 0.124E+04   -.770E-07 0.116E+01 -.612E+00   -.138E-01 -.473E-01 -.133E+00
   0.202E+02 0.117E+02 -.124E+04   -.196E+02 -.113E+02 0.124E+04   -.697E+00 -.402E+00 0.986E+00   -.177E-01 -.111E-01 -.247E+00
   0.267E+01 0.154E+01 -.123E+04   -.255E+01 -.147E+01 0.123E+04   -.192E-01 -.111E-01 0.975E+00   -.108E+00 -.622E-01 -.134E+00
   -.267E+01 0.154E+01 -.123E+04   0.255E+01 -.147E+01 0.123E+04   0.192E-01 -.111E-01 0.975E+00   0.846E-01 -.611E-01 -.133E+00
   -.119E-03 -.234E+02 -.124E+04   0.241E-03 0.226E+02 0.124E+04   -.536E-07 0.805E+00 0.986E+00   0.132E-01 0.404E-01 -.246E+00
   -.465E-04 0.110E-04 -.376E+04   0.367E-04 -.332E-04 0.376E+04   0.245E-16 0.185E-17 0.198E+01   -.528E-03 -.254E-03 0.331E+00
   -.126E+02 -.179E+02 -.375E+04   0.130E+02 0.181E+02 0.375E+04   -.477E+00 -.407E+00 0.204E+01   -.237E-02 0.249E-01 0.233E+00
   0.126E+02 -.179E+02 -.375E+04   -.130E+02 0.181E+02 0.375E+04   0.477E+00 -.407E+00 0.204E+01   0.352E-02 0.258E-01 0.232E+00
   -.218E+02 -.192E+01 -.375E+04   0.222E+02 0.215E+01 0.375E+04   -.591E+00 -.210E+00 0.204E+01   0.205E-01 -.146E-01 0.233E+00
   0.218E+02 -.192E+01 -.375E+04   -.222E+02 0.215E+01 0.375E+04   0.591E+00 -.210E+00 0.204E+01   -.205E-01 -.143E-01 0.234E+00
   -.925E+01 0.198E+02 -.375E+04   0.923E+01 -.203E+02 0.375E+04   -.114E+00 0.617E+00 0.204E+01   0.241E-01 -.989E-02 0.232E+00
   0.925E+01 0.198E+02 -.375E+04   -.923E+01 -.203E+02 0.375E+04   0.114E+00 0.617E+00 0.204E+01   -.219E-01 -.105E-01 0.234E+00
   -.155E-03 -.293E-04 -.377E+04   0.254E-03 0.430E-05 0.376E+04   -.103E-17 -.478E-18 0.237E+01   -.122E-01 -.620E-02 0.241E+00
   -.271E-04 -.108E-04 -.220E+04   0.892E-04 0.167E-04 0.220E+04   -.302E-17 0.371E-17 0.468E+00   0.764E-03 0.457E-03 0.809E-01
   -.639E-05 -.740E-04 -.147E+04   0.118E-04 0.543E-05 0.145E+04   0.293E-18 0.191E-18 0.191E+02   0.958E-03 0.579E-03 0.123E-01
   0.229E-03 -.715E-04 -.229E+04   0.254E-05 0.249E-05 0.229E+04   0.556E-18 -.675E-18 -.478E+01   0.333E-02 0.203E-02 0.186E-02
   0.302E-05 -.143E-04 -.413E+03   0.720E-07 0.165E-06 0.422E+03   -.238E-20 -.929E-20 -.869E+01   0.174E-03 0.106E-03 0.276E-02
   -.875E-04 -.185E-03 -.146E+01   0.848E-13 0.333E-12 -.506E-11   -.100E-15 -.441E-15 0.100E+01   -.167E-02 -.392E-02 0.556E+00

 POSITION                                       TOTAL-FORCE (eV/Angst)
      0.00000      0.00000      5.37156        -0.000000      0.000000     -0.010524
      2.56560      0.00000      5.37156         0.009023      0.027109      0.062225
      5.13119      0.00000      5.37156        -0.009023      0.027109      0.062225
      1.28280      2.22187      5.37156         0.027988     -0.005740      0.062225
      3.84839      2.22187      5.37156        -0.000000      0.000000      0.047577
      6.41399      2.22187      5.37156        -0.027988     -0.005740      0.062225
      2.56560      4.44374      5.37156         0.018965     -0.021368      0.062225
      5.13119      4.44374      5.37156        -0.018965     -0.021368      0.062225
      7.69679      4.44374      5.37156        -0.000000      0.000000      0.021913
      1.28280      0.74062      7.46636        -0.025059     -0.014468     -0.073692
      3.84839      0.74062      7.46636         0.000000     -0.063091     -0.086796
      6.41399      0.74062      7.46636         0.025059     -0.014468     -0.073692
      2.56560      2.96249      7.46636        -0.054639      0.031546     -0.086796
      5.13119      2.96249      7.46636         0.054639      0.031546     -0.086796
      7.69679      2.96249      7.46636         0.000000     -0.006381      0.024758
      3.84839      5.18437      7.46636        -0.000000      0.028936     -0.073692
      6.41399      5.18437      7.46636        -0.005527      0.003191      0.024758
      8.97958      5.18437      7.46636         0.005527      0.003191      0.024758
      7.69679      1.48486      9.56345         0.000000     -0.012392      0.056325
      2.55359      1.47432      9.53212        -0.223678     -0.129141     -0.444786
      5.14319      1.47432      9.53212         0.223678     -0.129141     -0.444786
      8.97343      3.70667      9.56919         0.070625     -0.040776      0.010660
      3.84839      3.71698      9.53212        -0.000000      0.258281     -0.444786
      6.42014      3.70667      9.56919        -0.070625     -0.040776      0.010660
     10.25925      5.92318      9.56345         0.010732      0.006196      0.056325
      5.13432      5.92318      9.56345        -0.010732      0.006196      0.056325
      7.69679      5.91789      9.56919        -0.000000      0.081551      0.010660
      0.00000      0.00000     11.65394        -0.000000      0.000000     -0.128158
      2.56263      0.00314     11.68588        -0.094192     -0.180020     -0.097310
      5.13415      0.00314     11.68588         0.094192     -0.180020     -0.097310
      1.28404      2.21774     11.68588        -0.202998      0.008437     -0.097310
      6.41275      2.21774     11.68588         0.202998      0.008437     -0.097310
      2.56979      4.44474     11.68588        -0.108806      0.171583     -0.097310
      5.12699      4.44474     11.68588         0.108806      0.171583     -0.097310
      7.69679      4.44374     11.65455        -0.000000      0.000000     -0.076611
      3.84839      2.22187     11.57229        -0.000000      0.000000      1.866499
      3.84839      2.22187     13.39325        -0.000000      0.000000      0.032567
      3.84839      2.22187     14.65907        -0.000000      0.000000      0.000098
      3.84839      2.22187     15.61536        -0.000000      0.000000     -0.002264
    total drift:                               -0.001761     -0.004102      0.098367

  FREE ENERGIE OF THE ION-ELECTRON SYSTEM (eV)
  free  energy   TOTEN  =      -151.11171762 eV

  energy  without entropy=     -151.11171762  energy(sigma->0) =     -151.11171762

 stress matrix after NEB project (eV)
     -4.80358      0.00000     -0.00000
      0.00000     -4.80359      0.00000
     -0.00000     -0.00000      1.09086
  FORCES: max atom, RMS     0.032567    0.005227
  FORCE total and by dimension    0.032646    0.032567
  Stress total and by dimension    6.880323    4.803585
|           W    W    AA    RRRRR   N    N  II  N    N   GGGG   !!!           |
|           W    W   A  A   R    R  NN   N  II  NN   N  G    G  !!!           |
|           W    W  A    A  R    R  N N  N  II  N N  N  G       !!!           |
|           W WW W  AAAAAA  RRRRR   N  N N  II  N  N N  G  GGG   !            |
|           WW  WW  A    A  R   R   N   NN  II  N   NN  G    G                |
|           W    W  A    A  R    R  N    N  II  N    N   GGGG   !!!           |
|     Tetrahedron method does not include variations of the Fermi             |
|     occupations, so forces and stress will be inaccurate. We suggest        |
|     using a different smearing scheme ISMEAR = 1 or 2 for metals in         |
|     relaxations.                                                            |

 total charge

# of ion       s       p       d       tot
    1        0.449   0.284   9.189   9.923
    2        0.450   0.286   9.186   9.921
    3        0.450   0.286   9.186   9.921
    4        0.450   0.286   9.186   9.921
    5        0.448   0.288   9.181   9.917
    6        0.450   0.286   9.186   9.921
    7        0.450   0.286   9.186   9.921
    8        0.450   0.286   9.186   9.921
    9        0.446   0.285   9.189   9.920
   10        0.441   0.372   9.176   9.989
   11        0.444   0.367   9.183   9.993
   12        0.441   0.372   9.176   9.989
   13        0.444   0.367   9.183   9.993
   14        0.444   0.367   9.183   9.993
   15        0.436   0.370   9.177   9.982
   16        0.441   0.372   9.176   9.989
   17        0.436   0.370   9.177   9.982
   18        0.436   0.370   9.177   9.982
   19        0.441   0.366   9.180   9.987
   20        0.465   0.403   9.165  10.033
   21        0.465   0.403   9.165  10.033
   22        0.429   0.372   9.179   9.980
   23        0.465   0.403   9.165  10.033
   24        0.429   0.372   9.179   9.980
   25        0.441   0.366   9.180   9.987
   26        0.441   0.366   9.180   9.987
   27        0.429   0.372   9.179   9.980
   28        0.450   0.289   9.187   9.926
   29        0.456   0.319   9.173   9.948
   30        0.456   0.319   9.173   9.948
   31        0.456   0.319   9.173   9.948
   32        0.456   0.319   9.173   9.948
   33        0.456   0.319   9.173   9.948
   34        0.456   0.319   9.173   9.948
   35        0.445   0.294   9.183   9.923
   36        0.638   0.638   5.029   6.304
   37        0.916   1.466   0.000   2.383
   38        1.520   3.769   0.000   5.289
   39        0.565   0.138   0.000   0.703
tot         19.277  17.831 326.289 363.397

 BZINTS: Fermi energy:   -0.065847;  403.000000 electrons
         Band energy:-0.126091E+04;  BLOECHL correction:   -0.038581