 vasp.6.2.0 18Jan21 (build Jun 12 2021 23:27:24) complex

 executed on             LinuxIFC date 2022.05.28  02:44:33

 INCAR:
   ISMEAR = -5
   SIGMA = 0.1
   ISPIN = 1
   EDIFF = 1.d-5
   EDIFFG = -0.01
   NSW = 0
   NELM = 150
   ENCUT = 500
   ISIF = 2
   IBRION = 2
   LREAL = Auto
   ALGO = Fast
   ICHARG = 11
   LORBIT = 10
   LCHARG = .F.
   LWAVE = .F.

 POTCAR:    PAW_PBE Cu 22Jun2005
 POTCAR:    PAW_PBE Ta 17Jan2003
 POTCAR:    PAW_PBE H 15Jun2001
 POTCAR:    PAW_PBE O 08Apr2002
|           W    W    AA    RRRRR   N    N  II  N    N   GGGG   !!!           |
|           W    W   A  A   R    R  NN   N  II  NN   N  G    G  !!!           |
|           W    W  A    A  R    R  N N  N  II  N N  N  G       !!!           |
|           W WW W  AAAAAA  RRRRR   N  N N  II  N  N N  G  GGG   !            |
|           WW  WW  A    A  R   R   N   NN  II  N   NN  G    G                |
|           W    W  A    A  R    R  N    N  II  N    N   GGGG   !!!           |
|     For optimal performance we recommend to set                             |
|       NCORE = 2 up to number-of-cores-per-socket                            |
|     This setting can greatly improve the performance of VASP for DFT.       |
|     The default, NCORE=1 might be grossly inefficient on modern             |
|     multi-core architectures or massively parallel machines. Do your        |
|     Unfortunately you need to use the default for GW and RPA                |
|     calculations (for HF NCORE is supported but not extensively tested      |
|     yet).                                                                   |

 POTCAR:    PAW_PBE Cu 22Jun2005
   VRHFIN =Cu: d10 p1

   TITEL  = PAW_PBE Cu 22Jun2005
   POMASS =   63.546; ZVAL   =   11.000    mass and valenz
   ENMAX  =  295.446; ENMIN  =  221.585 eV

 POTCAR:    PAW_PBE Ta 17Jan2003
   VRHFIN =Ta:  6s5d

   TITEL  = PAW_PBE Ta 17Jan2003
   POMASS =  180.948; ZVAL   =    5.000    mass and valenz
   ENMAX  =  223.667; ENMIN  =  167.750 eV

 POTCAR:    PAW_PBE H 15Jun2001
   VRHFIN =H: ultrasoft test

   TITEL  = PAW_PBE H 15Jun2001
   POMASS =    1.000; ZVAL   =    1.000    mass and valenz
   ENMAX  =  250.000; ENMIN  =  200.000 eV

 POTCAR:    PAW_PBE O 08Apr2002
   VRHFIN =O: s2p4

   TITEL  = PAW_PBE O 08Apr2002
   POMASS =   16.000; ZVAL   =    6.000    mass and valenz
   ENMAX  =  400.000; ENMIN  =  300.000 eV

 Optimization of the real space projectors (new method)

 maximal supplied QI-value         = 16.25
 optimisation between [QCUT,QGAM] = [ 11.38, 22.75] = [ 36.24,144.96] Ry
 Optimized for a Real-space Cutoff    1.52 Angstroem

   l    n(q)    QCUT    max X(q) W(low)/X(q) W(high)/X(q)  e(spline)
   2      9    11.376     4.610    0.21E-03    0.10E-03    0.26E-06
   2      9    11.376     8.522    0.33E-03    0.16E-03    0.37E-06
   0     10    11.376    51.609    0.62E-04    0.20E-04    0.13E-06
   0     10    11.376    27.747    0.54E-04    0.20E-04    0.13E-06
   1     10    11.376    20.408    0.13E-04    0.99E-04    0.19E-06
   1     10    11.376    13.425    0.12E-04    0.87E-04    0.17E-06
 Optimization of the real space projectors (new method)

[...]

   l    n(q)    QCUT    max X(q) W(low)/X(q) W(high)/X(q)  e(spline)
   0      8    11.287    19.460    0.40E-03    0.73E-03    0.16E-06
   0      8    11.287    12.209    0.38E-03    0.70E-03    0.15E-06
   1      7    11.287     4.655    0.22E-03    0.25E-04    0.22E-06
 Optimization of the real space projectors (new method)

 maximal supplied QI-value         = 24.76
 optimisation between [QCUT,QGAM] = [ 11.39, 22.77] = [ 36.31,145.25] Ry
 Optimized for a Real-space Cutoff    1.00 Angstroem

   l    n(q)    QCUT    max X(q) W(low)/X(q) W(high)/X(q)  e(spline)
   0      7    11.387    20.381    0.39E-03    0.13E-02    0.15E-06
   0      7    11.387    15.268    0.42E-03    0.14E-02    0.17E-06
   1      6    11.387     5.964    0.41E-03    0.11E-02    0.17E-06
   1      6    11.387     5.382    0.39E-03    0.87E-03    0.15E-06
  PAW_PBE Cu 22Jun2005                  :
  PAW_PBE Ta 17Jan2003                  :
  PAW_PBE H 15Jun2001                   :
  PAW_PBE O 08Apr2002                   :

 POSCAR: Cu-Ta-H2O
  positions in direct lattice
  velocities in cartesian coordinates
 exchange correlation table for  LEXCH =        8
   RHO(1)=    0.500       N(1)  =     2000
   RHO(2)=  100.500       N(2)  =     4000

 VTST: version 3.2, (02/03/18)

 CHAIN: initializing optimizer

 OPT: Using VASP Conjugate-Gradient optimizer
 CHAIN: Read ICHAIN            0

 POSCAR: Cu-Ta-H2O
  positions in direct lattice
  velocities in cartesian coordinates

 ion  position               nearest neighbor table
   1  0.000  0.000  0.221-   7 2.57   3 2.57   4 2.57   2 2.57   6 2.57   8 2.57  12 2.57  10 2.57
                            16 2.57
   2  0.333  0.000  0.221-   8 2.57   9 2.57   5 2.57   1 2.57   3 2.57  11 2.57   4 2.57  10 2.57
                            17 2.57
   3  0.667  0.000  0.221-   1 2.57   7 2.57   6 2.57   9 2.57   2 2.57  12 2.57   5 2.57  18 2.57
                            11 2.57
   4  0.000  0.333  0.221-   5 2.57   6 2.57   1 2.57   7 2.57   2 2.57  13 2.57   9 2.57  10 2.57
                            15 2.57
   5  0.333  0.333  0.221-   4 2.57   2 2.57   7 2.57  13 2.57   8 2.57   6 2.57   3 2.57  11 2.57
                            14 2.57
   6  0.667  0.333  0.221-   4 2.57   9 2.57  15 2.57   3 2.57   1 2.57   8 2.57  14 2.57   5 2.57
                            12 2.57
   7  0.000  0.667  0.221-   1 2.57   3 2.57  16 2.57  18 2.57   4 2.57   5 2.57   8 2.57   9 2.57
                            13 2.57
   8  0.333  0.667  0.221-   9 2.57   2 2.57  17 2.57   6 2.57   1 2.57   7 2.57   5 2.57  14 2.57
                            16 2.57
   9  0.667  0.667  0.221-   8 2.57   6 2.57   2 2.57  17 2.57   3 2.57   7 2.57   4 2.57  15 2.57
                            18 2.57
  10  0.111  0.111  0.308-  20 2.55  26 2.56  19 2.56  11 2.57  12 2.57  13 2.57   1 2.57   2 2.57
                             4 2.57  15 2.57  16 2.57  17 2.57
  11  0.444  0.111  0.308-  20 2.56  21 2.56  10 2.57  13 2.57   2 2.57  17 2.57  14 2.57  12 2.57
                             5 2.57   3 2.57  18 2.57  27 2.57
  12  0.778  0.111  0.308-  21 2.55  19 2.56  25 2.56  15 2.57  10 2.57  14 2.57  18 2.57   3 2.57
                             1 2.57  16 2.57  11 2.57   6 2.57
  13  0.111  0.444  0.308-  23 2.56  20 2.56  16 2.57  18 2.57  10 2.57  11 2.57  14 2.57   5 2.57
                             4 2.57   7 2.57  15 2.57  22 2.57
  14  0.444  0.444  0.308-  21 2.56  23 2.56  15 2.57  17 2.57  12 2.57  16 2.57  13 2.57  11 2.57
                             6 2.57   8 2.57   5 2.57  24 2.57
  15  0.778  0.444  0.308-  19 2.56  14 2.57  17 2.57  12 2.57   6 2.57  18 2.57  10 2.57   9 2.57
                            13 2.57   4 2.57  24 2.57  22 2.57
  16  0.111  0.778  0.308-  23 2.55  25 2.56  26 2.56  18 2.57  13 2.57   7 2.57  14 2.57  17 2.57
                            12 2.57  10 2.57   8 2.57   1 2.57
  17  0.444  0.778  0.308-  26 2.56  14 2.57  15 2.57   8 2.57   9 2.57  11 2.57  16 2.57  18 2.57
                            10 2.57   2 2.57  27 2.57  24 2.57
  18  0.778  0.778  0.308-  25 2.56  16 2.57  13 2.57   7 2.57  15 2.57  12 2.57  17 2.57   9 2.57
                             3 2.57  11 2.57  22 2.57  27 2.57
  19  0.889  0.222  0.394-  12 2.56  10 2.56  15 2.56  21 2.56  20 2.56  25 2.56  26 2.56  22 2.57
                            24 2.57  28 2.57  32 2.59  31 2.59
  20  0.222  0.222  0.393-  10 2.55  11 2.56  13 2.56  26 2.56  19 2.56  27 2.57  22 2.57  23 2.58
                            21 2.58  36 2.61  29 2.61  31 2.61
  21  0.557  0.222  0.393-  12 2.55  14 2.56  11 2.56  19 2.56  25 2.56  24 2.57  27 2.57  20 2.58
                            23 2.58  36 2.61  32 2.61  30 2.61
  22  0.888  0.556  0.394-  24 2.56  27 2.56  19 2.57  25 2.57  23 2.57  20 2.57  18 2.57  15 2.57
                            35 2.57  13 2.57  31 2.59  33 2.59
  23  0.222  0.557  0.393-  16 2.55  13 2.56  14 2.56  25 2.56  26 2.56  22 2.57  24 2.57  20 2.58
                            21 2.58  36 2.61  33 2.61  34 2.61
  24  0.556  0.556  0.394-  22 2.56  27 2.56  19 2.57  26 2.57  21 2.57  23 2.57  15 2.57  17 2.57
                            35 2.57  14 2.57  32 2.59  34 2.59
  25  0.889  0.889  0.394-  12 2.56  16 2.56  18 2.56  21 2.56  23 2.56  19 2.56  26 2.56  22 2.57
                            27 2.57  28 2.57  33 2.59  30 2.59
  26  0.222  0.889  0.394-  10 2.56  16 2.56  17 2.56  20 2.56  23 2.56  25 2.56  19 2.56  27 2.57
                            24 2.57  28 2.57  29 2.59  34 2.59
  27  0.556  0.888  0.394-  24 2.56  22 2.56  26 2.57  25 2.57  20 2.57  21 2.57  17 2.57  18 2.57
                            35 2.57  11 2.57  29 2.59  30 2.59
  28  0.000  0.000  0.480-  33 2.55  30 2.55  31 2.55  29 2.55  32 2.55  34 2.55  25 2.57  19 2.57
                            26 2.57
  29  0.333  0.997  0.482-  34 2.52  35 2.55  28 2.55  31 2.59  27 2.59  36 2.59  30 2.59  26 2.59
                            20 2.61
  30  0.670  0.997  0.482-  33 2.52  35 2.55  28 2.55  32 2.59  27 2.59  36 2.59  29 2.59  25 2.59
                            21 2.61
  31  0.997  0.333  0.482-  32 2.52  35 2.55  28 2.55  29 2.59  22 2.59  36 2.59  33 2.59  19 2.59
                            20 2.61
  32  0.670  0.333  0.482-  31 2.52  35 2.55  28 2.55  30 2.59  24 2.59  36 2.59  34 2.59  19 2.59
                            21 2.61
  33  0.997  0.670  0.482-  30 2.52  35 2.55  28 2.55  34 2.59  22 2.59  36 2.59  31 2.59  25 2.59
                            23 2.61
  34  0.333  0.670  0.482-  29 2.52  35 2.55  28 2.55  33 2.59  24 2.59  36 2.59  32 2.59  26 2.59
                            23 2.61
  35  0.667  0.667  0.481-  34 2.55  32 2.55  29 2.55  30 2.55  33 2.55  31 2.55  24 2.57  27 2.57
                            22 2.57
  36  0.333  0.333  0.482-  39 2.28  31 2.59  29 2.59  33 2.59  34 2.59  32 2.59  30 2.59  23 2.61
                            20 2.61  21 2.61
  37  0.272  0.249  0.586-  39 0.98
  38  0.477  0.248  0.586-  39 0.98
  39  0.336  0.327  0.576-  37 0.98  38 0.98  36 2.28

  LATTYP: Found a hexagonal cell.
 ALAT       =     7.6967864036
 C/A-ratio  =     3.1535378041

  Lattice vectors:

 A1 = (  -3.8483927580,  -6.6656128093,   0.0000000000)
 A2 = (   7.6967864037,   0.0000000000,   0.0000000000)
 A3 = (   0.0000000000,   0.0000000000,  24.2721068937)

Analysis of symmetry for initial positions (statically):
 Subroutine PRICEL returns:
 Original cell was already a primitive cell.

 Routine SETGRP: Setting up the symmetry group for a
 hexagonal supercell.

 Subroutine GETGRP returns: Found  1 space group operations
 (whereof  1 operations were pure point group operations)
 out of a pool of 24 trial point group operations.

The static configuration has the point symmetry C_1 .

Analysis of symmetry for dynamics (positions and initial velocities):
 Subroutine PRICEL returns:
 Original cell was already a primitive cell.

[...]

The dynamic configuration has the point symmetry C_1 .

Analysis of constrained symmetry for selective dynamics:
 Subroutine PRICEL returns:
[...]
     41      -3.8768      2.00000
     42      -3.8703      2.00000
     43      -3.8117      2.00000
     44      -3.7955      2.00000
     45      -3.7809      2.00000
     46      -3.7731      2.00000
     47      -3.7559      2.00000
     48      -3.7462      2.00000
     49      -3.7436      2.00000
     50      -3.5994      2.00000
     51      -3.5703      2.00000
     52      -3.5605      2.00000
     53      -3.5403      2.00000
     54      -3.4967      2.00000
     55      -3.4733      2.00000
     56      -3.4711      2.00000
     57      -3.4571      2.00000
     58      -3.4460      2.00000
     59      -3.4353      2.00000
     60      -3.4165      2.00000
[...]
    238       5.7651      0.00000
    239       5.8381      0.00000
    240       5.8776      0.00000
    241       5.9349      0.00000
    242       6.0465      0.00000
    243       6.1359      0.00000
    244       6.2244      0.00000
    245       6.2994      0.00000
    246       6.3742      0.00000
    247       6.6728      0.00000
    248       6.8383      0.00000
    249       7.0432      0.00000
    250       7.1561      0.00000
    251       7.2798      0.00000
    252       7.4549      0.00000

 soft charge-density along one line, spin component           1
         0         1         2         3         4         5         6         7         8         9
 total charge-density along one line

------------------------ aborting loop because EDIFF is reached ----------------------------------------

 total charge

# of ion       s       p       d       tot
    1        0.450   0.282   9.188   9.920
    2        0.447   0.287   9.184   9.917
    3        0.447   0.287   9.184   9.917
    4        0.446   0.286   9.185   9.918
    5        0.449   0.287   9.179   9.915
    6        0.446   0.286   9.185   9.917
    7        0.446   0.287   9.184   9.917
    8        0.446   0.287   9.184   9.917
    9        0.448   0.284   9.187   9.919
   10        0.444   0.371   9.174   9.989
   11        0.442   0.365   9.182   9.989
   12        0.444   0.371   9.174   9.989
   13        0.441   0.365   9.182   9.989
   14        0.441   0.365   9.182   9.989
   15        0.438   0.370   9.174   9.982
   16        0.443   0.371   9.174   9.989
   17        0.438   0.370   9.175   9.982
   18        0.438   0.370   9.175   9.982
   19        0.442   0.369   9.177   9.988
   20        0.471   0.402   9.151  10.024
   21        0.471   0.402   9.151  10.023
   22        0.430   0.372   9.178   9.980
   23        0.471   0.401   9.152  10.024
   24        0.430   0.372   9.178   9.980
   25        0.442   0.368   9.178   9.988
   26        0.442   0.368   9.178   9.988
   27        0.430   0.372   9.178   9.980
   28        0.444   0.299   9.176   9.919
   29        0.483   0.328   9.154   9.965
   30        0.483   0.328   9.154   9.965
   31        0.484   0.327   9.154   9.964
   32        0.483   0.327   9.153   9.964
   33        0.482   0.322   9.157   9.961
   34        0.482   0.322   9.157   9.961
   35        0.438   0.302   9.176   9.917
   36        0.726   0.659   3.130   4.515
   37        0.598   0.117   0.000   0.715
   38        0.598   0.117   0.000   0.715
   39        1.565   3.625   0.000   5.190
tot         19.290  16.389 324.183 359.861

  FORCE on cell =-STRESS in cart. coord.  units (eV):
  Direction    XX          YY          ZZ          XY          YZ          ZX
  Alpha Z   788.13550   788.13550   788.13550
  Ewald  228083.39875228013.69878************    -0.16696   -11.89472     1.07000
  Hartree240798.02150240785.74762************    -0.07260     8.58838     0.76518
  E(xc)   -2304.55697 -2304.73704 -2308.38244    -0.00010    -0.05411     0.00152
  Local  ************************481714.40598     0.23510    -4.64149    -1.72727
  n-local  -787.19295  -787.54914  -797.86871     0.01010    -0.21689    -0.00124
  augment  3316.32742  3317.56266  3341.47980    -0.01747     0.47624    -0.00807
  Kinetic  3316.96911  3335.95567  3369.79113     0.03118     7.57139    -0.09053
  Fock        0.00000     0.00000     0.00000     0.00000     0.00000     0.00000
  Total     -10.70034   -10.66570    -4.70558     0.01926    -0.17120     0.00960
  in kB     -13.76738   -13.72280    -6.05434     0.02478    -0.22027     0.01235

 VOLUME and BASIS-vectors are now :
  energy-cutoff  :      500.00
  volume of cell :     1245.25
      direct lattice vectors                 reciprocal lattice vectors
     7.696786404  0.000000000  0.000000000     0.129924354 -0.075011849  0.000000000
     3.848392758  6.665612809  0.000000000     0.000000000  0.150023716  0.000000000
     0.000000000  0.000000000 24.272106894     0.000000000  0.000000000  0.041199555

  length of vectors
     7.696786404  7.696786404 24.272106894     0.150023716  0.150023716  0.041199555

 FORCES acting on ions
    electron-ion (+dipol)            ewald-force                    non-local-force                 convergence-correction
   0.573E-02 0.175E-01 0.375E+04   -.452E-03 -.100E-01 -.374E+04   0.236E-03 -.502E-02 -.238E+01   -.534E-02 -.133E-02 0.340E+00
   -.877E+00 -.628E+00 0.374E+04   0.815E+00 0.635E+00 -.374E+04   0.661E-01 0.165E+00 -.182E+01   0.842E-02 -.156E+00 0.415E+00
   0.870E+00 -.640E+00 0.374E+04   -.815E+00 0.636E+00 -.374E+04   -.663E-01 0.165E+00 -.182E+01   -.234E-02 -.143E+00 0.421E+00
   -.979E+00 -.453E+00 0.374E+04   0.966E+00 0.401E+00 -.374E+04   0.185E+00 -.326E-01 -.186E+01   -.149E+00 0.850E-01 0.422E+00
   -.174E-01 -.192E-01 0.374E+04   0.104E-02 0.174E-01 -.374E+04   -.915E-02 -.114E-01 -.129E+01   0.258E-01 0.111E-01 0.637E+00
   0.992E+00 -.455E+00 0.374E+04   -.967E+00 0.400E+00 -.374E+04   -.185E+00 -.336E-01 -.186E+01   0.137E+00 0.883E-01 0.428E+00
   -.153E+00 0.107E+01 0.374E+04   0.152E+00 -.104E+01 -.374E+04   0.124E+00 -.130E+00 -.188E+01   -.115E+00 0.783E-01 0.407E+00
   0.144E+00 0.108E+01 0.374E+04   -.151E+00 -.104E+01 -.374E+04   -.126E+00 -.130E+00 -.188E+01   0.126E+00 0.668E-01 0.406E+00
   0.145E-01 0.334E-01 0.374E+04   -.140E-03 -.720E-02 -.374E+04   0.931E-02 0.425E-02 -.210E+01   -.241E-01 -.281E-01 0.314E+00
   -.545E+01 -.315E+01 0.126E+04   0.587E+01 0.340E+01 -.125E+04   -.411E+00 -.253E+00 -.942E+00   -.250E-01 -.289E-02 -.376E+00
   -.229E-01 -.661E+01 0.124E+04   0.562E-02 0.631E+01 -.124E+04   -.850E-02 0.216E+00 -.355E-01   0.262E-01 0.317E-01 -.421E+00
   0.547E+01 -.316E+01 0.126E+04   -.587E+01 0.340E+01 -.125E+04   0.412E+00 -.253E+00 -.941E+00   0.122E-01 -.435E-03 -.379E+00
   -.571E+01 0.319E+01 0.124E+04   0.546E+01 -.304E+01 -.124E+04   0.190E+00 -.118E+00 -.313E-01   0.232E-01 0.320E-02 -.430E+00
   0.569E+01 0.320E+01 0.124E+04   -.545E+01 -.305E+01 -.124E+04   -.208E+00 -.116E+00 -.302E-01   0.134E-01 -.759E-02 -.443E+00
   0.152E-01 -.221E+01 0.125E+04   -.570E-02 0.196E+01 -.125E+04   0.166E-02 0.140E+00 -.947E+00   -.110E-01 0.998E-01 -.447E+00
   0.261E-02 0.642E+01 0.126E+04   0.937E-03 -.689E+01 -.125E+04   0.133E-02 0.480E+00 -.902E+00   -.489E-02 0.134E-01 -.375E+00
   -.179E+01 0.117E+01 0.125E+04   0.161E+01 -.104E+01 -.125E+04   0.929E-01 -.539E-01 -.908E+00   0.802E-01 -.642E-01 -.441E+00
   0.178E+01 0.115E+01 0.125E+04   -.161E+01 -.104E+01 -.125E+04   -.944E-01 -.555E-01 -.909E+00   -.743E-01 -.515E-01 -.429E+00
   0.458E-01 -.834E+01 -.123E+04   -.431E-01 0.843E+01 0.122E+04   -.131E-02 -.742E-01 0.878E+00   -.149E-02 -.281E-01 -.658E+00
   -.606E+02 -.356E+02 -.130E+04   0.621E+02 0.365E+02 0.130E+04   -.120E+01 -.703E+00 -.997E+00   -.317E+00 -.176E+00 -.924E+00
   0.606E+02 -.356E+02 -.130E+04   -.621E+02 0.365E+02 0.130E+04   0.122E+01 -.700E+00 -.995E+00   0.292E+00 -.190E+00 -.927E+00
   -.320E+02 0.182E+02 -.125E+04   0.317E+02 -.181E+02 0.125E+04   0.464E+00 -.270E+00 0.663E+00   -.141E+00 0.921E-01 -.650E+00
   -.198E-01 0.699E+02 -.130E+04   0.356E-01 -.716E+02 0.130E+04   0.895E-02 0.142E+01 -.792E+00   -.254E-01 0.330E+00 -.910E+00
   0.320E+02 0.183E+02 -.125E+04   -.317E+02 -.181E+02 0.125E+04   -.481E+00 -.270E+00 0.663E+00   0.180E+00 0.834E-01 -.649E+00
   0.671E+01 0.471E+01 -.123E+04   -.680E+01 -.473E+01 0.123E+04   0.867E-01 0.144E-01 0.101E+01   0.154E-01 0.222E-01 -.637E+00
   -.668E+01 0.475E+01 -.123E+04   0.679E+01 -.477E+01 0.123E+04   -.697E-01 0.126E-01 0.101E+01   -.556E-01 0.259E-01 -.637E+00
   -.287E-01 -.361E+02 -.125E+04   0.120E-01 0.357E+02 0.125E+04   -.949E-02 0.542E+00 0.635E+00   0.265E-01 -.164E+00 -.641E+00
   0.129E+00 0.248E+01 -.364E+04   -.122E+00 -.257E+01 0.364E+04   0.150E-02 0.974E-01 0.149E+01   -.826E-02 0.132E-02 -.481E+00
   -.408E+02 -.767E+02 -.363E+04   0.416E+02 0.776E+02 0.363E+04   -.637E+00 -.651E+00 -.252E-01   -.171E+00 -.329E+00 -.403E+00
   0.407E+02 -.770E+02 -.363E+04   -.415E+02 0.779E+02 0.363E+04   0.621E+00 -.655E+00 -.286E-01   0.206E+00 -.328E+00 -.412E+00
   -.903E+02 -.584E+00 -.363E+04   0.917E+02 0.840E+00 0.363E+04   -.102E+01 -.272E+00 -.135E+00   -.393E+00 0.207E-01 -.415E+00
   0.908E+02 -.541E+00 -.363E+04   -.922E+02 0.796E+00 0.363E+04   0.100E+01 -.271E+00 -.130E+00   0.422E+00 0.201E-01 -.414E+00
   -.509E+02 0.798E+02 -.364E+04   0.513E+02 -.810E+02 0.364E+04   -.215E+00 0.869E+00 0.375E+00   -.174E+00 0.334E+00 -.401E+00
   0.508E+02 0.802E+02 -.364E+04   -.512E+02 -.813E+02 0.364E+04   0.198E+00 0.870E+00 0.371E+00   0.208E+00 0.332E+00 -.392E+00
   0.103E+00 0.178E+01 -.366E+04   -.916E-01 -.174E+01 0.365E+04   0.101E-01 -.183E-01 0.215E+01   -.216E-01 -.209E-01 -.323E+00
   -.277E+00 -.473E+01 -.158E+04   0.277E+00 0.467E+01 0.158E+04   0.124E-03 0.642E-01 0.283E+01   -.300E-03 0.313E-02 -.157E+00
   0.677E+02 0.412E+02 -.377E+03   -.745E+02 -.454E+02 0.379E+03   0.680E+01 0.420E+01 -.203E+01   -.136E-01 -.962E-02 0.261E-01
   -.673E+02 0.417E+02 -.377E+03   0.740E+02 -.459E+02 0.380E+03   -.674E+01 0.425E+01 -.210E+01   0.133E-01 -.966E-02 0.263E-01
   -.562E+00 -.551E+02 -.216E+04   0.749E+00 0.962E+02 0.215E+04   -.183E+00 -.411E+02 0.863E+01   0.756E-04 0.320E-02 0.213E+00
   0.982E-01 0.327E+02 0.188E+02   -.854E-13 -.568E-13 0.114E-10   -.181E+00 -.327E+02 -.906E+01   0.822E-01 0.335E-01 -.972E+01

 POSITION                                       TOTAL-FORCE (eV/Angst)
      0.00000      0.00000      5.37156         0.000202      0.000240     -0.036005
      2.56560      0.00000      5.37156         0.013467      0.015821      0.043893
      5.13119      0.00000      5.37156        -0.013474      0.015713      0.043721
      1.28280      2.22187      5.37156         0.023510     -0.000726      0.042220
      3.84839      2.22187      5.37156         0.000370     -0.003112      0.043461
      6.41399      2.22187      5.37156        -0.023334     -0.000799      0.042247
      2.56560      4.44374      5.37156         0.007656     -0.019318      0.045671
      5.13119      4.44374      5.37156        -0.007766     -0.019282      0.045748
      7.69679      4.44374      5.37156        -0.000360      0.001408      0.010021
      1.28280      0.74062      7.46636        -0.023615     -0.012501     -0.093704
      3.84839      0.74062      7.46636         0.000447     -0.058207     -0.055502
      6.41399      0.74062      7.46636         0.023826     -0.012557     -0.093719
      2.56560      2.96249      7.46636        -0.043553      0.028448     -0.052611
      5.13119      2.96249      7.46636         0.044560      0.028507     -0.052423
      7.69679      2.96249      7.46636         0.000143     -0.006123     -0.005033
      3.84839      5.18437      7.46636         0.000013      0.024538     -0.091359
      6.41399      5.18437      7.46636        -0.004378      0.002079      0.006907
      8.97958      5.18437      7.46636         0.004655      0.001886      0.006918
      7.69679      1.48082      9.55187        -0.000081     -0.012936      0.001819
      2.55960      1.47778      9.55047        -0.034395     -0.015050     -0.094414
      5.13719      1.47778      9.55047         0.033907     -0.015321     -0.094690
      8.97653      3.70488      9.56926         0.026364     -0.022937      0.008927
      3.84839      3.71005      9.55047        -0.000629      0.058260     -0.090021
      6.41705      3.70488      9.56926        -0.025489     -0.023161      0.008990
     10.26275      5.92520      9.55187         0.013966      0.011769      0.005123
      5.13082      5.92520      9.55187        -0.014946      0.011652      0.005059
      7.69679      5.92146      9.56926         0.000312      0.034941      0.001973
      0.00000      0.00000     11.65662         0.000187      0.007256      0.023552
      6.40243      6.64574     11.69071        -0.038382     -0.065769     -0.100730
      8.99114      6.64574     11.69071         0.038867     -0.063981     -0.099395
      8.95659      2.22180     11.69071        -0.047391      0.003522     -0.078623
      6.43698      2.22180     11.69071         0.046036      0.003340     -0.075775
     10.25095      4.46369     11.69071        -0.064408      0.053162     -0.112390
      5.14262      4.46369     11.69071         0.065214      0.052306     -0.111873
      7.69679      4.44374     11.67656        -0.000327     -0.001483      0.032266
      3.84839      2.22187     11.69355         0.000078      0.003391      0.917179
      3.04994      1.65809     14.22028         0.004134     -0.000286     -0.006080
      4.62750      1.65256     14.22877        -0.010042      0.003126     -0.009801
      3.84189      2.18113     13.97219         0.004657     -0.007816      0.018452
    total drift:                               -0.001006      0.036120      0.068425

  FREE ENERGIE OF THE ION-ELECTRON SYSTEM (eV)
  free  energy   TOTEN  =      -147.51081432 eV

  energy  without entropy=     -147.51081432  energy(sigma->0) =     -147.51081432

 stress matrix after NEB project (eV)
    -10.70034      0.01926      0.00960
      0.01926    -10.66570     -0.17120
      0.00960     -0.17120     -4.70558
  FORCES: max atom, RMS     0.020574    0.004188
  FORCE total and by dimension    0.026155    0.018452
  Stress total and by dimension   15.825816   10.700343
|           W    W    AA    RRRRR   N    N  II  N    N   GGGG   !!!           |
|           W    W   A  A   R    R  NN   N  II  NN   N  G    G  !!!           |
|           W    W  A    A  R    R  N N  N  II  N N  N  G       !!!           |
|           W WW W  AAAAAA  RRRRR   N  N N  II  N  N N  G  GGG   !            |
|           WW  WW  A    A  R   R   N   NN  II  N   NN  G    G                |
|           W    W  A    A  R    R  N    N  II  N    N   GGGG   !!!           |
|     Tetrahedron method does not include variations of the Fermi             |
|     occupations, so forces and stress will be inaccurate. We suggest        |
|     using a different smearing scheme ISMEAR = 1 or 2 for metals in         |
|     relaxations.                                                            |

 total charge

# of ion       s       p       d       tot
    1        0.450   0.282   9.188   9.920
    2        0.447   0.287   9.184   9.917
    3        0.447   0.287   9.184   9.917
    4        0.446   0.286   9.185   9.918
    5        0.449   0.287   9.179   9.915
    6        0.446   0.286   9.185   9.917
    7        0.446   0.287   9.184   9.917
    8        0.446   0.287   9.184   9.917
    9        0.448   0.284   9.187   9.919
   10        0.444   0.371   9.174   9.989
   11        0.442   0.365   9.182   9.989
   12        0.444   0.371   9.174   9.989
   13        0.441   0.365   9.182   9.989
   14        0.441   0.365   9.182   9.989
   15        0.438   0.370   9.174   9.982
   16        0.443   0.371   9.174   9.989
   17        0.438   0.370   9.175   9.982
   18        0.438   0.370   9.175   9.982
   19        0.442   0.369   9.177   9.988
   20        0.471   0.402   9.151  10.024
   21        0.471   0.402   9.151  10.023
   22        0.430   0.372   9.178   9.980
   23        0.471   0.401   9.152  10.024
   24        0.430   0.372   9.178   9.980
   25        0.442   0.368   9.178   9.988
   26        0.442   0.368   9.178   9.988
   27        0.430   0.372   9.178   9.980
   28        0.444   0.299   9.176   9.919
   29        0.483   0.328   9.154   9.965
   30        0.483   0.328   9.154   9.965
   31        0.484   0.327   9.154   9.964
   32        0.483   0.327   9.153   9.964
   33        0.482   0.322   9.157   9.961
   34        0.482   0.322   9.157   9.961
   35        0.438   0.302   9.176   9.917
   36        0.726   0.659   3.130   4.515
   37        0.598   0.117   0.000   0.715
   38        0.598   0.117   0.000   0.715
   39        1.565   3.625   0.000   5.190
tot         19.290  16.389 324.183 359.861

 BZINTS: Fermi energy:   -0.018029;  398.000000 electrons
         Band energy:-0.123446E+04;  BLOECHL correction:   -0.024187