 vasp.6.2.0 18Jan21 (build Jun 12 2021 23:27:24) complex

 executed on             LinuxIFC date 2022.05.26  20:25:01

 INCAR:
   ISMEAR = -5
   SIGMA = 0.1
   ISPIN = 1
   EDIFF = 1.d-5
   EDIFFG = -0.01
   NSW = 0
   NELM = 150
   ENCUT = 500
   ISIF = 2
   IBRION = 2
   LREAL = Auto
   ALGO = Fast
   ICHARG = 11
   LORBIT = 10
   LCHARG = .F.
   LWAVE = .F.

 POTCAR:    PAW_PBE Cu 22Jun2005
 POTCAR:    PAW_PBE Cr 06Sep2000
|           W    W    AA    RRRRR   N    N  II  N    N   GGGG   !!!           |
|           W    W   A  A   R    R  NN   N  II  NN   N  G    G  !!!           |
|           W    W  A    A  R    R  N N  N  II  N N  N  G       !!!           |
|           W WW W  AAAAAA  RRRRR   N  N N  II  N  N N  G  GGG   !            |
|           WW  WW  A    A  R   R   N   NN  II  N   NN  G    G                |
|           W    W  A    A  R    R  N    N  II  N    N   GGGG   !!!           |
|     For optimal performance we recommend to set                             |
|       NCORE = 2 up to number-of-cores-per-socket                            |
|     This setting can greatly improve the performance of VASP for DFT.       |
|     The default, NCORE=1 might be grossly inefficient on modern             |
|     multi-core architectures or massively parallel machines. Do your        |
|     Unfortunately you need to use the default for GW and RPA                |
|     calculations (for HF NCORE is supported but not extensively tested      |
|     yet).                                                                   |

 POTCAR:    PAW_PBE Cu 22Jun2005
   VRHFIN =Cu: d10 p1

   TITEL  = PAW_PBE Cu 22Jun2005
   POMASS =   63.546; ZVAL   =   11.000    mass and valenz
   ENMAX  =  295.446; ENMIN  =  221.585 eV

 POTCAR:    PAW_PBE Cr 06Sep2000
   VRHFIN =Cr : d5 s1

   TITEL  = PAW_PBE Cr 06Sep2000
   POMASS =   51.996; ZVAL   =    6.000    mass and valenz
   ENMAX  =  227.080; ENMIN  =  170.310 eV

 Optimization of the real space projectors (new method)

 maximal supplied QI-value         = 16.25
 optimisation between [QCUT,QGAM] = [ 11.38, 22.75] = [ 36.24,144.96] Ry
 Optimized for a Real-space Cutoff    1.52 Angstroem

   l    n(q)    QCUT    max X(q) W(low)/X(q) W(high)/X(q)  e(spline)
   2      9    11.376     4.610    0.21E-03    0.10E-03    0.26E-06
   2      9    11.376     8.522    0.33E-03    0.16E-03    0.37E-06
   0     10    11.376    51.609    0.62E-04    0.20E-04    0.13E-06
   0     10    11.376    27.747    0.54E-04    0.20E-04    0.13E-06
   1     10    11.376    20.408    0.13E-04    0.99E-04    0.19E-06
   1     10    11.376    13.425    0.12E-04    0.87E-04    0.17E-06
 Optimization of the real space projectors (new method)

 maximal supplied QI-value         = 15.12
 optimisation between [QCUT,QGAM] = [ 11.34, 22.83] = [ 36.00,145.93] Ry
 Optimized for a Real-space Cutoff    1.43 Angstroem

   l    n(q)    QCUT    max X(q) W(low)/X(q) W(high)/X(q)  e(spline)
   2      9    11.338    94.395    0.18E-03    0.10E-02    0.64E-06
   2      9    11.338    88.078    0.18E-03    0.10E-02    0.65E-06
   0     10    11.338    50.173    0.13E-03    0.16E-03    0.96E-07
   0     10    11.338    24.906    0.12E-03    0.14E-03    0.88E-07
   1      9    11.338    12.133    0.13E-03    0.15E-03    0.24E-06
   1      9    11.338     7.290    0.10E-03    0.10E-03    0.18E-06
  PAW_PBE Cu 22Jun2005                  :
  PAW_PBE Cr 06Sep2000                  :

 POSCAR: Cu-Cr
  positions in direct lattice
  velocities in cartesian coordinates
 exchange correlation table for  LEXCH =        8
   RHO(1)=    0.500       N(1)  =     2000
   RHO(2)=  100.500       N(2)  =     4000

 VTST: version 3.2, (02/03/18)

 CHAIN: initializing optimizer

 OPT: Using VASP Conjugate-Gradient optimizer
 CHAIN: Read ICHAIN            0

 POSCAR: Cu-Cr
  positions in direct lattice
  velocities in cartesian coordinates

 ion  position               nearest neighbor table
   1  0.000  0.000  0.252-   7 2.57   3 2.57   4 2.57   2 2.57   6 2.57   8 2.57  12 2.57  10 2.57
                            16 2.57
   2  0.333  0.000  0.252-   8 2.57   9 2.57   5 2.57   1 2.57   3 2.57  11 2.57   4 2.57  10 2.57
                            17 2.57
   3  0.667  0.000  0.252-   1 2.57   7 2.57   6 2.57   9 2.57   2 2.57  12 2.57   5 2.57  18 2.57
                            11 2.57
   4  0.000  0.333  0.252-   5 2.57   6 2.57   1 2.57   7 2.57   2 2.57  13 2.57   9 2.57  10 2.57
                            15 2.57
   5  0.333  0.333  0.252-   4 2.57   2 2.57   7 2.57  13 2.57   8 2.57   6 2.57   3 2.57  11 2.57
                            14 2.57
   6  0.667  0.333  0.252-   4 2.57   9 2.57  15 2.57   3 2.57   1 2.57   8 2.57  14 2.57   5 2.57
                            12 2.57
   7  0.000  0.667  0.252-   1 2.57   3 2.57  16 2.57  18 2.57   4 2.57   5 2.57   8 2.57   9 2.57
                            13 2.57
   8  0.333  0.667  0.252-   9 2.57   2 2.57  17 2.57   6 2.57   1 2.57   7 2.57   5 2.57  14 2.57
                            16 2.57
   9  0.667  0.667  0.252-   8 2.57   6 2.57   2 2.57  17 2.57   3 2.57   7 2.57   4 2.57  15 2.57
                            18 2.57
  10  0.111  0.111  0.351-  20 2.55  26 2.56  19 2.56  11 2.57  12 2.57  13 2.57   1 2.57   2 2.57
                             4 2.57  15 2.57  16 2.57  17 2.57
  11  0.444  0.111  0.351-  20 2.55  21 2.55  10 2.57  13 2.57   2 2.57  17 2.57  14 2.57  12 2.57
                             5 2.57   3 2.57  18 2.57  27 2.57
  12  0.778  0.111  0.351-  21 2.55  19 2.56  25 2.56  15 2.57  10 2.57  14 2.57  18 2.57   3 2.57
                             1 2.57  16 2.57  11 2.57   6 2.57
  13  0.111  0.444  0.351-  23 2.55  20 2.55  16 2.57  18 2.57  10 2.57  11 2.57  14 2.57   5 2.57
                             4 2.57   7 2.57  15 2.57  22 2.57
  14  0.444  0.444  0.351-  21 2.55  23 2.55  15 2.57  17 2.57  12 2.57  16 2.57  13 2.57  11 2.57
                             6 2.57   8 2.57   5 2.57  24 2.57
  15  0.778  0.444  0.351-  19 2.56  24 2.56  22 2.56  14 2.57  17 2.57  12 2.57   6 2.57  18 2.57
                            10 2.57   9 2.57  13 2.57   4 2.57
  16  0.111  0.778  0.351-  23 2.55  25 2.56  26 2.56  18 2.57  13 2.57   7 2.57  14 2.57  17 2.57
                            12 2.57  10 2.57   8 2.57   1 2.57
  17  0.444  0.778  0.351-  26 2.56  27 2.56  24 2.56  14 2.57  15 2.57   8 2.57   9 2.57  11 2.57
                            16 2.57  18 2.57  10 2.57   2 2.57
  18  0.778  0.778  0.351-  25 2.56  22 2.56  27 2.56  16 2.57  13 2.57   7 2.57  15 2.57  12 2.57
                            17 2.57   9 2.57   3 2.57  11 2.57
  19  0.889  0.222  0.449-  12 2.56  10 2.56  15 2.56  28 2.56  25 2.57  26 2.57  22 2.57  24 2.57
                            21 2.57  20 2.57  32 2.58  31 2.58
  20  0.222  0.222  0.448-  36 2.50  11 2.55  13 2.55  10 2.55  23 2.56  21 2.56  26 2.57  19 2.57
                            29 2.57  31 2.57  27 2.57  22 2.57
  21  0.555  0.222  0.448-  36 2.50  14 2.55  11 2.55  12 2.55  20 2.56  23 2.56  19 2.57  25 2.57
                            32 2.57  30 2.57  24 2.57  27 2.57
  22  0.888  0.556  0.449-  35 2.56  24 2.56  27 2.56  18 2.56  15 2.56  31 2.56  33 2.56  19 2.57
                            25 2.57  13 2.57  23 2.57  20 2.57
  23  0.222  0.555  0.448-  36 2.50  13 2.55  14 2.55  16 2.55  20 2.56  21 2.56  25 2.57  26 2.57
                            33 2.57  34 2.57  22 2.57  24 2.57
  24  0.556  0.556  0.449-  35 2.56  22 2.56  27 2.56  15 2.56  17 2.56  32 2.56  34 2.56  19 2.57
                            26 2.57  14 2.57  21 2.57  23 2.57
  25  0.889  0.889  0.449-  12 2.56  16 2.56  18 2.56  28 2.56  19 2.57  26 2.57  22 2.57  27 2.57
                            21 2.57  23 2.57  33 2.58  30 2.58
  26  0.222  0.889  0.449-  10 2.56  16 2.56  17 2.56  28 2.56  25 2.57  19 2.57  27 2.57  24 2.57
                            20 2.57  23 2.57  29 2.58  34 2.58
  27  0.556  0.888  0.449-  35 2.56  24 2.56  22 2.56  17 2.56  18 2.56  29 2.56  30 2.56  26 2.57
                            25 2.57  11 2.57  20 2.57  21 2.57
  28  0.000  0.000  0.547-  25 2.56  19 2.56  26 2.56  33 2.57  30 2.57  31 2.57  29 2.57  32 2.57
                            34 2.57
  29  0.333  0.002  0.547-  31 2.55  30 2.55  36 2.55  27 2.56  20 2.57  28 2.57  35 2.57  26 2.58
                            34 2.60
  30  0.665  0.002  0.547-  32 2.55  29 2.55  36 2.55  27 2.56  21 2.57  28 2.57  35 2.57  25 2.58
                            33 2.60
  31  0.002  0.333  0.547-  29 2.55  33 2.55  36 2.55  22 2.56  20 2.57  28 2.57  35 2.57  19 2.58
                            32 2.60
  32  0.665  0.333  0.547-  30 2.55  34 2.55  36 2.55  24 2.56  21 2.57  28 2.57  35 2.57  19 2.58
                            31 2.60
  33  0.002  0.665  0.547-  34 2.55  31 2.55  36 2.55  22 2.56  23 2.57  28 2.57  35 2.57  25 2.58
                            30 2.60
  34  0.333  0.665  0.547-  33 2.55  32 2.55  36 2.55  24 2.56  23 2.57  28 2.57  35 2.57  26 2.58
                            29 2.60
  35  0.667  0.667  0.547-  24 2.56  27 2.56  22 2.56  34 2.57  32 2.57  29 2.57  30 2.57  33 2.57
                            31 2.57
  36  0.333  0.333  0.543-  23 2.50  20 2.50  21 2.50  31 2.55  29 2.55  33 2.55  34 2.55  32 2.55
                            30 2.55

  LATTYP: Found a hexagonal cell.
 ALAT       =     7.6967864036
 C/A-ratio  =     2.7653617908

  Lattice vectors:

 A1 = (  -3.8483927580,  -6.6656128093,   0.0000000000)
 A2 = (   7.6967864037,   0.0000000000,   0.0000000000)
 A3 = (   0.0000000000,   0.0000000000,  21.2843990326)

Analysis of symmetry for initial positions (statically):
 Subroutine PRICEL returns:
 Original cell was already a primitive cell.

 Routine SETGRP: Setting up the symmetry group for a
 hexagonal supercell.

 Subroutine GETGRP returns: Found  6 space group operations
 (whereof  6 operations were pure point group operations)
 out of a pool of 24 trial point group operations.

The static configuration has the point symmetry C_3v.

Analysis of symmetry for dynamics (positions and initial velocities):
 Subroutine PRICEL returns:
 Original cell was already a primitive cell.

[...]

The dynamic configuration has the point symmetry C_3v.

Analysis of constrained symmetry for selective dynamics:
 Subroutine PRICEL returns:
 Original cell was already a primitive cell.

 Routine SETGRP: Setting up the symmetry group for a
 hexagonal supercell.

 Subroutine GETGRP returns: Found  6 space group operations
 (whereof  6 operations were pure point group operations)
 out of a pool of 24 trial point group operations.

The constrained configuration has the point symmetry C_3v.

 Subroutine INISYM returns: Found  6 space group operations
 (whereof  6 operations are pure point group operations),
 and found     1 'primitive' translations

                                     Primitive cell

  volume of cell :    1091.9705

  direct lattice vectors                    reciprocal lattice vectors
     7.696786404  0.000000000  0.000000000     0.129924354 -0.075011849  0.000000000
     3.848392758  6.665612809  0.000000000     0.000000000  0.150023716  0.000000000
[...]
     15      -4.5131      2.00000
     16      -4.5053      2.00000
     17      -4.5004      2.00000
     18      -4.4281      2.00000
     19      -4.4214      2.00000
     20      -4.3507      2.00000
     21      -4.3480      2.00000
     22      -4.3332      2.00000
     23      -4.3150      2.00000
     24      -4.1304      2.00000
     25      -4.1222      2.00000
     26      -4.0687      2.00000
     27      -4.0554      2.00000
     28      -4.0534      2.00000
     29      -4.0459      2.00000
     30      -4.0389      2.00000
     31      -4.0323      2.00000
     32      -3.9767      2.00000
     33      -3.9750      2.00000
     34      -3.9596      2.00000
     35      -3.8676      2.00000
     36      -3.8602      2.00000
     37      -3.7369      2.00000
     38      -3.7337      2.00000
     39      -3.6529      2.00000
     40      -3.6489      2.00000
     41      -3.6473      2.00000
     42      -3.6176      2.00000
     43      -3.6048      2.00000
     44      -3.5994      2.00000
     45      -3.5920      2.00000
     46      -3.4124      2.00000
     47      -3.3980      2.00000
     48      -3.3881      2.00000
     49      -3.3763      2.00000
     50      -3.3293      2.00000
     51      -3.3276      2.00000
     52      -3.3083      2.00000
     53      -3.3000      2.00000
     54      -3.2941      2.00000
     55      -3.2746      2.00000
     56      -3.2488      2.00000
     57      -3.2471      2.00000
     58      -3.2375      2.00000
     59      -3.2263      2.00000
     60      -3.2152      2.00000
[...]
    238       6.6688      0.00000
    239       6.6983      0.00000
    240       6.9067      0.00000
    241       6.9547      0.00000
    242       7.0961      0.00000
    243       7.2670      0.00000
    244       7.3084      0.00000
    245       7.3333      0.00000
    246       7.5546      0.00000
    247       7.6576      0.00000
    248       7.8586      0.00000
    249       7.9275      0.00000
    250       8.1488      0.00000
    251       8.2081      0.00000
    252       8.3126      0.00000

 soft charge-density along one line, spin component           1
         0         1         2         3         4         5         6         7         8         9
 total charge-density along one line

------------------------ aborting loop because EDIFF is reached ----------------------------------------

 total charge

# of ion       s       p       d       tot
    1        0.450   0.284   9.188   9.921
    2        0.448   0.286   9.186   9.919
    3        0.448   0.286   9.186   9.919
    4        0.448   0.286   9.186   9.919
    5        0.448   0.286   9.181   9.915
    6        0.448   0.286   9.186   9.919
    7        0.448   0.286   9.186   9.919
    8        0.448   0.286   9.186   9.919
    9        0.448   0.282   9.189   9.920
   10        0.444   0.372   9.175   9.990
   11        0.441   0.366   9.185   9.992
   12        0.444   0.372   9.175   9.990
   13        0.441   0.366   9.185   9.992
   14        0.441   0.366   9.185   9.992
   15        0.440   0.369   9.178   9.987
   16        0.444   0.372   9.175   9.990
   17        0.440   0.369   9.178   9.987
   18        0.440   0.369   9.178   9.987
   19        0.441   0.369   9.180   9.990
   20        0.461   0.397   9.158  10.016
   21        0.461   0.397   9.158  10.016
   22        0.433   0.373   9.181   9.987
   23        0.461   0.397   9.158  10.016
   24        0.433   0.373   9.181   9.987
   25        0.441   0.369   9.180   9.990
   26        0.441   0.369   9.180   9.990
   27        0.433   0.373   9.181   9.987
   28        0.446   0.286   9.181   9.912
   29        0.466   0.302   9.166   9.934
   30        0.466   0.302   9.166   9.934
   31        0.466   0.302   9.166   9.934
   32        0.466   0.302   9.166   9.934
   33        0.466   0.302   9.166   9.934
   34        0.466   0.302   9.166   9.934
   35        0.439   0.288   9.182   9.910
   36        0.454   0.394   4.291   5.138
tot         16.146  12.086 325.495 353.727

  FORCE on cell =-STRESS in cart. coord.  units (eV):
  Direction    XX          YY          ZZ          XY          YZ          ZX
  Alpha Z   857.87305   857.87305   857.87305
  Ewald  171556.03500171556.03464************     0.00036     0.00011     0.00015
  Hartree184398.12188184398.12189************     0.00003     0.00005     0.00006
  E(xc)   -2271.61943 -2271.61895 -2276.29633    -0.00042    -0.00004    -0.00006
  Local  ************************369062.49894     0.01846    -0.00056    -0.00088
  n-local  -770.69868  -756.32515  -777.50713     7.28462    -0.00399     0.16815
  augment  3335.50747  3335.52758  3357.60544    -0.01742     0.00025     0.00042
  Kinetic  3170.56818  3174.96985  3205.36766     3.24053     1.29091    -1.06761
  Fock        0.00000     0.00000     0.00000     0.00000     0.00000     0.00000
  Total      -8.94778    -8.94778    -0.49058     0.00000    -0.00000    -0.00000
  in kB     -13.12850   -13.12850    -0.71980     0.00000    -0.00000    -0.00000

 VOLUME and BASIS-vectors are now :
  energy-cutoff  :      500.00
  volume of cell :     1091.97
      direct lattice vectors                 reciprocal lattice vectors
     7.696786404  0.000000000  0.000000000     0.129924354 -0.075011849  0.000000000
     3.848392758  6.665612809  0.000000000     0.000000000  0.150023716  0.000000000
     0.000000000  0.000000000 21.284399033     0.000000000  0.000000000  0.046982769

  length of vectors
     7.696786404  7.696786404 21.284399033     0.150023716  0.150023716  0.046982769

 FORCES acting on ions
    electron-ion (+dipol)            ewald-force                    non-local-force                 convergence-correction
   -.416E-04 0.138E-06 0.345E+04   0.581E-04 -.433E-05 -.344E+04   -.398E-17 0.434E-17 -.244E+01   -.155E-03 -.568E-04 0.825E-01
   -.652E+00 -.393E+00 0.344E+04   0.365E+00 0.351E+00 -.344E+04   0.108E+00 0.101E+00 -.187E+01   0.174E+00 -.473E-01 -.190E-01
   0.652E+00 -.393E+00 0.344E+04   -.365E+00 0.351E+00 -.344E+04   -.108E+00 0.101E+00 -.187E+01   -.173E+00 -.448E-01 -.184E-01
   -.666E+00 -.368E+00 0.344E+04   0.486E+00 0.140E+00 -.344E+04   0.141E+00 0.433E-01 -.187E+01   0.460E-01 0.174E+00 -.190E-01
   -.620E-04 -.358E-05 0.344E+04   0.116E-03 -.101E-04 -.344E+04   0.200E-17 -.220E-17 -.154E+01   0.121E-01 0.739E-02 0.105E+00
   0.666E+00 -.368E+00 0.344E+04   -.486E+00 0.140E+00 -.344E+04   -.141E+00 0.433E-01 -.187E+01   -.476E-01 0.175E+00 -.179E-01
   -.143E-01 0.761E+00 0.344E+04   0.121E+00 -.491E+00 -.344E+04   0.330E-01 -.144E+00 -.187E+01   -.125E+00 -.128E+00 -.183E-01
   0.144E-01 0.761E+00 0.344E+04   -.122E+00 -.491E+00 -.344E+04   -.330E-01 -.144E+00 -.187E+01   0.129E+00 -.129E+00 -.180E-01
   -.144E-03 -.330E-04 0.345E+04   0.263E-03 0.205E-04 -.344E+04   0.718E-17 0.215E-17 -.217E+01   -.133E-01 -.686E-02 -.114E+00
   -.233E+01 -.134E+01 0.111E+04   0.275E+01 0.159E+01 -.111E+04   -.379E+00 -.219E+00 -.108E+01   -.385E-01 -.223E-01 -.323E-01
   -.906E-04 -.325E+01 0.110E+04   0.189E-03 0.298E+01 -.110E+04   -.147E-07 0.221E+00 -.200E+00   0.108E-01 0.155E-01 -.414E-01
   0.233E+01 -.134E+01 0.111E+04   -.275E+01 0.159E+01 -.111E+04   0.379E+00 -.219E+00 -.108E+01   0.380E-01 -.209E-01 -.348E-01
   -.282E+01 0.163E+01 0.110E+04   0.258E+01 -.149E+01 -.110E+04   0.191E+00 -.110E+00 -.200E+00   0.193E-01 0.241E-02 -.413E-01
   0.282E+01 0.163E+01 0.110E+04   -.258E+01 -.149E+01 -.110E+04   -.191E+00 -.110E+00 -.200E+00   0.443E-02 0.219E-02 -.429E-01
   -.142E-03 -.515E+00 0.111E+04   0.298E-03 0.183E+00 -.111E+04   -.982E-08 0.147E+00 -.953E+00   -.298E-02 0.167E+00 -.201E-01
   -.922E-04 0.269E+01 0.111E+04   0.186E-03 -.318E+01 -.111E+04   -.291E-07 0.437E+00 -.108E+01   -.891E-04 0.421E-01 -.348E-01
   -.446E+00 0.257E+00 0.111E+04   0.159E+00 -.914E-01 -.111E+04   0.128E+00 -.737E-01 -.953E+00   0.144E+00 -.861E-01 -.202E-01
   0.446E+00 0.257E+00 0.111E+04   -.159E+00 -.914E-01 -.111E+04   -.128E+00 -.737E-01 -.953E+00   -.143E+00 -.845E-01 -.212E-01
   -.635E-04 -.547E+01 -.123E+04   0.721E-04 0.535E+01 0.122E+04   -.906E-11 0.136E-03 0.797E+00   0.134E-01 0.126E+00 0.188E+00
   -.393E+02 -.227E+02 -.127E+04   0.405E+02 0.234E+02 0.127E+04   -.109E+01 -.628E+00 -.726E+00   -.188E+00 -.109E+00 0.316E-01
   0.393E+02 -.227E+02 -.127E+04   -.405E+02 0.234E+02 0.127E+04   0.109E+01 -.628E+00 -.726E+00   0.166E+00 -.106E+00 0.308E-01
   -.215E+02 0.124E+02 -.123E+04   0.212E+02 -.122E+02 0.123E+04   0.393E+00 -.227E+00 0.560E+00   -.150E+00 0.696E-01 0.841E-01
   -.835E-04 0.454E+02 -.127E+04   0.149E-03 -.468E+02 0.127E+04   -.836E-07 0.126E+01 -.726E+00   -.105E-01 0.195E+00 0.307E-01
   0.215E+02 0.124E+02 -.123E+04   -.212E+02 -.122E+02 0.123E+04   -.393E+00 -.227E+00 0.560E+00   0.129E+00 0.733E-01 0.841E-01
   0.474E+01 0.273E+01 -.123E+04   -.463E+01 -.267E+01 0.122E+04   -.118E-03 -.680E-04 0.797E+00   -.905E-01 -.522E-01 0.188E+00
   -.474E+01 0.273E+01 -.123E+04   0.463E+01 -.267E+01 0.122E+04   0.118E-03 -.680E-04 0.797E+00   0.116E+00 -.511E-01 0.188E+00
   -.123E-03 -.248E+02 -.123E+04   0.239E-03 0.245E+02 0.123E+04   -.302E-07 0.453E+00 0.560E+00   -.146E-01 -.165E+00 0.843E-01
   -.384E-04 0.149E-04 -.348E+04   0.434E-04 -.320E-04 0.348E+04   -.879E-17 0.641E-18 0.199E+01   0.871E-03 0.556E-03 0.383E-01
   -.381E+02 -.679E+02 -.349E+04   0.389E+02 0.692E+02 0.349E+04   -.822E+00 -.111E+01 0.119E+01   0.305E-01 -.138E+00 0.155E+00
   0.381E+02 -.679E+02 -.349E+04   -.389E+02 0.692E+02 0.349E+04   0.822E+00 -.111E+01 0.119E+01   -.309E-01 -.136E+00 0.157E+00
   -.779E+02 0.995E+00 -.349E+04   0.794E+02 -.938E+00 0.349E+04   -.138E+01 -.155E+00 0.119E+01   -.104E+00 0.953E-01 0.155E+00
   0.779E+02 0.995E+00 -.349E+04   -.794E+02 -.938E+00 0.349E+04   0.138E+01 -.155E+00 0.119E+01   0.104E+00 0.974E-01 0.157E+00
   -.398E+02 0.669E+02 -.349E+04   0.405E+02 -.683E+02 0.349E+04   -.554E+00 0.127E+01 0.119E+01   -.133E+00 0.413E-01 0.157E+00
   0.398E+02 0.669E+02 -.349E+04   -.405E+02 -.683E+02 0.349E+04   0.554E+00 0.127E+01 0.119E+01   0.137E+00 0.416E-01 0.157E+00
   -.121E-03 -.163E-04 -.349E+04   0.247E-03 0.357E-05 0.349E+04   0.101E-17 0.108E-17 0.264E+01   -.133E-01 -.686E-02 0.284E+00
   -.533E-04 -.632E-05 -.188E+04   0.773E-04 0.145E-04 0.187E+04   -.487E-17 0.497E-17 0.293E+01   0.987E-03 0.598E-03 0.173E+00
   -.237E-03 0.129E-04 0.545E+01   0.185E-12 0.337E-12 -.114E-11   -.226E-15 0.450E-15 -.746E+01   -.532E-02 -.614E-02 0.202E+01

 POSITION                                       TOTAL-FORCE (eV/Angst)
      0.00000      0.00000      5.37156         0.000000     -0.000000     -0.027905
      2.56560      0.00000      5.37156        -0.004772      0.012163      0.056054
      5.13119      0.00000      5.37156         0.004772      0.012163      0.056054
      1.28280      2.22187      5.37156         0.008147     -0.010214      0.056054
      3.84839      2.22187      5.37156        -0.000000     -0.000000      0.044185
      6.41399      2.22187      5.37156        -0.008147     -0.010214      0.056054
      2.56560      4.44374      5.37156         0.012919     -0.001948      0.056054
      5.13119      4.44374      5.37156        -0.012919     -0.001948      0.056054
      7.69679      4.44374      5.37156        -0.000000     -0.000000      0.024887
      1.28280      0.74062      7.46636         0.008014      0.004627     -0.076285
      3.84839      0.74062      7.46636         0.000000     -0.048852     -0.072195
      6.41399      0.74062      7.46636        -0.008014      0.004627     -0.076285
      2.56560      2.96249      7.46636        -0.042307      0.024426     -0.072195
      5.13119      2.96249      7.46636         0.042307      0.024426     -0.072195
      7.69679      2.96249      7.46636         0.000000     -0.017004     -0.029526
      3.84839      5.18437      7.46636         0.000000     -0.009254     -0.076285
      6.41399      5.18437      7.46636        -0.014726      0.008502     -0.029526
      8.97958      5.18437      7.46636         0.014726      0.008502     -0.029526
      7.69679      1.48113      9.55176         0.000000     -0.000763      0.002759
      2.56610      1.48154      9.54462        -0.000561     -0.000324      0.017726
      5.13069      1.48154      9.54462         0.000561     -0.000324      0.017726
      8.97635      3.70498      9.55922         0.005149     -0.002973     -0.007396
      3.84839      3.70254      9.54462        -0.000000      0.000648      0.017726
      6.41722      3.70498      9.55922        -0.005149     -0.002973     -0.007396
     10.26248      5.92505      9.55176         0.000661      0.000381      0.002759
      5.13109      5.92505      9.55176        -0.000661      0.000381      0.002759
      7.69679      5.92126      9.55922        -0.000000      0.005945     -0.007396
      0.00000      0.00000     11.63975         0.000000     -0.000000      0.009401
      2.57267      0.01383     11.65039        -0.003341     -0.000751      0.018359
      5.12411      0.01383     11.65039         0.003341     -0.000751      0.018359
      1.29831      2.22109     11.65039        -0.002321     -0.002518      0.018359
      6.39847      2.22109     11.65039         0.002321     -0.002518      0.018359
      2.57403      4.43070     11.65039         0.001021      0.003269      0.018359
      5.12275      4.43070     11.65039        -0.001021      0.003269      0.018359
      7.69679      4.44374     11.64501         0.000000     -0.000000      0.009104
      3.84839      2.22187     11.55740         0.000000     -0.000000     -0.011399
    total drift:                               -0.005553     -0.006124      0.002999

  FREE ENERGIE OF THE ION-ELECTRON SYSTEM (eV)
  free  energy   TOTEN  =      -129.32448104 eV

  energy  without entropy=     -129.32448104  energy(sigma->0) =     -129.32448104

 stress matrix after NEB project (eV)
     -8.94778      0.00000     -0.00000
      0.00000     -8.94778     -0.00000
     -0.00000     -0.00000     -0.49058
  FORCES: max atom, RMS     0.018676    0.010045
  FORCE total and by dimension    0.060271    0.018359
  Stress total and by dimension   12.663579    8.947781
|           W    W    AA    RRRRR   N    N  II  N    N   GGGG   !!!           |
|           W    W   A  A   R    R  NN   N  II  NN   N  G    G  !!!           |
|           W    W  A    A  R    R  N N  N  II  N N  N  G       !!!           |
|           W WW W  AAAAAA  RRRRR   N  N N  II  N  N N  G  GGG   !            |
|           WW  WW  A    A  R   R   N   NN  II  N   NN  G    G                |
|           W    W  A    A  R    R  N    N  II  N    N   GGGG   !!!           |
|     Tetrahedron method does not include variations of the Fermi             |
|     occupations, so forces and stress will be inaccurate. We suggest        |
|     using a different smearing scheme ISMEAR = 1 or 2 for metals in         |
|     relaxations.                                                            |

 total charge

# of ion       s       p       d       tot
    1        0.450   0.284   9.188   9.921
    2        0.448   0.286   9.186   9.919
    3        0.448   0.286   9.186   9.919
    4        0.448   0.286   9.186   9.919
    5        0.448   0.286   9.181   9.915
    6        0.448   0.286   9.186   9.919
    7        0.448   0.286   9.186   9.919
    8        0.448   0.286   9.186   9.919
    9        0.448   0.282   9.189   9.920
   10        0.444   0.372   9.175   9.990
   11        0.441   0.366   9.185   9.992
   12        0.444   0.372   9.175   9.990
   13        0.441   0.366   9.185   9.992
   14        0.441   0.366   9.185   9.992
   15        0.440   0.369   9.178   9.987
   16        0.444   0.372   9.175   9.990
   17        0.440   0.369   9.178   9.987
   18        0.440   0.369   9.178   9.987
   19        0.441   0.369   9.180   9.990
   20        0.461   0.397   9.158  10.016
   21        0.461   0.397   9.158  10.016
   22        0.433   0.373   9.181   9.987
   23        0.461   0.397   9.158  10.016
   24        0.433   0.373   9.181   9.987
   25        0.441   0.369   9.180   9.990
   26        0.441   0.369   9.180   9.990
   27        0.433   0.373   9.181   9.987
   28        0.446   0.286   9.181   9.912
   29        0.466   0.302   9.166   9.934
   30        0.466   0.302   9.166   9.934
   31        0.466   0.302   9.166   9.934
   32        0.466   0.302   9.166   9.934
   33        0.466   0.302   9.166   9.934
   34        0.466   0.302   9.166   9.934
   35        0.439   0.288   9.182   9.910
   36        0.454   0.394   4.291   5.138
tot         16.146  12.086 325.495 353.727

 BZINTS: Fermi energy:    0.055793;  391.000000 electrons
         Band energy:-0.107595E+04;  BLOECHL correction:   -0.019053