 vasp.6.2.0 18Jan21 (build Jun 12 2021 23:27:24) complex

 executed on             LinuxIFC date 2022.05.27  05:53:55

 INCAR:
   ISMEAR = -5
   SIGMA = 0.1
   ISPIN = 1
   EDIFF = 1.d-5
   EDIFFG = -0.01
   NSW = 0
   NELM = 150
   ENCUT = 500
   ISIF = 2
   IBRION = 2
   LREAL = Auto
   ALGO = Fast
   ICHARG = 11
   LORBIT = 10
   LCHARG = .F.
   LWAVE = .F.

 POTCAR:    PAW_PBE Ag 02Apr2005
 POTCAR:    PAW_PBE Ir 06Sep2000
 POTCAR:    PAW_PBE C 08Apr2002
 POTCAR:    PAW_PBE O 08Apr2002
|           W    W    AA    RRRRR   N    N  II  N    N   GGGG   !!!           |
|           W    W   A  A   R    R  NN   N  II  NN   N  G    G  !!!           |
|           W    W  A    A  R    R  N N  N  II  N N  N  G       !!!           |
|           W WW W  AAAAAA  RRRRR   N  N N  II  N  N N  G  GGG   !            |
|           WW  WW  A    A  R   R   N   NN  II  N   NN  G    G                |
|           W    W  A    A  R    R  N    N  II  N    N   GGGG   !!!           |
|     For optimal performance we recommend to set                             |
|       NCORE = 2 up to number-of-cores-per-socket                            |
|     This setting can greatly improve the performance of VASP for DFT.       |
|     The default, NCORE=1 might be grossly inefficient on modern             |
|     multi-core architectures or massively parallel machines. Do your        |
|     Unfortunately you need to use the default for GW and RPA                |
|     calculations (for HF NCORE is supported but not extensively tested      |
|     yet).                                                                   |

 POTCAR:    PAW_PBE Ag 02Apr2005
   VRHFIN =Ag : s1 d10

   TITEL  = PAW_PBE Ag 02Apr2005
   POMASS =  107.868; ZVAL   =   11.000    mass and valenz
   ENMAX  =  249.844; ENMIN  =  187.383 eV

 POTCAR:    PAW_PBE Ir 06Sep2000
   VRHFIN =Ir: s1d8

   TITEL  = PAW_PBE Ir 06Sep2000
   POMASS =  192.220; ZVAL   =    9.000    mass and valenz
   ENMAX  =  210.864; ENMIN  =  158.148 eV

 POTCAR:    PAW_PBE C 08Apr2002
   VRHFIN =C: s2p2

[...]

 POTCAR:    PAW_PBE O 08Apr2002
   VRHFIN =O: s2p4

   TITEL  = PAW_PBE O 08Apr2002
   POMASS =   16.000; ZVAL   =    6.000    mass and valenz
   ENMAX  =  400.000; ENMIN  =  300.000 eV

 Optimization of the real space projectors (new method)

 maximal supplied QI-value         = 15.12
 optimisation between [QCUT,QGAM] = [ 11.34, 22.83] = [ 36.00,145.93] Ry
 Optimized for a Real-space Cutoff    1.43 Angstroem

   l    n(q)    QCUT    max X(q) W(low)/X(q) W(high)/X(q)  e(spline)
   2      9    11.338    53.897    0.16E-03    0.20E-03    0.28E-06
   2      9    11.338    52.416    0.16E-03    0.20E-03    0.29E-06
   0     10    11.338   122.045    0.31E-04    0.76E-04    0.15E-06
   0     10    11.338    73.629    0.30E-04    0.72E-04    0.15E-06
   1      9    11.338    15.255    0.20E-03    0.19E-04    0.17E-06
   1      9    11.338     9.562    0.16E-03    0.15E-04    0.14E-06
 Optimization of the real space projectors (new method)

[...]

   l    n(q)    QCUT    max X(q) W(low)/X(q) W(high)/X(q)  e(spline)
   0      7    11.310   115.676    0.43E-03    0.13E-02    0.19E-06
   0      7    11.310    87.132    0.43E-03    0.13E-02    0.18E-06
   1      6    11.310     4.429    0.42E-03    0.74E-03    0.11E-06
   1      6    11.310     2.733    0.34E-03    0.55E-03    0.92E-07
 Optimization of the real space projectors (new method)

 maximal supplied QI-value         = 24.76
 optimisation between [QCUT,QGAM] = [ 11.39, 22.77] = [ 36.31,145.25] Ry
 Optimized for a Real-space Cutoff    1.00 Angstroem

   l    n(q)    QCUT    max X(q) W(low)/X(q) W(high)/X(q)  e(spline)
   0      7    11.387    20.381    0.39E-03    0.13E-02    0.15E-06
   0      7    11.387    15.268    0.42E-03    0.14E-02    0.17E-06
   1      6    11.387     5.964    0.41E-03    0.11E-02    0.17E-06
   1      6    11.387     5.382    0.39E-03    0.87E-03    0.15E-06
  PAW_PBE Ag 02Apr2005                  :
  PAW_PBE Ir 06Sep2000                  :
  PAW_PBE C 08Apr2002                   :
  PAW_PBE O 08Apr2002                   :

 POSCAR: Ag-Ir-CO
  positions in direct lattice
  velocities in cartesian coordinates
 exchange correlation table for  LEXCH =        8
   RHO(1)=    0.500       N(1)  =     2000
   RHO(2)=  100.500       N(2)  =     4000

 VTST: version 3.2, (02/03/18)

 CHAIN: initializing optimizer

 OPT: Using VASP Conjugate-Gradient optimizer
 CHAIN: Read ICHAIN            0

 POSCAR: Ag-Ir-CO
  positions in direct lattice
  velocities in cartesian coordinates

 ion  position               nearest neighbor table
   1  0.000  0.000  0.238-   2 2.93   8 2.93   7 2.93   6 2.93   4 2.93  12 2.93  16 2.93  10 2.93
                             3 2.93
   2  0.333  0.000  0.238-   1 2.93   8 2.93   9 2.93   3 2.93   4 2.93   5 2.93  10 2.93  17 2.93
                            11 2.93
   3  0.667  0.000  0.238-   9 2.93   2 2.93   5 2.93  11 2.93   7 2.93  18 2.93   1 2.93   6 2.93
                            12 2.93
   4  0.000  0.333  0.238-   5 2.93   6 2.93   2 2.93   1 2.93   7 2.93  13 2.93  15 2.93   9 2.93
                            10 2.93
   5  0.333  0.333  0.238-   4 2.93   3 2.93   7 2.93   2 2.93   8 2.93  14 2.93  13 2.93  11 2.93
                             6 2.93
   6  0.667  0.333  0.238-   4 2.93   9 2.93   1 2.93  15 2.93   8 2.93  12 2.93   3 2.93   5 2.93
                            14 2.93
   7  0.000  0.667  0.238-   8 2.93   1 2.93   5 2.93   3 2.93   4 2.93  16 2.93  18 2.93  13 2.93
                             9 2.93
   8  0.333  0.667  0.238-   7 2.93   1 2.93   2 2.93   9 2.93   5 2.93  16 2.93   6 2.93  17 2.93
                            14 2.93
   9  0.667  0.667  0.238-   3 2.93   2 2.93   8 2.93   6 2.93  17 2.93   4 2.93  15 2.93   7 2.93
                            18 2.93
  10  0.111  0.111  0.346-  20 2.89  12 2.93  16 2.93  15 2.93  17 2.93  13 2.93  11 2.93   2 2.93
                             1 2.93   4 2.93  19 2.93  26 2.93
  11  0.444  0.111  0.346-  21 2.90  20 2.90  27 2.92  14 2.93  17 2.93  18 2.93   3 2.93  12 2.93
                            13 2.93  10 2.93   5 2.93   2 2.93
  12  0.778  0.111  0.346-  21 2.89  10 2.93  16 2.93  18 2.93  15 2.93  11 2.93   1 2.93  14 2.93
                             6 2.93   3 2.93  25 2.93  19 2.93
  13  0.111  0.444  0.346-  20 2.90  23 2.90  22 2.92  15 2.93  14 2.93  18 2.93  10 2.93  11 2.93
                            16 2.93   4 2.93   5 2.93   7 2.93
  14  0.444  0.444  0.346-  23 2.90  21 2.90  24 2.92  13 2.93  11 2.93  16 2.93   5 2.93  12 2.93
                            17 2.93   8 2.93  15 2.93   6 2.93
  15  0.778  0.444  0.346-  24 2.92  22 2.92  19 2.93  13 2.93  10 2.93  12 2.93  17 2.93  18 2.93
                             4 2.93   6 2.93   9 2.93  14 2.93
  16  0.111  0.778  0.346-  23 2.89  18 2.93  12 2.93  10 2.93  14 2.93  17 2.93  13 2.93   7 2.93
                             8 2.93   1 2.93  26 2.93  25 2.93
  17  0.444  0.778  0.346-  27 2.92  24 2.92  26 2.93  11 2.93  10 2.93   9 2.93  18 2.93  15 2.93
                            16 2.93   2 2.93  14 2.93   8 2.93
  18  0.778  0.778  0.346-  22 2.92  27 2.92  25 2.93  16 2.93  12 2.93  13 2.93  11 2.93  17 2.93
                            15 2.93   7 2.93   3 2.93   9 2.93
  19  0.888  0.223  0.454-  28 2.90  24 2.92  22 2.92  15 2.93  20 2.93  21 2.93  10 2.93  12 2.93
                            32 2.94  31 2.94  26 2.94  25 2.94
  20  0.222  0.222  0.452-  36 2.77  10 2.89  13 2.90  11 2.90  31 2.92  29 2.92  19 2.93  26 2.93
                            27 2.93  22 2.93  21 2.94  23 2.94
  21  0.556  0.222  0.452-  36 2.77  12 2.89  11 2.90  14 2.90  30 2.92  32 2.92  25 2.93  19 2.93
                            27 2.93  24 2.93  20 2.94  23 2.94
  22  0.888  0.556  0.453-  35 2.90  18 2.92  15 2.92  13 2.92  24 2.92  27 2.92  25 2.92  19 2.92
                            33 2.93  31 2.93  23 2.93  20 2.93
  23  0.222  0.556  0.452-  36 2.77  16 2.89  14 2.90  13 2.90  34 2.92  33 2.92  26 2.93  25 2.93
                            22 2.93  24 2.93  21 2.94  20 2.94
  24  0.556  0.556  0.453-  35 2.90  15 2.92  17 2.92  14 2.92  27 2.92  22 2.92  19 2.92  26 2.92
                            32 2.93  34 2.93  23 2.93  21 2.93
  25  0.888  0.888  0.454-  28 2.90  22 2.92  27 2.92  18 2.93  23 2.93  21 2.93  16 2.93  12 2.93
                            33 2.94  30 2.94  26 2.94  19 2.94
  26  0.223  0.888  0.454-  28 2.90  27 2.92  24 2.92  17 2.93  23 2.93  20 2.93  16 2.93  10 2.93
                            34 2.94  29 2.94  25 2.94  19 2.94
  27  0.556  0.888  0.453-  35 2.90  17 2.92  18 2.92  11 2.92  24 2.92  22 2.92  26 2.92  25 2.92
                            29 2.93  30 2.93  20 2.93  21 2.93
  28  0.000  0.000  0.560-  26 2.90  25 2.90  19 2.90  29 2.96  34 2.96  33 2.96  32 2.96  31 2.96
                            30 2.96
  29  0.333  0.007  0.561-  31 2.87  30 2.88  36 2.88  20 2.92  27 2.93  26 2.94  28 2.96  35 2.96
                            34 3.04
  30  0.660  0.007  0.561-  32 2.87  29 2.88  36 2.88  21 2.92  27 2.93  25 2.94  28 2.96  35 2.96
                            33 3.04
  31  0.007  0.333  0.561-  29 2.87  33 2.88  36 2.88  20 2.92  22 2.93  19 2.94  28 2.96  35 2.96
                            32 3.04
  32  0.660  0.333  0.561-  30 2.87  34 2.88  36 2.88  21 2.92  24 2.93  19 2.94  28 2.96  35 2.96
                            31 3.04
  33  0.007  0.660  0.561-  34 2.87  31 2.88  36 2.88  23 2.92  22 2.93  25 2.94  28 2.96  35 2.96
                            30 3.04
  34  0.333  0.660  0.561-  33 2.87  32 2.88  36 2.88  23 2.92  24 2.93  26 2.94  28 2.96  35 2.96
                            29 3.04
  35  0.667  0.667  0.560-  24 2.90  27 2.90  22 2.90  30 2.96  32 2.96  29 2.96  34 2.96  31 2.96
                            33 2.96
  36  0.333  0.333  0.551-  37 1.84  21 2.77  20 2.77  23 2.77  31 2.88  30 2.88  33 2.88  29 2.88
                            34 2.88  32 2.88
  37  0.333  0.333  0.634-  38 1.17  36 1.84
  38  0.333  0.333  0.687-  37 1.17

  LATTYP: Found a hexagonal cell.
 ALAT       =     8.7913665772
 C/A-ratio  =     2.5227160501

  Lattice vectors:

 A1 = (  -4.3956832886,  -7.6135467898,   0.0000000000)
 A2 = (   8.7913665771,   0.0000000000,   0.0000000000)
 A3 = (   0.0000000000,   0.0000000000,  22.1781215668)

Analysis of symmetry for initial positions (statically):
 Subroutine PRICEL returns:
 Original cell was already a primitive cell.

 Routine SETGRP: Setting up the symmetry group for a
 hexagonal supercell.

 Subroutine GETGRP returns: Found  6 space group operations
 (whereof  6 operations were pure point group operations)
 out of a pool of 24 trial point group operations.

The static configuration has the point symmetry C_3v.

Analysis of symmetry for dynamics (positions and initial velocities):
 Subroutine PRICEL returns:
 Original cell was already a primitive cell.

[...]

The dynamic configuration has the point symmetry C_3v.

Analysis of constrained symmetry for selective dynamics:
 Subroutine PRICEL returns:
 Original cell was already a primitive cell.

 Routine SETGRP: Setting up the symmetry group for a
 hexagonal supercell.

[...]
     33      -4.5162      2.00000
     34      -4.4993      2.00000
     35      -4.4835      2.00000
     36      -4.4760      2.00000
     37      -4.4458      2.00000
     38      -4.4341      2.00000
     39      -4.3782      2.00000
     40      -4.3631      2.00000
     41      -4.3455      2.00000
     42      -4.3198      2.00000
     43      -4.2892      2.00000
     44      -4.2843      2.00000
     45      -4.2687      2.00000
     46      -4.2592      2.00000
     47      -4.2482      2.00000
     48      -4.1683      2.00000
     49      -4.1419      2.00000
     50      -4.1294      2.00000
     51      -4.1203      2.00000
     52      -4.1170      2.00000
     53      -4.1145      2.00000
     54      -4.0987      2.00000
     55      -4.0954      2.00000
     56      -4.0894      2.00000
     57      -4.0755      2.00000
     58      -4.0012      2.00000
     59      -3.9937      2.00000
     60      -3.9901      2.00000
[...]
    238       6.0220      0.00000
    239       6.2001      0.00000
    240       6.2558      0.00000
    241       6.3445      0.00000
    242       6.3618      0.00000
    243       6.4316      0.00000
    244       7.2636      0.00000
    245       7.3049      0.00000
    246       7.3438      0.00000
    247       7.3814      0.00000
    248       7.3912      0.00000
    249       7.4209      0.00000
    250       7.4426      0.00000
    251       7.6179      0.00000
    252       7.6988      0.00000

 soft charge-density along one line, spin component           1
         0         1         2         3         4         5         6         7         8         9
 total charge-density along one line

------------------------ aborting loop because EDIFF is reached ----------------------------------------

 total charge

# of ion       s       p       d       tot
    1        0.416   0.202   9.179   9.797
    2        0.419   0.203   9.177   9.799
    3        0.419   0.203   9.177   9.799
    4        0.419   0.203   9.177   9.799
    5        0.419   0.204   9.175   9.798
    6        0.419   0.203   9.177   9.799
    7        0.419   0.203   9.177   9.799
    8        0.419   0.203   9.177   9.799
    9        0.413   0.203   9.179   9.795
   10        0.407   0.269   9.164   9.839
   11        0.409   0.268   9.168   9.845
   12        0.407   0.269   9.164   9.839
   13        0.409   0.268   9.168   9.845
   14        0.409   0.268   9.168   9.845
   15        0.400   0.271   9.165   9.836
   16        0.407   0.269   9.164   9.839
   17        0.400   0.271   9.165   9.836
   18        0.400   0.271   9.165   9.836
   19        0.403   0.267   9.166   9.836
   20        0.427   0.296   9.151   9.873
   21        0.427   0.296   9.151   9.873
   22        0.396   0.275   9.167   9.837
   23        0.427   0.296   9.151   9.873
   24        0.396   0.275   9.167   9.837
   25        0.403   0.267   9.166   9.836
   26        0.403   0.267   9.166   9.836
   27        0.396   0.275   9.167   9.837
   28        0.416   0.194   9.184   9.794
   29        0.406   0.215   9.179   9.800
   30        0.406   0.215   9.179   9.800
   31        0.406   0.215   9.179   9.800
   32        0.406   0.215   9.179   9.800
   33        0.406   0.215   9.179   9.800
   34        0.406   0.215   9.179   9.800
   35        0.412   0.196   9.184   9.792
   36        0.644   0.566   7.177   8.387
   37        0.947   1.573   0.000   2.520
   38        1.610   3.531   0.000   5.141
tot         17.554  14.112 328.157 359.822

  FORCE on cell =-STRESS in cart. coord.  units (eV):
  Direction    XX          YY          ZZ          XY          YZ          ZX
  Alpha Z   782.92244   782.92244   782.92244
  Ewald  119675.50562119675.50570************     0.00004     0.00000     0.00005
  Hartree130137.03903130137.03906************     0.00002     0.00000     0.00002
  E(xc)   -2115.62224 -2115.62233 -2119.55954     0.00007    -0.00000    -0.00001
  Local  ************************260785.50239     0.00051    -0.00006    -0.00019
  n-local  -362.53666  -343.33911  -362.64146    11.54149    -0.44134     0.52642
  augment  3267.41019  3267.41037  3270.17517    -0.00016    -0.00001     0.00002
  Kinetic  5086.63283  5091.14634  5067.82196     5.30647     0.96522    -0.33898
  Fock        0.00000     0.00000     0.00000     0.00000     0.00000     0.00000
  Total      -7.18044    -7.18044     0.01988    -0.00000    -0.00000     0.00000
  in kB      -7.74985    -7.74985     0.02145    -0.00000    -0.00000     0.00000

 VOLUME and BASIS-vectors are now :
  energy-cutoff  :      500.00
  volume of cell :     1484.46
      direct lattice vectors                 reciprocal lattice vectors
     8.791366577  0.000000000  0.000000000     0.113747958 -0.065672414  0.000000000
     4.395683289  7.613546790  0.000000000     0.000000000  0.131344829  0.000000000
     0.000000000  0.000000000 22.178121567     0.000000000  0.000000000  0.045089481

  length of vectors
     8.791366577  8.791366577 22.178121567     0.131344829  0.131344829  0.045089481

 FORCES acting on ions
    electron-ion (+dipol)            ewald-force                    non-local-force                 convergence-correction
   0.459E-04 -.283E-04 0.252E+04   -.954E-04 0.593E-04 -.252E+04   0.145E-17 0.452E-17 -.245E+01   -.127E-03 -.180E-03 -.201E+00
   0.536E+00 0.562E+00 0.252E+04   -.598E+00 -.602E+00 -.252E+04   0.523E-01 0.742E-01 -.166E+01   0.200E-01 -.115E-01 -.186E+00
   -.536E+00 0.562E+00 0.252E+04   0.598E+00 -.602E+00 -.252E+04   -.523E-01 0.742E-01 -.166E+01   -.205E-01 -.948E-02 -.185E+00
   0.754E+00 0.183E+00 0.252E+04   -.821E+00 -.217E+00 -.252E+04   0.905E-01 0.819E-02 -.166E+01   0.275E-03 0.232E-01 -.186E+00
   -.612E-05 -.190E-04 0.252E+04   0.981E-04 -.197E-05 -.252E+04   0.130E-17 -.955E-18 -.139E+01   0.630E-02 0.385E-02 -.134E+00
   -.754E+00 0.183E+00 0.252E+04   0.821E+00 -.217E+00 -.252E+04   -.905E-01 0.819E-02 -.166E+01   -.173E-02 0.242E-01 -.185E+00
   0.218E+00 -.745E+00 0.252E+04   -.223E+00 0.819E+00 -.252E+04   0.381E-01 -.824E-01 -.166E+01   -.180E-01 -.125E-01 -.185E+00
   -.218E+00 -.745E+00 0.252E+04   0.223E+00 0.819E+00 -.252E+04   -.381E-01 -.824E-01 -.166E+01   0.197E-01 -.135E-01 -.185E+00
   0.367E-04 -.126E-04 0.252E+04   0.792E-04 -.643E-04 -.252E+04   -.663E-18 0.171E-18 -.214E+01   -.670E-02 -.346E-02 -.204E+00
   0.715E+01 0.413E+01 0.880E+03   -.673E+01 -.389E+01 -.879E+03   -.445E+00 -.257E+00 -.867E+00   0.292E-01 0.169E-01 0.202E-02
   -.288E-04 0.566E+01 0.887E+03   0.411E-04 -.579E+01 -.887E+03   0.731E-12 0.111E+00 -.378E+00   0.644E-02 -.209E-01 0.220E-01
   -.715E+01 0.413E+01 0.880E+03   0.673E+01 -.389E+01 -.879E+03   0.445E+00 -.257E+00 -.867E+00   -.309E-01 0.184E-01 0.257E-02
   0.490E+01 -.283E+01 0.887E+03   -.502E+01 0.290E+01 -.887E+03   0.964E-01 -.557E-01 -.378E+00   -.150E-01 0.160E-01 0.219E-01
   -.490E+01 -.283E+01 0.887E+03   0.502E+01 0.290E+01 -.887E+03   -.964E-01 -.557E-01 -.378E+00   0.261E-01 0.153E-01 0.221E-01
   0.162E-04 0.142E+01 0.880E+03   -.109E-03 -.152E+01 -.879E+03   0.690E-13 0.105E-01 -.786E+00   -.196E-02 0.588E-01 -.150E-01
   -.787E-05 -.825E+01 0.880E+03   0.205E-04 0.778E+01 -.879E+03   0.337E-11 0.513E+00 -.867E+00   0.386E-03 -.360E-01 0.258E-02
   0.123E+01 -.711E+00 0.880E+03   -.131E+01 0.759E+00 -.879E+03   0.910E-02 -.525E-02 -.786E+00   0.499E-01 -.311E-01 -.150E-01
   -.123E+01 -.711E+00 0.880E+03   0.131E+01 0.759E+00 -.879E+03   -.910E-02 -.525E-02 -.786E+00   -.499E-01 -.289E-01 -.146E-01
   0.399E-04 0.432E+01 -.798E+03   -.130E-03 -.425E+01 0.797E+03   -.451E-12 -.687E-01 0.635E+00   -.641E-02 -.391E-02 0.539E-01
   0.171E+02 0.986E+01 -.749E+03   -.159E+02 -.917E+01 0.750E+03   -.126E+01 -.727E+00 -.117E+01   0.405E-01 0.234E-01 0.981E-01
   -.171E+02 0.986E+01 -.749E+03   0.159E+02 -.917E+01 0.750E+03   0.126E+01 -.727E+00 -.117E+01   -.389E-01 0.246E-01 0.979E-01
   0.624E+01 -.361E+01 -.784E+03   -.652E+01 0.377E+01 0.783E+03   0.289E+00 -.167E+00 0.610E+00   0.141E-01 -.132E-01 0.155E-01
   -.556E-04 -.197E+02 -.749E+03   0.442E-04 0.183E+02 0.750E+03   0.955E-11 0.145E+01 -.117E+01   0.219E-02 -.454E-01 0.979E-01
   -.624E+01 -.361E+01 -.784E+03   0.652E+01 0.377E+01 0.783E+03   -.289E+00 -.167E+00 0.610E+00   -.247E-01 -.142E-01 0.157E-01
   -.374E+01 -.216E+01 -.798E+03   0.368E+01 0.212E+01 0.797E+03   0.595E-01 0.344E-01 0.635E+00   -.243E-02 -.155E-02 0.536E-01
   0.374E+01 -.216E+01 -.798E+03   -.368E+01 0.212E+01 0.797E+03   -.595E-01 0.344E-01 0.635E+00   -.689E-02 -.372E-02 0.539E-01
   0.200E-04 0.721E+01 -.784E+03   0.110E-03 -.753E+01 0.783E+03   0.219E-11 0.334E+00 0.610E+00   -.504E-02 0.187E-01 0.156E-01
   0.547E-04 -.366E-04 -.245E+04   -.116E-03 0.785E-04 0.244E+04   -.269E-17 0.316E-17 0.211E+01   -.768E-04 -.182E-03 0.222E+00
   0.325E+02 0.575E+02 -.243E+04   -.321E+02 -.571E+02 0.242E+04   -.481E+00 -.662E+00 0.214E+01   0.305E-01 0.878E-01 0.164E+00
   -.325E+02 0.575E+02 -.243E+04   0.321E+02 -.571E+02 0.242E+04   0.481E+00 -.662E+00 0.214E+01   -.308E-01 0.897E-01 0.164E+00
   0.661E+02 -.648E+00 -.243E+04   -.655E+02 0.770E+00 0.242E+04   -.814E+00 -.854E-01 0.214E+01   0.915E-01 -.173E-01 0.164E+00
   -.661E+02 -.648E+00 -.243E+04   0.655E+02 0.770E+00 0.242E+04   0.814E+00 -.854E-01 0.214E+01   -.929E-01 -.165E-01 0.163E+00
   0.336E+02 -.569E+02 -.243E+04   -.334E+02 0.564E+02 0.242E+04   -.333E+00 0.747E+00 0.214E+01   0.628E-01 -.710E-01 0.164E+00
   -.336E+02 -.569E+02 -.243E+04   0.334E+02 0.564E+02 0.242E+04   0.333E+00 0.747E+00 0.214E+01   -.611E-01 -.721E-01 0.163E+00
   0.206E-04 -.112E-04 -.244E+04   0.107E-03 -.665E-04 0.244E+04   0.128E-17 0.160E-18 0.219E+01   -.673E-02 -.346E-02 0.215E+00
   -.181E-04 -.246E-04 -.173E+04   0.867E-04 0.108E-04 0.173E+04   -.780E-18 -.329E-17 -.144E+01   0.266E-02 0.161E-02 0.135E+00
   0.199E-05 -.809E-04 -.877E+03   0.177E-04 0.228E-06 0.863E+03   -.609E-19 -.419E-19 0.134E+02   0.127E-02 0.774E-03 0.222E-01
   0.236E-03 -.931E-04 -.153E+04   0.931E-05 0.107E-07 0.159E+04   -.366E-19 -.118E-18 -.585E+02   0.375E-02 0.230E-02 -.270E-01
   0.612E-03 -.865E-03 0.509E+02   0.485E-13 0.182E-12 -.318E-11   0.167E-15 0.330E-15 -.512E+02   -.133E-01 -.428E-02 0.429E+00

 POSITION                                       TOTAL-FORCE (eV/Angst)
      0.00000      0.00000      5.28219        -0.000000     -0.000000      0.024011
      2.93046      0.00000      5.28219         0.010929      0.023136      0.051389
      5.86091      0.00000      5.28219        -0.010929      0.023136      0.051389
      1.46523      2.53785      5.28219         0.025501     -0.002104      0.051389
      4.39568      2.53785      5.28219        -0.000000     -0.000000      0.029123
      7.32614      2.53785      5.28219        -0.025501     -0.002104      0.051389
      2.93046      5.07570      5.28219         0.014572     -0.021032      0.051389
      5.86091      5.07570      5.28219        -0.014572     -0.021032      0.051389
      8.79137      5.07570      5.28219        -0.000000     -0.000000      0.047012
      1.46523      0.84595      7.67490        -0.001888     -0.001090     -0.011933
      4.39568      0.84595      7.67490        -0.000000     -0.046403     -0.098120
      7.32614      0.84595      7.67490         0.001888     -0.001090     -0.011933
      2.93046      3.38380      7.67490        -0.040187      0.023202     -0.098120
      5.86091      3.38380      7.67490         0.040187      0.023202     -0.098120
      8.79137      3.38380      7.67490        -0.000000     -0.026745     -0.007191
      4.39568      5.92165      7.67490         0.000000      0.002181     -0.011933
      7.32614      5.92165      7.67490        -0.023161      0.013372     -0.007191
     10.25659      5.92165      7.67490         0.023161      0.013372     -0.007191
      8.79137      1.70006     10.06849         0.000000      0.002058      0.002637
      2.92657      1.68966     10.02287        -0.038405     -0.022173     -0.216598
      5.86479      1.68966     10.02287         0.038405     -0.022173     -0.216598
     10.25237      4.23218     10.05185         0.031092     -0.017951     -0.003905
      4.39568      4.23423     10.02287         0.000000      0.044346     -0.216598
      7.33036      4.23218     10.05185        -0.031092     -0.017951     -0.003905
     11.71475      6.76352     10.06849        -0.001783     -0.001029      0.002637
      5.86798      6.76352     10.06849         0.001783     -0.001029      0.002637
      8.79137      6.76272     10.05185         0.000000      0.035902     -0.003905
      0.00000      0.00000     12.42216        -0.000000      0.000000     -0.006165
      2.95716      0.04978     12.43839        -0.078471     -0.172797     -0.074546
      5.83420      0.04978     12.43839         0.078471     -0.172797     -0.074546
      1.52169      2.53609     12.43839        -0.188882      0.018441     -0.074546
      7.26967      2.53609     12.43839         0.188882      0.018441     -0.074546
      2.96021      5.02768     12.43839        -0.110411      0.154356     -0.074546
      5.83115      5.02768     12.43839         0.110411      0.154356     -0.074546
      8.79137      5.07570     12.41166         0.000000      0.000000     -0.002440
      4.39568      2.53785     12.21369        -0.000000     -0.000000      1.065413
      4.39568      2.53785     14.05789         0.000000      0.000000     -0.004506
      4.39568      2.53785     15.23251         0.000000     -0.000000     -0.008175
    total drift:                               -0.012686     -0.005149      0.121547

  FREE ENERGIE OF THE ION-ELECTRON SYSTEM (eV)
  free  energy   TOTEN  =      -113.46004792 eV

  energy  without entropy=     -113.46004792  energy(sigma->0) =     -113.46004792

 stress matrix after NEB project (eV)
     -7.18044     -0.00000      0.00000
     -0.00000     -7.18044     -0.00000
      0.00000     -0.00000      0.01988
  FORCES: max atom, RMS     0.008175    0.001514
  FORCE total and by dimension    0.009334    0.008175
  Stress total and by dimension   10.154691    7.180437
|           W    W    AA    RRRRR   N    N  II  N    N   GGGG   !!!           |
|           W    W   A  A   R    R  NN   N  II  NN   N  G    G  !!!           |
|           W    W  A    A  R    R  N N  N  II  N N  N  G       !!!           |
|           W WW W  AAAAAA  RRRRR   N  N N  II  N  N N  G  GGG   !            |
|           WW  WW  A    A  R   R   N   NN  II  N   NN  G    G                |
|           W    W  A    A  R    R  N    N  II  N    N   GGGG   !!!           |
|     Tetrahedron method does not include variations of the Fermi             |
|     occupations, so forces and stress will be inaccurate. We suggest        |
|     using a different smearing scheme ISMEAR = 1 or 2 for metals in         |
|     relaxations.                                                            |

 total charge

# of ion       s       p       d       tot
    1        0.416   0.202   9.179   9.797
    2        0.419   0.203   9.177   9.799
    3        0.419   0.203   9.177   9.799
    4        0.419   0.203   9.177   9.799
    5        0.419   0.204   9.175   9.798
    6        0.419   0.203   9.177   9.799
    7        0.419   0.203   9.177   9.799
    8        0.419   0.203   9.177   9.799
    9        0.413   0.203   9.179   9.795
   10        0.407   0.269   9.164   9.839
   11        0.409   0.268   9.168   9.845
   12        0.407   0.269   9.164   9.839
   13        0.409   0.268   9.168   9.845
   14        0.409   0.268   9.168   9.845
   15        0.400   0.271   9.165   9.836
   16        0.407   0.269   9.164   9.839
   17        0.400   0.271   9.165   9.836
   18        0.400   0.271   9.165   9.836
   19        0.403   0.267   9.166   9.836
   20        0.427   0.296   9.151   9.873
   21        0.427   0.296   9.151   9.873
   22        0.396   0.275   9.167   9.837
   23        0.427   0.296   9.151   9.873
   24        0.396   0.275   9.167   9.837
   25        0.403   0.267   9.166   9.836
   26        0.403   0.267   9.166   9.836
   27        0.396   0.275   9.167   9.837
   28        0.416   0.194   9.184   9.794
   29        0.406   0.215   9.179   9.800
   30        0.406   0.215   9.179   9.800
   31        0.406   0.215   9.179   9.800
   32        0.406   0.215   9.179   9.800
   33        0.406   0.215   9.179   9.800
   34        0.406   0.215   9.179   9.800
   35        0.412   0.196   9.184   9.792
   36        0.644   0.566   7.177   8.387
   37        0.947   1.573   0.000   2.520
   38        1.610   3.531   0.000   5.141
tot         17.554  14.112 328.157 359.822

 BZINTS: Fermi energy:    0.853409;  404.000000 electrons
         Band energy:-0.134833E+04;  BLOECHL correction:   -0.062278