 vasp.6.2.0 18Jan21 (build Jun 12 2021 23:27:24) complex

 executed on             LinuxIFC date 2022.05.28  00:37:34

 INCAR:
   ISMEAR = -5
   SIGMA = 0.1
   ISPIN = 1
   EDIFF = 1.d-5
   EDIFFG = -0.01
   NSW = 0
   NELM = 150
   ENCUT = 500
   ISIF = 2
   IBRION = 2
   LREAL = Auto
   ALGO = Fast
   ICHARG = 11
   LORBIT = 10
   LCHARG = .F.
   LWAVE = .F.

 POTCAR:    PAW_PBE Au 04Oct2007
 POTCAR:    PAW_PBE V 08Apr2002
 POTCAR:    PAW_PBE O 08Apr2002
 POTCAR:    PAW_PBE H 15Jun2001
|           W    W    AA    RRRRR   N    N  II  N    N   GGGG   !!!           |
|           W    W   A  A   R    R  NN   N  II  NN   N  G    G  !!!           |
|           W    W  A    A  R    R  N N  N  II  N N  N  G       !!!           |
|           W WW W  AAAAAA  RRRRR   N  N N  II  N  N N  G  GGG   !            |
|           WW  WW  A    A  R   R   N   NN  II  N   NN  G    G                |
|           W    W  A    A  R    R  N    N  II  N    N   GGGG   !!!           |
|     For optimal performance we recommend to set                             |
|       NCORE = 2 up to number-of-cores-per-socket                            |
|     This setting can greatly improve the performance of VASP for DFT.       |
|     The default, NCORE=1 might be grossly inefficient on modern             |
|     multi-core architectures or massively parallel machines. Do your        |
|     Unfortunately you need to use the default for GW and RPA                |
|     calculations (for HF NCORE is supported but not extensively tested      |
|     yet).                                                                   |

 POTCAR:    PAW_PBE Au 04Oct2007
   VRHFIN =Au: s1d10

   TITEL  = PAW_PBE Au 04Oct2007
   POMASS =  196.966; ZVAL   =   11.000    mass and valenz
   ENMAX  =  229.943; ENMIN  =  172.457 eV

 POTCAR:    PAW_PBE V 08Apr2002
   VRHFIN =V: p6 d4 s1

   TITEL  = PAW_PBE V 08Apr2002
   POMASS =   50.941; ZVAL   =    5.000    mass and valenz
   ENMAX  =  192.543; ENMIN  =  144.408 eV

 POTCAR:    PAW_PBE O 08Apr2002
   VRHFIN =O: s2p4

   TITEL  = PAW_PBE O 08Apr2002
   POMASS =   16.000; ZVAL   =    6.000    mass and valenz
   ENMAX  =  400.000; ENMIN  =  300.000 eV

 POTCAR:    PAW_PBE H 15Jun2001
   VRHFIN =H: ultrasoft test

   TITEL  = PAW_PBE H 15Jun2001
   POMASS =    1.000; ZVAL   =    1.000    mass and valenz
   ENMAX  =  250.000; ENMIN  =  200.000 eV

 Optimization of the real space projectors (new method)

 maximal supplied QI-value         = 15.12
 optimisation between [QCUT,QGAM] = [ 11.34, 22.83] = [ 36.00,145.93] Ry
 Optimized for a Real-space Cutoff    1.39 Angstroem

   l    n(q)    QCUT    max X(q) W(low)/X(q) W(high)/X(q)  e(spline)
   2      9    11.338    60.898    0.39E-03    0.42E-03    0.21E-06
   2      9    11.338    58.894    0.40E-03    0.42E-03    0.22E-06
   0      9    11.338   109.617    0.13E-03    0.20E-04    0.13E-06
   0      9    11.338    75.026    0.13E-03    0.20E-04    0.13E-06
   1      9    11.338    16.344    0.33E-04    0.24E-03    0.18E-06
   1      9    11.338    10.160    0.26E-04    0.19E-03    0.15E-06
 Optimization of the real space projectors (new method)

[...]

   l    n(q)    QCUT    max X(q) W(low)/X(q) W(high)/X(q)  e(spline)
   0      7    11.387    20.381    0.39E-03    0.13E-02    0.15E-06
   0      7    11.387    15.268    0.42E-03    0.14E-02    0.17E-06
   1      6    11.387     5.964    0.41E-03    0.11E-02    0.17E-06
   1      6    11.387     5.382    0.39E-03    0.87E-03    0.15E-06
 Optimization of the real space projectors (new method)

 maximal supplied QI-value         = 34.20
 optimisation between [QCUT,QGAM] = [ 11.29, 22.57] = [ 35.68,142.71] Ry
 Optimized for a Real-space Cutoff    1.16 Angstroem

   l    n(q)    QCUT    max X(q) W(low)/X(q) W(high)/X(q)  e(spline)
   0      8    11.287    19.460    0.40E-03    0.73E-03    0.16E-06
   0      8    11.287    12.209    0.38E-03    0.70E-03    0.15E-06
   1      7    11.287     4.655    0.22E-03    0.25E-04    0.22E-06
  PAW_PBE Au 04Oct2007                  :
  PAW_PBE V 08Apr2002                   :
  PAW_PBE O 08Apr2002                   :
  PAW_PBE H 15Jun2001                   :

 POSCAR: Au-V-OOH
  positions in direct lattice
  velocities in cartesian coordinates
 exchange correlation table for  LEXCH =        8
   RHO(1)=    0.500       N(1)  =     2000
   RHO(2)=  100.500       N(2)  =     4000

 VTST: version 3.2, (02/03/18)

 CHAIN: initializing optimizer

 OPT: Using VASP Conjugate-Gradient optimizer
 CHAIN: Read ICHAIN            0

 POSCAR: Au-V-OOH
  positions in direct lattice
  velocities in cartesian coordinates

 ion  position               nearest neighbor table
   1  0.000  0.000  0.204-  16 2.94  12 2.94   6 2.94   8 2.94   7 2.94   3 2.94  10 2.94   4 2.94
                             2 2.94
   2  0.333  0.000  0.204-   9 2.94  11 2.94  17 2.94  10 2.94   8 2.94   4 2.94   5 2.94   1 2.94
                             3 2.94
   3  0.667  0.000  0.204-   7 2.94  18 2.94  12 2.94   1 2.94  11 2.94   5 2.94   6 2.94   9 2.94
                             2 2.94
   4  0.000  0.333  0.204-  10 2.94   6 2.94   5 2.94  13 2.94   2 2.94  15 2.94   9 2.94   1 2.94
                             7 2.94
   5  0.333  0.333  0.204-  13 2.94   7 2.94  11 2.94   4 2.94   2 2.94  14 2.94   3 2.94   8 2.94
                             6 2.94
   6  0.667  0.333  0.204-  15 2.94  14 2.94   1 2.94  12 2.94   4 2.94   9 2.94   8 2.94   3 2.94
                             5 2.94
   7  0.000  0.667  0.204-  18 2.94   3 2.94  16 2.94   5 2.94   1 2.94  13 2.94   8 2.94   4 2.94
                             9 2.94
   8  0.333  0.667  0.204-   9 2.94  17 2.94   1 2.94   2 2.94  14 2.94  16 2.94   6 2.94   7 2.94
                             5 2.94
   9  0.667  0.667  0.204-   2 2.94   8 2.94  17 2.94   6 2.94  15 2.94   4 2.94   3 2.94  18 2.94
                             7 2.94
  10  0.111  0.111  0.296-  20 2.93  26 2.94  19 2.94  11 2.94  17 2.94   2 2.94   4 2.94   1 2.94
                            12 2.94  16 2.94  13 2.94  15 2.94
  11  0.444  0.111  0.296-  20 2.92  21 2.92  27 2.94  13 2.94   2 2.94  10 2.94  17 2.94   5 2.94
                             3 2.94  18 2.94  14 2.94  12 2.94
  12  0.778  0.111  0.296-  21 2.93  25 2.94  19 2.94  16 2.94  18 2.94   1 2.94  14 2.94  15 2.94
                             3 2.94   6 2.94  10 2.94  11 2.94
  13  0.111  0.444  0.296-  23 2.92  20 2.92  22 2.94   5 2.94  18 2.94  11 2.94   7 2.94   4 2.94
                            16 2.94  10 2.94  14 2.94  15 2.94
  14  0.444  0.444  0.296-  21 2.92  23 2.92  24 2.94  15 2.94   6 2.94  12 2.94   8 2.94  17 2.94
                             5 2.94  16 2.94  13 2.94  11 2.94
  15  0.778  0.444  0.296-  24 2.92  22 2.92  19 2.93  14 2.94   6 2.94  17 2.94  12 2.94   9 2.94
                             4 2.94  10 2.94  13 2.94  18 2.94
  16  0.111  0.778  0.296-  23 2.93  25 2.94  26 2.94  18 2.94  12 2.94   7 2.94   1 2.94   8 2.94
                            13 2.94  10 2.94  14 2.94  17 2.94
  17  0.444  0.778  0.296-  27 2.92  24 2.92  26 2.93   9 2.94  15 2.94   2 2.94  10 2.94  11 2.94
                             8 2.94  14 2.94  16 2.94  18 2.94
  18  0.778  0.778  0.296-  22 2.92  27 2.92  25 2.93  16 2.94   7 2.94  13 2.94  12 2.94   3 2.94
                            11 2.94   9 2.94  15 2.94  17 2.94
  19  0.889  0.222  0.389-  15 2.93  10 2.94  12 2.94  24 2.94  22 2.94  28 2.94  26 2.94  25 2.94
                            21 2.95  20 2.95  32 3.03  31 3.03
  20  0.223  0.223  0.388-  36 2.72  23 2.92  21 2.92  11 2.92  13 2.92  10 2.93  29 2.95  31 2.95
                            26 2.95  19 2.95  27 2.95  22 2.95
  21  0.554  0.223  0.388-  36 2.72  20 2.92  23 2.92  14 2.92  11 2.92  12 2.93  30 2.95  32 2.95
                            25 2.95  19 2.95  27 2.95  24 2.95
  22  0.887  0.557  0.388-  24 2.91  27 2.91  18 2.92  15 2.92  25 2.94  19 2.94  13 2.94  23 2.95
                            20 2.95  35 2.96  33 2.99  31 2.99
  23  0.223  0.554  0.388-  36 2.72  20 2.92  21 2.92  13 2.92  14 2.92  16 2.93  33 2.95  34 2.95
                            25 2.95  26 2.95  22 2.95  24 2.95
  24  0.557  0.557  0.388-  27 2.91  22 2.91  15 2.92  17 2.92  26 2.94  19 2.94  14 2.94  21 2.95
                            23 2.95  35 2.96  32 2.99  34 2.99
  25  0.889  0.889  0.389-  18 2.93  16 2.94  12 2.94  22 2.94  27 2.94  28 2.94  19 2.94  26 2.94
                            23 2.95  21 2.95  33 3.03  30 3.03
  26  0.222  0.889  0.389-  17 2.93  10 2.94  16 2.94  27 2.94  24 2.94  28 2.94  19 2.94  25 2.94
                            20 2.95  23 2.95  29 3.03  34 3.03
  27  0.557  0.887  0.388-  24 2.91  22 2.91  17 2.92  18 2.92  26 2.94  25 2.94  11 2.94  20 2.95
                            21 2.95  35 2.96  29 2.99  30 2.99
  28  0.000  0.000  0.481-  25 2.94  19 2.94  26 2.94  34 2.99  32 2.99  33 2.99  30 2.99  31 2.99
                            29 2.99
  29  0.334  0.011  0.483-  30 2.83  31 2.85  36 2.86  20 2.95  35 2.98  27 2.99  28 2.99  26 3.03
                            34 3.13
  30  0.655  0.011  0.483-  29 2.83  32 2.85  36 2.86  21 2.95  35 2.98  27 2.99  28 2.99  25 3.03
                            33 3.13
  31  0.011  0.334  0.483-  38 2.08  33 2.83  29 2.85  36 2.86  20 2.95  35 2.98  22 2.99  28 2.99
                            19 3.03  32 3.13
  32  0.655  0.334  0.483-  34 2.83  30 2.85  36 2.86  21 2.95  35 2.98  24 2.99  28 2.99  19 3.03
                            31 3.13
  33  0.011  0.655  0.483-  31 2.83  34 2.85  36 2.86  23 2.95  35 2.98  22 2.99  28 2.99  25 3.03
                            30 3.13
  34  0.334  0.655  0.483-  32 2.83  33 2.85  36 2.86  23 2.95  35 2.98  24 2.99  28 2.99  26 3.03
                            29 3.13
  35  0.667  0.667  0.482-  24 2.96  27 2.96  22 2.96  29 2.98  34 2.98  32 2.98  31 2.98  30 2.98
                            33 2.98
  36  0.333  0.333  0.471-  37 1.63  20 2.72  23 2.72  21 2.72  33 2.86  31 2.86  29 2.86  30 2.86
                            34 2.86  32 2.86
  37  0.336  0.333  0.534-  36 1.63
  38  0.039  0.273  0.561-  39 0.98  31 2.08
  39  0.129  0.299  0.573-  38 0.98

  LATTYP: Found a hexagonal cell.
 ALAT       =     8.8135128021
 C/A-ratio  =     2.9412617888

  Lattice vectors:

 A1 = (  -4.4067569092,  -7.6327256898,   0.0000000000)
 A2 = (   8.8135128021,   0.0000000000,   0.0000000000)
 A3 = (   0.0000000000,   0.0000000000,  25.9228484302)

Analysis of symmetry for initial positions (statically):
 Subroutine PRICEL returns:
 Original cell was already a primitive cell.

 Routine SETGRP: Setting up the symmetry group for a
 hexagonal supercell.

 Subroutine GETGRP returns: Found  1 space group operations
 (whereof  1 operations were pure point group operations)
 out of a pool of 24 trial point group operations.

The static configuration has the point symmetry C_1 .

Analysis of symmetry for dynamics (positions and initial velocities):
 Subroutine PRICEL returns:
 Original cell was already a primitive cell.

[...]

The dynamic configuration has the point symmetry C_1 .

Analysis of constrained symmetry for selective dynamics:
 Subroutine PRICEL returns:
[...]
     41      -5.4838      2.00000
     42      -5.4422      2.00000
     43      -5.3859      2.00000
     44      -5.3568      2.00000
     45      -5.3406      2.00000
     46      -5.2940      2.00000
     47      -5.2687      2.00000
     48      -5.2279      2.00000
     49      -5.1728      2.00000
     50      -5.1436      2.00000
     51      -5.1103      2.00000
     52      -5.1024      2.00000
     53      -5.0745      2.00000
     54      -5.0693      2.00000
     55      -5.0513      2.00000
     56      -5.0368      2.00000
     57      -5.0113      2.00000
     58      -4.9713      2.00000
     59      -4.9506      2.00000
     60      -4.9319      2.00000
[...]
    238       5.1901      0.00000
    239       5.2797      0.00000
    240       5.4752      0.00000
    241       5.5353      0.00000
    242       5.5807      0.00000
    243       5.6520      0.00000
    244       5.7182      0.00000
    245       5.8016      0.00000
    246       5.8186      0.00000
    247       5.8970      0.00000
    248       5.9868      0.00000
    249       6.0583      0.00000
    250       6.2593      0.00000
    251       6.3093      0.00000
    252       6.4303      0.00000

 soft charge-density along one line, spin component           1
         0         1         2         3         4         5         6         7         8         9
 total charge-density along one line

------------------------ aborting loop because EDIFF is reached ----------------------------------------

 total charge

# of ion       s       p       d       tot
    1        0.548   0.239   8.765   9.552
    2        0.546   0.241   8.763   9.550
    3        0.540   0.242   8.763   9.545
    4        0.540   0.242   8.766   9.548
    5        0.544   0.241   8.764   9.549
    6        0.544   0.241   8.766   9.551
    7        0.546   0.241   8.764   9.551
    8        0.542   0.242   8.765   9.549
    9        0.544   0.240   8.766   9.551
   10        0.522   0.305   8.774   9.602
   11        0.520   0.309   8.776   9.605
   12        0.522   0.308   8.770   9.600
   13        0.523   0.306   8.778   9.608
   14        0.516   0.310   8.778   9.604
   15        0.518   0.308   8.773   9.600
   16        0.519   0.308   8.772   9.600
   17        0.514   0.311   8.772   9.597
   18        0.516   0.312   8.770   9.597
   19        0.516   0.301   8.770   9.587
   20        0.554   0.338   8.736   9.628
   21        0.557   0.333   8.741   9.630
   22        0.513   0.317   8.760   9.589
   23        0.554   0.331   8.745   9.630
   24        0.510   0.307   8.776   9.593
   25        0.515   0.296   8.780   9.591
   26        0.518   0.297   8.774   9.589
   27        0.511   0.308   8.776   9.594
   28        0.535   0.217   8.771   9.524
   29        0.547   0.231   8.772   9.549
   30        0.560   0.235   8.758   9.553
   31        0.560   0.345   8.658   9.563
   32        0.559   0.228   8.764   9.551
   33        0.557   0.232   8.766   9.555
   34        0.561   0.235   8.756   9.553
   35        0.536   0.222   8.767   9.525
   36        0.517   0.755   3.645   4.917
   37        1.611   3.286   0.000   4.897
   38        1.579   3.417   0.000   4.996
   39        0.616   0.118   0.000   0.734
tot         23.051  17.293 310.362 350.705

  FORCE on cell =-STRESS in cart. coord.  units (eV):
  Direction    XX          YY          ZZ          XY          YZ          ZX
  Alpha Z   882.07681   882.07681   882.07681
  Ewald  173837.11607173673.04826************    27.77233   -30.68319     9.33628
  Hartree182135.03736182035.58639************    13.72520   -13.71679    -7.29619
  E(xc)   -1811.69228 -1812.24743 -1819.74209     0.05999    -0.10289     0.07354
  Local  ************************367977.42043   -37.24279    41.82226     4.77677
  n-local   -99.92932   -98.41060   -73.54244     0.12386     0.07257     0.03922
  augment  2397.37662  2399.33926  2410.82706    -0.20969     0.58474    -0.53841
  Kinetic  5644.84147  5664.34222  5690.36124    -4.02999     2.06263    -6.33365
  Fock        0.00000     0.00000     0.00000     0.00000     0.00000     0.00000
  Total     -20.12474   -19.96841    -0.36180     0.19891     0.03934     0.05757
  in kB     -18.48968   -18.34606    -0.33241     0.18275     0.03615     0.05289

 VOLUME and BASIS-vectors are now :
  energy-cutoff  :      500.00
  volume of cell :     1743.86
      direct lattice vectors                 reciprocal lattice vectors
     8.813512802  0.000000000  0.000000000     0.113462137 -0.065507406  0.000000000
     4.406756909  7.632725690  0.000000000     0.000000000  0.131014796  0.000000000
     0.000000000  0.000000000 25.922848430     0.000000000  0.000000000  0.038576008

  length of vectors
     8.813512802  8.813512802 25.922848430     0.131014796  0.131014796  0.038576008

 FORCES acting on ions
    electron-ion (+dipol)            ewald-force                    non-local-force                 convergence-correction
   0.206E+00 0.122E+00 0.278E+04   -.964E-01 -.125E+00 -.277E+04   -.347E-01 -.301E-01 -.556E+00   -.682E-01 0.360E-01 -.353E-01
   0.187E+00 0.618E-01 0.278E+04   -.230E+00 -.816E-01 -.278E+04   0.432E-03 0.824E-02 -.246E+00   0.430E-01 0.156E-01 0.153E-02
   -.362E+00 -.132E+00 0.278E+04   0.326E+00 0.316E-01 -.277E+04   0.161E-01 0.635E-01 -.657E+00   0.928E-02 0.261E-01 -.902E-01
   0.840E-01 0.247E+00 0.278E+04   -.126E+00 -.249E+00 -.278E+04   0.407E-01 -.123E-01 -.330E+00   0.396E-02 0.896E-02 -.271E-03
   -.248E+00 0.189E-01 0.278E+04   0.146E+00 0.278E-01 -.278E+04   0.608E-01 -.138E-01 -.254E+00   0.313E-01 -.347E-01 0.166E-01
   0.120E+00 0.348E+00 0.278E+04   -.200E-01 -.276E+00 -.278E+04   -.800E-01 -.320E-01 -.280E+00   -.120E-01 -.338E-01 -.319E-01
   -.261E+00 -.384E+00 0.278E+04   0.250E+00 0.357E+00 -.278E+04   0.379E-01 0.124E-01 -.256E+00   -.330E-01 0.132E-01 -.163E-01
   0.217E+00 -.173E+00 0.278E+04   -.201E+00 0.218E+00 -.277E+04   -.373E-01 -.117E-01 -.418E+00   0.221E-01 -.290E-01 -.296E-01
   0.769E-01 -.123E+00 0.278E+04   -.493E-01 0.964E-01 -.278E+04   -.293E-01 0.259E-01 -.424E+00   0.424E-02 0.642E-02 0.151E-01
   0.181E+01 0.185E+01 0.960E+03   -.168E+01 -.186E+01 -.960E+03   -.191E+00 -.126E+00 -.543E+00   0.586E-01 0.107E+00 0.312E+00
   -.110E+01 0.164E+01 0.961E+03   0.919E+00 -.164E+01 -.961E+03   0.115E+00 -.451E-01 -.387E+00   0.309E-01 0.308E-01 0.368E+00
   -.815E+00 0.144E+01 0.958E+03   0.764E+00 -.130E+01 -.958E+03   0.149E+00 -.183E+00 -.536E+00   -.452E-01 0.647E-01 0.279E+00
   0.111E+00 -.128E+01 0.962E+03   -.200E+00 0.141E+01 -.962E+03   0.858E-01 -.313E-01 -.429E+00   -.268E-01 -.634E-01 0.450E+00
   -.990E+00 -.740E+00 0.960E+03   0.113E+01 0.847E+00 -.960E+03   -.821E-01 -.231E-01 -.261E+00   -.187E-01 -.603E-01 0.403E+00
   0.917E+00 0.255E+01 0.963E+03   -.928E+00 -.266E+01 -.963E+03   -.532E-01 0.557E-01 -.503E+00   0.444E-01 0.283E-01 0.334E+00
   0.504E-01 -.173E+01 0.958E+03   -.147E-01 0.154E+01 -.957E+03   -.270E-01 0.242E+00 -.467E+00   -.858E-02 -.354E-01 0.289E+00
   0.279E+01 -.126E+01 0.961E+03   -.294E+01 0.131E+01 -.961E+03   0.378E-01 -.119E-01 -.395E+00   0.672E-01 -.247E-01 0.298E+00
   -.279E+01 -.252E+01 0.962E+03   0.296E+01 0.235E+01 -.961E+03   -.390E-01 0.152E+00 -.521E+00   -.870E-01 -.292E-01 0.277E+00
   0.840E+01 -.624E+00 -.869E+03   -.824E+01 0.357E+00 0.868E+03   -.144E+00 0.464E-01 0.401E+00   0.378E-01 0.223E+00 0.683E+00
   -.791E+01 0.201E+01 -.854E+03   0.810E+01 -.182E+01 0.854E+03   -.831E+00 -.635E+00 -.110E+01   0.411E+00 0.398E+00 0.136E+01
   -.679E+00 0.270E+00 -.870E+03   0.159E+00 -.260E+00 0.869E+03   0.111E+01 -.521E+00 -.683E+00   -.441E+00 0.407E+00 0.131E+01
   -.629E+01 -.516E+01 -.861E+03   0.570E+01 0.519E+01 0.860E+03   0.419E+00 0.574E-02 0.109E+00   0.220E+00 -.217E+00 0.734E+00
   -.415E+01 -.265E+01 -.869E+03   0.438E+01 0.233E+01 0.868E+03   -.170E+00 0.114E+01 -.666E+00   -.551E-01 -.632E+00 0.133E+01
   0.106E+02 0.157E+01 -.870E+03   -.101E+02 -.117E+01 0.869E+03   -.298E+00 -.243E+00 0.821E+00   -.181E+00 -.185E+00 0.713E+00
   0.412E+01 0.205E+01 -.884E+03   -.411E+01 -.185E+01 0.882E+03   0.787E-01 -.596E-01 0.930E+00   -.593E-01 -.109E+00 0.650E+00
   -.199E+01 0.884E+01 -.879E+03   0.181E+01 -.871E+01 0.877E+03   0.603E-01 -.237E-01 0.691E+00   0.962E-01 -.509E-01 0.633E+00
   -.214E+01 -.650E+01 -.871E+03   0.225E+01 0.597E+01 0.870E+03   -.900E-01 0.436E+00 0.872E+00   -.192E-01 0.183E+00 0.662E+00
   0.318E+02 0.414E+02 -.262E+04   -.322E+02 -.421E+02 0.262E+04   0.336E+00 0.398E+00 0.117E+01   0.156E-02 0.137E+00 0.396E+00
   -.929E+01 0.830E+02 -.262E+04   0.102E+02 -.837E+02 0.261E+04   -.138E+01 -.636E+00 0.131E+01   0.346E+00 0.804E+00 0.210E+00
   -.276E+02 0.383E+02 -.266E+04   0.274E+02 -.383E+02 0.265E+04   0.792E+00 -.109E+01 0.497E+00   -.367E+00 0.808E+00 0.234E+00
   0.448E+02 -.439E+02 -.245E+04   -.443E+02 0.441E+02 0.245E+04   -.160E+01 -.137E+00 -.162E+01   0.799E+00 0.451E-01 0.176E+00
   -.584E+01 -.161E+01 -.264E+04   0.537E+01 0.181E+01 0.264E+04   0.146E+01 -.180E+00 0.972E+00   -.783E+00 0.182E-01 0.268E+00
   0.174E+01 -.696E+02 -.264E+04   -.148E+01 0.699E+02 0.264E+04   -.715E+00 0.106E+01 0.876E+00   0.393E+00 -.864E+00 0.215E+00
   -.178E+02 -.333E+02 -.266E+04   0.179E+02 0.332E+02 0.266E+04   0.501E+00 0.124E+01 0.560E+00   -.394E+00 -.811E+00 0.235E+00
   0.136E+02 -.257E+02 -.266E+04   -.138E+02 0.262E+02 0.266E+04   0.112E+00 -.192E+00 0.757E+00   0.221E-03 -.181E+00 0.337E+00
   -.158E+02 -.344E+01 -.989E+03   0.160E+02 0.341E+01 0.991E+03   -.795E-01 0.204E-02 -.991E-01   -.208E-01 0.261E-01 0.165E+00
   -.543E+02 -.897E+01 -.176E+04   0.554E+02 0.887E+01 0.179E+04   -.100E+01 0.644E-01 -.267E+02   -.254E-01 0.376E-01 -.133E+01
   0.786E+02 0.283E+02 -.177E+04   -.115E+03 -.400E+02 0.178E+04   0.361E+02 0.115E+02 -.713E+01   0.125E+00 0.782E-01 -.208E+00
   -.671E+02 -.150E+02 -.313E+03   0.745E+02 0.166E+02 0.316E+03   -.749E+01 -.162E+01 -.254E+01   0.265E-01 0.901E-02 -.458E-01
   -.273E+02 -.108E+02 0.268E+02   -.284E-13 -.107E-12 0.227E-12   0.272E+02 0.106E+02 -.381E+02   0.126E+00 0.150E+00 0.116E+02

 POSITION                                       TOTAL-FORCE (eV/Angst)
      0.00000      0.00000      5.28038         0.007377      0.004221     -0.131370
      2.93784      0.00000      5.28038         0.001373      0.004769     -0.070183
      5.87568      0.00000      5.28038        -0.010343     -0.009538     -0.001984
      1.46892      2.54424      5.28038         0.003032     -0.003711     -0.091964
      4.40676      2.54424      5.28038        -0.009452     -0.001022     -0.089309
      7.34459      2.54424      5.28038         0.008474      0.006868     -0.061112
      2.93784      5.08848      5.28038        -0.006130     -0.000211     -0.068228
      5.87568      5.08848      5.28038         0.001693      0.005235     -0.048609
      8.81351      5.08848      5.28038         0.002904      0.006445     -0.081763
      1.46892      0.84808      7.67911        -0.007140     -0.022100      0.043623
      4.40676      0.84808      7.67911        -0.036412     -0.015123      0.066846
      7.34459      0.84808      7.67911         0.051920      0.027045      0.089723
      2.93784      3.39232      7.67911        -0.029734      0.044119     -0.000278
      5.87568      3.39232      7.67911         0.038073      0.024625      0.069904
      8.81351      3.39232      7.67911        -0.019426     -0.027621      0.065552
      4.40676      5.93656      7.67911         0.000432      0.011122      0.098263
      7.34459      5.93656      7.67911        -0.050181      0.011675      0.122079
     10.28243      5.93656      7.67911         0.042649     -0.044808      0.155147
      8.81351      1.69782     10.07545         0.061381      0.003045      0.077774
      2.94790      1.70197     10.06171        -0.234294     -0.043000     -0.040557
      5.86562      1.70197     10.06171         0.150326     -0.103499     -0.110550
     10.26824      4.24860     10.06503         0.043438     -0.180622      0.206163
      4.40676      4.22879     10.06171         0.004287      0.191312     -0.133972
      7.35878      4.24860     10.06503        -0.034096     -0.030713      0.035090
     11.74991      6.78381     10.07545         0.028983      0.037245     -0.022292
      5.87712      6.78381     10.07545        -0.021507      0.056911      0.020252
      8.81351      6.76826     10.06503         0.000348      0.083228      0.027902
      0.00000      0.00000     12.47281        -0.126693     -0.205847     -0.136687
      2.99055      0.08121     12.52138        -0.076259     -0.520652     -0.269009
      5.82296      0.08121     12.52138         0.200340     -0.328353     -0.256361
      1.56560      2.54929     12.52138        -0.323584      0.057010     -0.236361
      7.24791      2.54929     12.52138         0.208250      0.036304     -0.303752
      2.98181      5.00223     12.52138        -0.066394      0.471994     -0.281786
      5.83171      5.00223     12.52138         0.196301      0.304047     -0.247362
      8.81351      5.08848     12.50032        -0.111581      0.140032     -0.002152
      4.40676      2.54424     12.20130         0.109806     -0.000911      1.589705
      4.42859      2.54015     13.83247         0.008835      0.008298      0.041003
      1.54333      2.08425     14.55037        -0.003718     -0.004260     -0.023776
      2.45684      2.28574     14.84254        -0.003276      0.006440      0.000391
    total drift:                               -0.013076     -0.029793      0.281312

  FREE ENERGIE OF THE ION-ELECTRON SYSTEM (eV)
  free  energy   TOTEN  =      -131.84031517 eV

  energy  without entropy=     -131.84031517  energy(sigma->0) =     -131.84031517

 stress matrix after NEB project (eV)
    -20.12474      0.19891      0.05757
      0.19891    -19.96841      0.03934
      0.05757      0.03934     -0.36180
  FORCES: max atom, RMS     0.042757    0.007971
  FORCE total and by dimension    0.049778    0.041003
  Stress total and by dimension   28.354230   20.124739
|           W    W    AA    RRRRR   N    N  II  N    N   GGGG   !!!           |
|           W    W   A  A   R    R  NN   N  II  NN   N  G    G  !!!           |
|           W    W  A    A  R    R  N N  N  II  N N  N  G       !!!           |
|           W WW W  AAAAAA  RRRRR   N  N N  II  N  N N  G  GGG   !            |
|           WW  WW  A    A  R   R   N   NN  II  N   NN  G    G                |
|           W    W  A    A  R    R  N    N  II  N    N   GGGG   !!!           |
|     Tetrahedron method does not include variations of the Fermi             |
|     occupations, so forces and stress will be inaccurate. We suggest        |
|     using a different smearing scheme ISMEAR = 1 or 2 for metals in         |
|     relaxations.                                                            |

 total charge

# of ion       s       p       d       tot
    1        0.548   0.239   8.765   9.552
    2        0.546   0.241   8.763   9.550
    3        0.540   0.242   8.763   9.545
    4        0.540   0.242   8.766   9.548
    5        0.544   0.241   8.764   9.549
    6        0.544   0.241   8.766   9.551
    7        0.546   0.241   8.764   9.551
    8        0.542   0.242   8.765   9.549
    9        0.544   0.240   8.766   9.551
   10        0.522   0.305   8.774   9.602
   11        0.520   0.309   8.776   9.605
   12        0.522   0.308   8.770   9.600
   13        0.523   0.306   8.778   9.608
   14        0.516   0.310   8.778   9.604
   15        0.518   0.308   8.773   9.600
   16        0.519   0.308   8.772   9.600
   17        0.514   0.311   8.772   9.597
   18        0.516   0.312   8.770   9.597
   19        0.516   0.301   8.770   9.587
   20        0.554   0.338   8.736   9.628
   21        0.557   0.333   8.741   9.630
   22        0.513   0.317   8.760   9.589
   23        0.554   0.331   8.745   9.630
   24        0.510   0.307   8.776   9.593
   25        0.515   0.296   8.780   9.591
   26        0.518   0.297   8.774   9.589
   27        0.511   0.308   8.776   9.594
   28        0.535   0.217   8.771   9.524
   29        0.547   0.231   8.772   9.549
   30        0.560   0.235   8.758   9.553
   31        0.560   0.345   8.658   9.563
   32        0.559   0.228   8.764   9.551
   33        0.557   0.232   8.766   9.555
   34        0.561   0.235   8.756   9.553
   35        0.536   0.222   8.767   9.525
   36        0.517   0.755   3.645   4.917
   37        1.611   3.286   0.000   4.897
   38        1.579   3.417   0.000   4.996
   39        0.616   0.118   0.000   0.734
tot         23.051  17.293 310.362 350.705

 BZINTS: Fermi energy:   -0.257886;  403.000000 electrons
         Band energy:-0.167012E+04;  BLOECHL correction:   -0.028390