 vasp.6.2.0 18Jan21 (build Jun 12 2021 23:27:24) complex

 executed on             LinuxIFC date 2022.05.28  01:24:52

 INCAR:
   ISMEAR = -5
   SIGMA = 0.1
   ISPIN = 1
   EDIFF = 1.d-5
   EDIFFG = -0.01
   NSW = 0
   NELM = 150
   ENCUT = 500
   ISIF = 2
   IBRION = 2
   LREAL = Auto
   ALGO = Fast
   ICHARG = 11
   LORBIT = 10
   LCHARG = .F.
   LWAVE = .F.

 POTCAR:    PAW_PBE Ag 02Apr2005
 POTCAR:    PAW_PBE V 08Apr2002
 POTCAR:    PAW_PBE H 15Jun2001
 POTCAR:    PAW_PBE O 08Apr2002
|           W    W    AA    RRRRR   N    N  II  N    N   GGGG   !!!           |
|           W    W   A  A   R    R  NN   N  II  NN   N  G    G  !!!           |
|           W    W  A    A  R    R  N N  N  II  N N  N  G       !!!           |
|           W WW W  AAAAAA  RRRRR   N  N N  II  N  N N  G  GGG   !            |
|           WW  WW  A    A  R   R   N   NN  II  N   NN  G    G                |
|           W    W  A    A  R    R  N    N  II  N    N   GGGG   !!!           |
|     For optimal performance we recommend to set                             |
|       NCORE = 2 up to number-of-cores-per-socket                            |
|     This setting can greatly improve the performance of VASP for DFT.       |
|     The default, NCORE=1 might be grossly inefficient on modern             |
|     multi-core architectures or massively parallel machines. Do your        |
|     Unfortunately you need to use the default for GW and RPA                |
|     calculations (for HF NCORE is supported but not extensively tested      |
|     yet).                                                                   |

 POTCAR:    PAW_PBE Ag 02Apr2005
   VRHFIN =Ag : s1 d10

   TITEL  = PAW_PBE Ag 02Apr2005
   POMASS =  107.868; ZVAL   =   11.000    mass and valenz
   ENMAX  =  249.844; ENMIN  =  187.383 eV

 POTCAR:    PAW_PBE V 08Apr2002
   VRHFIN =V: p6 d4 s1

[...]

 POTCAR:    PAW_PBE H 15Jun2001
   VRHFIN =H: ultrasoft test

   TITEL  = PAW_PBE H 15Jun2001
   POMASS =    1.000; ZVAL   =    1.000    mass and valenz
   ENMAX  =  250.000; ENMIN  =  200.000 eV

 POTCAR:    PAW_PBE O 08Apr2002
   VRHFIN =O: s2p4

   TITEL  = PAW_PBE O 08Apr2002
   POMASS =   16.000; ZVAL   =    6.000    mass and valenz
   ENMAX  =  400.000; ENMIN  =  300.000 eV

 Optimization of the real space projectors (new method)

 maximal supplied QI-value         = 15.12
 optimisation between [QCUT,QGAM] = [ 11.34, 22.83] = [ 36.00,145.93] Ry
 Optimized for a Real-space Cutoff    1.43 Angstroem

   l    n(q)    QCUT    max X(q) W(low)/X(q) W(high)/X(q)  e(spline)
   2      9    11.338    53.897    0.16E-03    0.20E-03    0.28E-06
   2      9    11.338    52.416    0.16E-03    0.20E-03    0.29E-06
   0     10    11.338   122.045    0.31E-04    0.76E-04    0.15E-06
   0     10    11.338    73.629    0.30E-04    0.72E-04    0.15E-06
   1      9    11.338    15.255    0.20E-03    0.19E-04    0.17E-06
   1      9    11.338     9.562    0.16E-03    0.15E-04    0.14E-06
 Optimization of the real space projectors (new method)

[...]

   l    n(q)    QCUT    max X(q) W(low)/X(q) W(high)/X(q)  e(spline)
   0      8    11.287    19.460    0.40E-03    0.73E-03    0.16E-06
   0      8    11.287    12.209    0.38E-03    0.70E-03    0.15E-06
   1      7    11.287     4.655    0.22E-03    0.25E-04    0.22E-06
 Optimization of the real space projectors (new method)

 maximal supplied QI-value         = 24.76
 optimisation between [QCUT,QGAM] = [ 11.39, 22.77] = [ 36.31,145.25] Ry
 Optimized for a Real-space Cutoff    1.00 Angstroem

   l    n(q)    QCUT    max X(q) W(low)/X(q) W(high)/X(q)  e(spline)
   0      7    11.387    20.381    0.39E-03    0.13E-02    0.15E-06
   0      7    11.387    15.268    0.42E-03    0.14E-02    0.17E-06
   1      6    11.387     5.964    0.41E-03    0.11E-02    0.17E-06
   1      6    11.387     5.382    0.39E-03    0.87E-03    0.15E-06
  PAW_PBE Ag 02Apr2005                  :
  PAW_PBE V 08Apr2002                   :
  PAW_PBE H 15Jun2001                   :
  PAW_PBE O 08Apr2002                   :

 POSCAR: Ag-V-H2O
  positions in direct lattice
  velocities in cartesian coordinates
 exchange correlation table for  LEXCH =        8
   RHO(1)=    0.500       N(1)  =     2000
   RHO(2)=  100.500       N(2)  =     4000

 VTST: version 3.2, (02/03/18)

 CHAIN: initializing optimizer

 OPT: Using VASP Conjugate-Gradient optimizer
 CHAIN: Read ICHAIN            0

 POSCAR: Ag-V-H2O
  positions in direct lattice
  velocities in cartesian coordinates

 ion  position               nearest neighbor table
   1  0.000  0.000  0.212-   2 2.93   8 2.93   7 2.93   6 2.93   4 2.93  12 2.93  16 2.93  10 2.93
                             3 2.93
   2  0.333  0.000  0.212-   1 2.93   8 2.93   9 2.93   3 2.93   4 2.93   5 2.93  10 2.93  17 2.93
                            11 2.93
   3  0.667  0.000  0.212-   9 2.93   2 2.93   5 2.93  11 2.93   7 2.93  18 2.93   1 2.93   6 2.93
                            12 2.93
   4  0.000  0.333  0.212-   5 2.93   6 2.93   2 2.93   1 2.93   7 2.93  13 2.93  15 2.93   9 2.93
                            10 2.93
   5  0.333  0.333  0.212-   4 2.93   3 2.93   7 2.93   2 2.93   8 2.93  14 2.93  13 2.93  11 2.93
                             6 2.93
   6  0.667  0.333  0.212-   4 2.93   9 2.93   1 2.93  15 2.93   8 2.93  12 2.93   3 2.93   5 2.93
                            14 2.93
   7  0.000  0.667  0.212-   8 2.93   1 2.93   5 2.93   3 2.93   4 2.93  16 2.93  18 2.93  13 2.93
                             9 2.93
   8  0.333  0.667  0.212-   7 2.93   1 2.93   2 2.93   9 2.93   5 2.93  16 2.93   6 2.93  17 2.93
                            14 2.93
   9  0.667  0.667  0.212-   3 2.93   2 2.93   8 2.93   6 2.93  17 2.93   4 2.93  15 2.93   7 2.93
                            18 2.93
  10  0.111  0.111  0.308-  20 2.91  19 2.92  26 2.92  12 2.93  16 2.93  15 2.93  17 2.93  13 2.93
                            11 2.93   2 2.93   1 2.93   4 2.93
  11  0.444  0.111  0.308-  21 2.90  20 2.90  27 2.92  14 2.93  17 2.93  18 2.93   3 2.93  12 2.93
                            13 2.93  10 2.93   5 2.93   2 2.93
  12  0.778  0.111  0.308-  21 2.91  25 2.92  19 2.92  10 2.93  16 2.93  18 2.93  15 2.93  11 2.93
                             1 2.93  14 2.93   6 2.93   3 2.93
  13  0.111  0.444  0.308-  20 2.90  23 2.90  22 2.92  15 2.93  14 2.93  18 2.93  10 2.93  11 2.93
                            16 2.93   4 2.93   5 2.93   7 2.93
  14  0.444  0.444  0.308-  23 2.90  21 2.90  24 2.92  13 2.93  11 2.93  16 2.93   5 2.93  12 2.93
                            17 2.93   8 2.93  15 2.93   6 2.93
  15  0.778  0.444  0.308-  24 2.92  22 2.92  19 2.92  13 2.93  10 2.93  12 2.93  17 2.93  18 2.93
                             4 2.93   6 2.93   9 2.93  14 2.93
  16  0.111  0.778  0.308-  23 2.91  26 2.92  25 2.92  18 2.93  12 2.93  10 2.93  14 2.93  17 2.93
                            13 2.93   7 2.93   8 2.93   1 2.93
  17  0.444  0.778  0.308-  27 2.92  24 2.92  26 2.92  11 2.93  10 2.93   9 2.93  18 2.93  15 2.93
                            16 2.93   2 2.93  14 2.93   8 2.93
  18  0.778  0.778  0.308-  22 2.92  27 2.92  25 2.92  16 2.93  12 2.93  13 2.93  11 2.93  17 2.93
                            15 2.93   7 2.93   3 2.93   9 2.93
  19  0.889  0.222  0.403-  28 2.91  15 2.92  10 2.92  12 2.92  24 2.93  22 2.93  26 2.93  25 2.93
                            20 2.94  21 2.94  32 2.96  31 2.96
  20  0.223  0.223  0.402-  36 2.75  13 2.90  11 2.90  10 2.91  21 2.92  23 2.92  31 2.92  29 2.92
                            27 2.93  22 2.93  19 2.94  26 2.94
  21  0.555  0.223  0.402-  36 2.75  11 2.90  14 2.90  12 2.91  20 2.92  23 2.92  30 2.92  32 2.92
                            27 2.93  24 2.93  25 2.94  19 2.94
  22  0.889  0.556  0.403-  18 2.92  15 2.92  35 2.92  13 2.92  24 2.93  27 2.93  25 2.93  19 2.93
                            23 2.93  20 2.93  33 2.94  31 2.94
  23  0.223  0.555  0.402-  36 2.75  14 2.90  13 2.90  16 2.91  21 2.92  20 2.92  34 2.92  33 2.92
                            22 2.93  24 2.93  26 2.94  25 2.94
  24  0.556  0.556  0.403-  15 2.92  17 2.92  35 2.92  14 2.92  27 2.93  22 2.93  19 2.93  26 2.93
                            23 2.93  21 2.93  32 2.94  34 2.94
  25  0.889  0.889  0.403-  28 2.91  18 2.92  16 2.92  12 2.92  22 2.93  27 2.93  26 2.93  19 2.93
                            23 2.94  21 2.94  33 2.96  30 2.96
  26  0.222  0.889  0.403-  28 2.91  17 2.92  16 2.92  10 2.92  27 2.93  24 2.93  25 2.93  19 2.93
                            23 2.94  20 2.94  34 2.96  29 2.96
  27  0.556  0.889  0.403-  17 2.92  18 2.92  35 2.92  11 2.92  24 2.93  22 2.93  26 2.93  25 2.93
                            20 2.93  21 2.93  29 2.94  30 2.94
  28  0.000  0.000  0.498-  26 2.91  25 2.91  19 2.91  29 2.96  34 2.96  33 2.96  32 2.96  31 2.96
                            30 2.96
  29  0.334  0.006  0.499-  30 2.87  31 2.88  36 2.89  20 2.92  27 2.94  35 2.96  28 2.96  26 2.96
                            34 3.04
  30  0.660  0.006  0.499-  29 2.87  32 2.88  36 2.89  21 2.92  27 2.94  35 2.96  28 2.96  25 2.96
                            33 3.04
  31  0.006  0.334  0.499-  33 2.87  29 2.88  36 2.89  20 2.92  22 2.94  35 2.96  28 2.96  19 2.96
                            32 3.04
  32  0.660  0.334  0.499-  34 2.87  30 2.88  36 2.89  21 2.92  24 2.94  35 2.96  28 2.96  19 2.96
                            31 3.04
  33  0.006  0.660  0.499-  31 2.87  34 2.88  36 2.89  23 2.92  22 2.94  35 2.96  28 2.96  25 2.96
                            30 3.04
  34  0.334  0.660  0.499-  32 2.87  33 2.88  36 2.89  23 2.92  24 2.94  35 2.96  28 2.96  26 2.96
                            29 3.04
  35  0.667  0.667  0.498-  24 2.92  27 2.92  22 2.92  30 2.96  32 2.96  29 2.96  34 2.96  31 2.96
                            33 2.96
  36  0.333  0.333  0.490-  39 2.17  21 2.75  20 2.75  23 2.75  31 2.89  33 2.89  30 2.89  29 2.89
                            34 2.89  32 2.89
  37  0.277  0.266  0.586-  39 0.98
  38  0.456  0.266  0.586-  39 0.98
  39  0.332  0.335  0.576-  38 0.98  37 0.98  36 2.17

  LATTYP: Found a hexagonal cell.
 ALAT       =     8.7913665772
 C/A-ratio  =     2.8382349142

  Lattice vectors:

 A1 = (  -4.3956832886,  -7.6135467898,   0.0000000000)
 A2 = (   8.7913665771,   0.0000000000,   0.0000000000)
 A3 = (   0.0000000000,   0.0000000000,  24.9519635625)

Analysis of symmetry for initial positions (statically):
 Subroutine PRICEL returns:
 Original cell was already a primitive cell.

 Routine SETGRP: Setting up the symmetry group for a
 hexagonal supercell.

 Subroutine GETGRP returns: Found  1 space group operations
 (whereof  1 operations were pure point group operations)
 out of a pool of 24 trial point group operations.

The static configuration has the point symmetry C_1 .

Analysis of symmetry for dynamics (positions and initial velocities):
 Subroutine PRICEL returns:
 Original cell was already a primitive cell.

[...]

The dynamic configuration has the point symmetry C_1 .

Analysis of constrained symmetry for selective dynamics:
 Subroutine PRICEL returns:
 Original cell was already a primitive cell.

 Routine SETGRP: Setting up the symmetry group for a
 hexagonal supercell.

[...]
     41      -4.7051      2.00000
     42      -4.6685      2.00000
     43      -4.6670      2.00000
     44      -4.6555      2.00000
     45      -4.6511      2.00000
     46      -4.6376      2.00000
     47      -4.5466      2.00000
     48      -4.5180      2.00000
     49      -4.5098      2.00000
     50      -4.5049      2.00000
     51      -4.5025      2.00000
     52      -4.5002      2.00000
     53      -4.4878      2.00000
     54      -4.4763      2.00000
     55      -4.4724      2.00000
     56      -4.4581      2.00000
     57      -4.3929      2.00000
     58      -4.3877      2.00000
     59      -4.3778      2.00000
     60      -4.3658      2.00000
[...]
    238       5.7020      0.00000
    239       5.8125      0.00000
    240       5.8600      0.00000
    241       5.9717      0.00000
    242       6.1083      0.00000
    243       6.2279      0.00000
    244       6.2998      0.00000
    245       6.3872      0.00000
    246       6.4158      0.00000
    247       6.5978      0.00000
    248       6.6825      0.00000
    249       6.8558      0.00000
    250       6.9056      0.00000
    251       6.9160      0.00000
    252       7.1077      0.00000

 soft charge-density along one line, spin component           1
         0         1         2         3         4         5         6         7         8         9
 total charge-density along one line

------------------------ aborting loop because EDIFF is reached ----------------------------------------

 total charge

# of ion       s       p       d       tot
    1        0.421   0.200   9.177   9.798
    2        0.416   0.203   9.177   9.796
    3        0.416   0.203   9.177   9.796
    4        0.416   0.203   9.177   9.796
    5        0.419   0.202   9.176   9.797
    6        0.416   0.203   9.177   9.796
    7        0.415   0.203   9.177   9.796
    8        0.415   0.203   9.177   9.796
    9        0.415   0.203   9.177   9.795
   10        0.410   0.268   9.163   9.841
   11        0.408   0.267   9.168   9.843
   12        0.410   0.268   9.163   9.841
   13        0.406   0.268   9.168   9.842
   14        0.406   0.268   9.168   9.842
   15        0.404   0.268   9.165   9.837
   16        0.410   0.268   9.162   9.840
   17        0.403   0.268   9.165   9.836
   18        0.403   0.268   9.165   9.836
   19        0.406   0.265   9.165   9.836
   20        0.439   0.298   9.136   9.874
   21        0.439   0.298   9.136   9.874
   22        0.396   0.274   9.165   9.834
   23        0.438   0.299   9.136   9.872
   24        0.396   0.274   9.165   9.834
   25        0.404   0.265   9.166   9.835
   26        0.404   0.265   9.166   9.835
   27        0.397   0.273   9.165   9.835
   28        0.410   0.202   9.172   9.784
   29        0.440   0.219   9.155   9.815
   30        0.440   0.219   9.155   9.814
   31        0.441   0.217   9.156   9.815
   32        0.441   0.217   9.156   9.815
   33        0.435   0.212   9.162   9.808
   34        0.435   0.212   9.162   9.808
   35        0.405   0.203   9.175   9.783
   36        0.405   0.402   3.286   4.093
   37        0.598   0.117   0.000   0.715
   38        0.599   0.117   0.000   0.715
   39        1.568   3.615   0.000   5.183
tot         17.743  12.697 324.059 354.499

  FORCE on cell =-STRESS in cart. coord.  units (eV):
  Direction    XX          YY          ZZ          XY          YZ          ZX
  Alpha Z   666.40124   666.40124   666.40124
  Ewald  159883.35457159815.41345************    -0.00666   -14.96599     0.74071
  Hartree169813.55506169800.94540************    -0.01493     2.59842     0.40212
  E(xc)   -2086.18688 -2086.22553 -2091.85731     0.00054    -0.05032     0.00154
  Local  ************************340782.76787     0.02990     5.00698    -1.04104
  n-local  -345.57738  -345.89659  -348.06151    -0.00297    -0.08712    -0.00222
  augment  3245.96135  3246.52636  3258.18476    -0.00186     0.45446    -0.00522
  Kinetic  4932.83612  4951.17541  4984.68056    -0.00637     7.00958    -0.09214
  Fock        0.00000     0.00000     0.00000     0.00000     0.00000     0.00000
  Total      -8.23170    -8.24577    -0.14910    -0.00236    -0.03399     0.00375
  in kB      -7.89681    -7.91032    -0.14304    -0.00226    -0.03261     0.00359

 VOLUME and BASIS-vectors are now :
  energy-cutoff  :      500.00
  volume of cell :     1670.12
      direct lattice vectors                 reciprocal lattice vectors
     8.791366577  0.000000000  0.000000000     0.113747958 -0.065672414  0.000000000
     4.395683289  7.613546790  0.000000000     0.000000000  0.131344829  0.000000000
     0.000000000  0.000000000 24.951963562     0.000000000  0.000000000  0.040077006

  length of vectors
     8.791366577  8.791366577 24.951963562     0.131344829  0.131344829  0.040077006

 FORCES acting on ions
    electron-ion (+dipol)            ewald-force                    non-local-force                 convergence-correction
   0.229E-02 0.307E-01 0.271E+04   -.473E-03 -.878E-02 -.271E+04   0.104E-04 -.943E-02 -.197E+01   -.178E-02 -.793E-02 -.386E-01
   -.239E-01 -.110E+00 0.271E+04   -.510E-01 -.320E-01 -.271E+04   0.691E-01 0.175E+00 -.157E+01   0.619E-02 -.319E-01 0.232E-01
   0.222E-01 -.121E+00 0.271E+04   0.515E-01 -.314E-01 -.271E+04   -.688E-01 0.175E+00 -.157E+01   -.549E-02 -.219E-01 0.269E-01
   -.111E+00 0.315E-01 0.271E+04   -.458E-01 -.190E-01 -.271E+04   0.179E+00 -.365E-01 -.159E+01   -.263E-01 0.194E-01 0.318E-02
   -.143E-01 -.306E-02 0.271E+04   0.804E-03 0.140E-01 -.271E+04   -.242E-02 -.422E-02 -.129E+01   0.161E-01 -.104E-01 0.477E-01
   0.120E+00 0.290E-01 0.271E+04   0.449E-01 -.191E-01 -.271E+04   -.179E+00 -.368E-01 -.159E+01   0.176E-01 0.225E-01 0.711E-02
   -.795E-01 0.616E-01 0.271E+04   0.595E-02 0.510E-01 -.271E+04   0.114E+00 -.132E+00 -.166E+01   -.421E-01 0.219E-01 0.166E-01
   0.720E-01 0.677E-01 0.271E+04   -.570E-02 0.503E-01 -.271E+04   -.114E+00 -.132E+00 -.166E+01   0.496E-01 0.161E-01 0.168E-01
   0.127E-01 0.115E-01 0.271E+04   -.236E-03 -.501E-02 -.271E+04   0.249E-02 -.128E-02 -.176E+01   -.151E-01 -.356E-02 0.757E-01
   0.105E+01 0.636E+00 0.912E+03   -.603E+00 -.346E+00 -.911E+03   -.373E+00 -.232E+00 -.730E+00   -.703E-01 -.529E-01 -.407E+00
   -.176E-01 0.757E+00 0.912E+03   0.415E-02 -.582E+00 -.911E+03   -.247E-02 0.485E-01 -.237E+00   0.162E-01 -.253E+00 -.488E+00
   -.104E+01 0.629E+00 0.912E+03   0.599E+00 -.343E+00 -.911E+03   0.373E+00 -.232E+00 -.730E+00   0.617E-01 -.490E-01 -.407E+00
   0.605E+00 -.487E+00 0.912E+03   -.500E+00 0.380E+00 -.911E+03   0.677E-01 -.256E-01 -.280E+00   -.193E+00 0.150E+00 -.478E+00
   -.626E+00 -.480E+00 0.912E+03   0.505E+00 0.377E+00 -.911E+03   -.717E-01 -.248E-01 -.280E+00   0.214E+00 0.144E+00 -.485E+00
   0.127E-01 0.337E+00 0.912E+03   -.465E-02 -.571E+00 -.911E+03   0.148E-03 0.616E-01 -.746E+00   -.809E-02 0.150E+00 -.360E+00
   -.105E-05 -.115E+01 0.912E+03   0.679E-03 0.603E+00 -.911E+03   0.146E-03 0.466E+00 -.760E+00   -.874E-03 0.796E-01 -.379E+00
   0.378E+00 -.115E+00 0.912E+03   -.568E+00 0.239E+00 -.911E+03   0.418E-01 -.309E-01 -.753E+00   0.128E+00 -.822E-01 -.343E+00
   -.378E+00 -.130E+00 0.912E+03   0.567E+00 0.244E+00 -.911E+03   -.421E-01 -.313E-01 -.753E+00   -.127E+00 -.722E-01 -.336E+00
   0.396E-01 -.342E+01 -.903E+03   -.315E-01 0.331E+01 0.903E+03   0.170E-02 0.856E-01 0.661E+00   -.101E-01 0.119E-01 -.459E+00
   -.143E+02 -.871E+01 -.909E+03   0.161E+02 0.976E+01 0.911E+03   -.125E+01 -.708E+00 -.114E+01   -.593E+00 -.335E+00 -.108E+01
   0.142E+02 -.872E+01 -.909E+03   -.161E+02 0.978E+01 0.912E+03   0.125E+01 -.708E+00 -.114E+01   0.581E+00 -.340E+00 -.109E+01
   -.658E+01 0.350E+01 -.900E+03   0.684E+01 -.371E+01 0.900E+03   0.173E+00 -.701E-01 0.385E+00   -.407E+00 0.260E+00 -.590E+00
   -.201E-01 0.163E+02 -.911E+03   0.280E-01 -.184E+02 0.913E+03   0.148E-02 0.144E+01 -.104E+01   -.966E-02 0.637E+00 -.102E+01
   0.660E+01 0.353E+01 -.900E+03   -.687E+01 -.373E+01 0.900E+03   -.173E+00 -.700E-01 0.385E+00   0.412E+00 0.255E+00 -.591E+00
   0.260E+01 0.221E+01 -.904E+03   -.250E+01 -.209E+01 0.903E+03   -.599E-01 -.824E-01 0.775E+00   -.320E-01 -.291E-01 -.479E+00
   -.258E+01 0.224E+01 -.904E+03   0.249E+01 -.212E+01 0.903E+03   0.640E-01 -.826E-01 0.774E+00   0.123E-01 -.295E-01 -.476E+00
   -.142E-01 -.683E+01 -.899E+03   0.841E-02 0.719E+01 0.899E+03   0.145E-04 0.180E+00 0.334E+00   0.567E-02 -.505E+00 -.603E+00
   0.693E-01 0.176E+01 -.266E+04   -.697E-01 -.190E+01 0.265E+04   0.407E-03 0.959E-01 0.171E+01   0.971E-06 0.456E-01 -.234E+00
   0.663E+01 0.709E+01 -.264E+04   -.557E+01 -.539E+01 0.264E+04   -.846E+00 -.127E+01 0.926E+00   -.268E+00 -.531E+00 -.215E+00
   -.669E+01 0.682E+01 -.264E+04   0.564E+01 -.512E+01 0.264E+04   0.847E+00 -.127E+01 0.927E+00   0.268E+00 -.528E+00 -.219E+00
   0.702E+01 -.207E+00 -.264E+04   -.479E+01 0.315E+00 0.264E+04   -.163E+01 -.129E+00 0.904E+00   -.692E+00 0.187E-01 -.211E+00
   -.663E+01 -.178E+00 -.264E+04   0.441E+01 0.285E+00 0.264E+04   0.162E+01 -.130E+00 0.908E+00   0.692E+00 0.209E-01 -.212E+00
   -.189E+01 -.441E+01 -.264E+04   0.261E+01 0.276E+01 0.264E+04   -.491E+00 0.123E+01 0.147E+01   -.317E+00 0.514E+00 -.233E+00
   0.183E+01 -.418E+01 -.264E+04   -.256E+01 0.253E+01 0.264E+04   0.491E+00 0.123E+01 0.146E+01   0.321E+00 0.514E+00 -.230E+00
   0.637E-01 0.101E+01 -.266E+04   -.547E-01 -.941E+00 0.266E+04   0.243E-02 -.340E-01 0.190E+01   -.115E-01 -.368E-01 -.349E+00
   -.209E+00 -.318E+01 -.108E+04   0.209E+00 0.317E+01 0.108E+04   -.164E-02 -.151E-01 0.139E+01   0.993E-03 0.212E-03 -.294E-01
   0.667E+02 0.414E+02 -.293E+03   -.734E+02 -.456E+02 0.295E+03   0.670E+01 0.421E+01 -.198E+01   -.295E-01 -.226E-01 0.668E-01
   -.666E+02 0.415E+02 -.293E+03   0.732E+02 -.457E+02 0.295E+03   -.668E+01 0.422E+01 -.203E+01   0.291E-01 -.228E-01 0.670E-01
   -.304E+00 -.544E+02 -.164E+04   0.371E+00 0.956E+02 0.163E+04   -.596E-01 -.412E+02 0.921E+01   -.571E-02 -.115E-01 0.672E+00
   0.655E-01 0.331E+02 0.141E+02   -.712E-13 0.128E-12 -.614E-11   -.333E-01 -.330E+02 -.311E+01   -.343E-01 -.960E-01 -.110E+02

 POSITION                                       TOTAL-FORCE (eV/Angst)
      0.00000      0.00000      5.28219         0.000103      0.004634     -0.031835
      2.93046      0.00000      5.28219         0.000520      0.000776      0.026627
      5.86091      0.00000      5.28219        -0.000481      0.000692      0.026612
      1.46523      2.53785      5.28219        -0.003741     -0.004395      0.027939
      4.39568      2.53785      5.28219         0.000226     -0.003556      0.019475
      7.32614      2.53785      5.28219         0.003899     -0.004335      0.027984
      2.93046      5.07570      5.28219        -0.001883      0.002549      0.031306
      5.86091      5.07570      5.28219         0.001951      0.002539      0.031328
      8.79137      5.07570      5.28219        -0.000142      0.001787      0.004891
      1.46523      0.84595      7.67490         0.008399      0.004863     -0.034516
      4.39568      0.84595      7.67490         0.000327     -0.029652     -0.063857
      7.32614      0.84595      7.67490        -0.008319      0.004819     -0.034633
      2.93046      3.38380      7.67490        -0.020598      0.016722     -0.065369
      5.86091      3.38380      7.67490         0.021108      0.016666     -0.065337
      8.79137      3.38380      7.67490         0.000109     -0.023359     -0.010152
      4.39568      5.92165      7.67490         0.000004     -0.005282     -0.040669
      7.32614      5.92165      7.67490        -0.020302      0.010269     -0.006513
     10.25659      5.92165      7.67490         0.020470      0.010195     -0.006508
      8.79137      1.69254     10.05636        -0.000223     -0.010952     -0.016058
      2.93602      1.69511     10.03837         0.001847      0.009271     -0.032031
      5.85534      1.69511     10.03837        -0.002014      0.009285     -0.031743
     10.25423      4.23112     10.05516         0.027685     -0.020959     -0.000168
      4.39568      4.22332     10.03837        -0.000187      0.009738      0.000862
      7.32851      4.23112     10.05516        -0.027710     -0.021039     -0.000060
     11.72126      6.76728     10.05636         0.013846      0.008833     -0.007115
      5.86147      6.76728     10.05636        -0.014215      0.008833     -0.007171
      8.79137      6.76486     10.05516        -0.000011      0.036740     -0.010425
      0.00000      0.00000     12.42937         0.000037     -0.001122      0.053073
      2.95945      0.04653     12.45339        -0.058368     -0.094363     -0.069858
      5.83191      0.04653     12.45339         0.058166     -0.093394     -0.069290
      1.52003      2.53970     12.45339        -0.097072     -0.001746     -0.067880
      7.27134      2.53970     12.45339         0.095285     -0.001855     -0.066548
      2.95626      5.02732     12.45339        -0.086958      0.096530     -0.093181
      5.83511      5.02732     12.45339         0.086862      0.095854     -0.092939
      8.79137      5.07570     12.43676        -0.000138      0.002245      0.060961
      4.39568      2.53785     12.21669        -0.000352     -0.032678      0.639413
      3.60174      2.02306     14.62722         0.004287      0.004916     -0.004022
      5.17856      2.02170     14.63351        -0.003609      0.004310     -0.005980
      4.39167      2.55319     14.38266         0.001191     -0.014378     -0.016613
    total drift:                               -0.002095     -0.004242     -0.081648

  FREE ENERGIE OF THE ION-ELECTRON SYSTEM (eV)
  free  energy   TOTEN  =      -110.23978346 eV

  energy  without entropy=     -110.23978346  energy(sigma->0) =     -110.23978346

 stress matrix after NEB project (eV)
     -8.23170     -0.00236      0.00375
     -0.00236     -8.24577     -0.03399
      0.00375     -0.03399     -0.14910
  FORCES: max atom, RMS     0.022003    0.003956
  FORCE total and by dimension    0.024703    0.016613
  Stress total and by dimension   11.652391    8.245773
|           W    W    AA    RRRRR   N    N  II  N    N   GGGG   !!!           |
|           W    W   A  A   R    R  NN   N  II  NN   N  G    G  !!!           |
|           W    W  A    A  R    R  N N  N  II  N N  N  G       !!!           |
|           W WW W  AAAAAA  RRRRR   N  N N  II  N  N N  G  GGG   !            |
|           WW  WW  A    A  R   R   N   NN  II  N   NN  G    G                |
|           W    W  A    A  R    R  N    N  II  N    N   GGGG   !!!           |
|     Tetrahedron method does not include variations of the Fermi             |
|     occupations, so forces and stress will be inaccurate. We suggest        |
|     using a different smearing scheme ISMEAR = 1 or 2 for metals in         |
|     relaxations.                                                            |

 total charge

# of ion       s       p       d       tot
    1        0.421   0.200   9.177   9.798
    2        0.416   0.203   9.177   9.796
    3        0.416   0.203   9.177   9.796
    4        0.416   0.203   9.177   9.796
    5        0.419   0.202   9.176   9.797
    6        0.416   0.203   9.177   9.796
    7        0.415   0.203   9.177   9.796
    8        0.415   0.203   9.177   9.796
    9        0.415   0.203   9.177   9.795
   10        0.410   0.268   9.163   9.841
   11        0.408   0.267   9.168   9.843
   12        0.410   0.268   9.163   9.841
   13        0.406   0.268   9.168   9.842
   14        0.406   0.268   9.168   9.842
   15        0.404   0.268   9.165   9.837
   16        0.410   0.268   9.162   9.840
   17        0.403   0.268   9.165   9.836
   18        0.403   0.268   9.165   9.836
   19        0.406   0.265   9.165   9.836
   20        0.439   0.298   9.136   9.874
   21        0.439   0.298   9.136   9.874
   22        0.396   0.274   9.165   9.834
   23        0.438   0.299   9.136   9.872
   24        0.396   0.274   9.165   9.834
   25        0.404   0.265   9.166   9.835
   26        0.404   0.265   9.166   9.835
   27        0.397   0.273   9.165   9.835
   28        0.410   0.202   9.172   9.784
   29        0.440   0.219   9.155   9.815
   30        0.440   0.219   9.155   9.814
   31        0.441   0.217   9.156   9.815
   32        0.441   0.217   9.156   9.815
   33        0.435   0.212   9.162   9.808
   34        0.435   0.212   9.162   9.808
   35        0.405   0.203   9.175   9.783
   36        0.405   0.402   3.286   4.093
   37        0.598   0.117   0.000   0.715
   38        0.599   0.117   0.000   0.715
   39        1.568   3.615   0.000   5.183
tot         17.743  12.697 324.059 354.499

 BZINTS: Fermi energy:    0.491984;  398.000000 electrons
         Band energy:-0.148607E+04;  BLOECHL correction:   -0.014075