 vasp.6.2.0 18Jan21 (build Jun 12 2021 23:27:24) complex

 executed on             LinuxIFC date 2022.05.26  19:35:13

 INCAR:
   ISMEAR = -5
   SIGMA = 0.1
   ISPIN = 1
   EDIFF = 1.d-5
   EDIFFG = -0.01
   NSW = 0
   NELM = 150
   ENCUT = 500
   ISIF = 2
   IBRION = 2
   LREAL = Auto
   ALGO = Fast
   ICHARG = 11
   LORBIT = 10
   LCHARG = .F.
   LWAVE = .F.

 POTCAR:    PAW_PBE Au 04Oct2007
 POTCAR:    PAW_PBE Ir 06Sep2000
 POTCAR:    PAW_PBE N 08Apr2002
|           W    W    AA    RRRRR   N    N  II  N    N   GGGG   !!!           |
|           W    W   A  A   R    R  NN   N  II  NN   N  G    G  !!!           |
|           W    W  A    A  R    R  N N  N  II  N N  N  G       !!!           |
|           W WW W  AAAAAA  RRRRR   N  N N  II  N  N N  G  GGG   !            |
|           WW  WW  A    A  R   R   N   NN  II  N   NN  G    G                |
|           W    W  A    A  R    R  N    N  II  N    N   GGGG   !!!           |
|     For optimal performance we recommend to set                             |
|       NCORE = 2 up to number-of-cores-per-socket                            |
|     This setting can greatly improve the performance of VASP for DFT.       |
|     The default, NCORE=1 might be grossly inefficient on modern             |
|     multi-core architectures or massively parallel machines. Do your        |
|     Unfortunately you need to use the default for GW and RPA                |
|     calculations (for HF NCORE is supported but not extensively tested      |
|     yet).                                                                   |

 POTCAR:    PAW_PBE Au 04Oct2007
   VRHFIN =Au: s1d10

   TITEL  = PAW_PBE Au 04Oct2007
   POMASS =  196.966; ZVAL   =   11.000    mass and valenz
   ENMAX  =  229.943; ENMIN  =  172.457 eV

 POTCAR:    PAW_PBE Ir 06Sep2000
   VRHFIN =Ir: s1d8

   TITEL  = PAW_PBE Ir 06Sep2000
   POMASS =  192.220; ZVAL   =    9.000    mass and valenz
   ENMAX  =  210.864; ENMIN  =  158.148 eV

 POTCAR:    PAW_PBE N 08Apr2002
   VRHFIN =N: s2p3

   TITEL  = PAW_PBE N 08Apr2002
   POMASS =   14.001; ZVAL   =    5.000    mass and valenz
   ENMAX  =  400.000; ENMIN  =  300.000 eV

 Optimization of the real space projectors (new method)

 maximal supplied QI-value         = 15.12
 optimisation between [QCUT,QGAM] = [ 11.34, 22.83] = [ 36.00,145.93] Ry
 Optimized for a Real-space Cutoff    1.39 Angstroem

   l    n(q)    QCUT    max X(q) W(low)/X(q) W(high)/X(q)  e(spline)
   2      9    11.338    60.898    0.39E-03    0.42E-03    0.21E-06
   2      9    11.338    58.894    0.40E-03    0.42E-03    0.22E-06
   0      9    11.338   109.617    0.13E-03    0.20E-04    0.13E-06
   0      9    11.338    75.026    0.13E-03    0.20E-04    0.13E-06
   1      9    11.338    16.344    0.33E-04    0.24E-03    0.18E-06
   1      9    11.338    10.160    0.26E-04    0.19E-03    0.15E-06
 Optimization of the real space projectors (new method)

[...]

   l    n(q)    QCUT    max X(q) W(low)/X(q) W(high)/X(q)  e(spline)
   2      9    11.346   134.116    0.47E-03    0.13E-03    0.92E-06
   2      9    11.346   130.192    0.47E-03    0.13E-03    0.92E-06
   0     10    11.346    60.310    0.74E-04    0.13E-03    0.69E-06
   0     10    11.346    39.218    0.68E-04    0.12E-03    0.65E-06
   1     10    11.346    18.439    0.15E-03    0.34E-04    0.20E-06
   1     10    11.346    12.760    0.12E-03    0.31E-04    0.16E-06
 Optimization of the real space projectors (new method)

 maximal supplied QI-value         = 25.13
 optimisation between [QCUT,QGAM] = [ 11.31, 22.87] = [ 35.82,146.48] Ry
 Optimized for a Real-space Cutoff    1.27 Angstroem

   l    n(q)    QCUT    max X(q) W(low)/X(q) W(high)/X(q)  e(spline)
   0      9    11.310    79.467    0.75E-04    0.16E-03    0.36E-06
   0      9    11.310    66.151    0.74E-04    0.16E-03    0.36E-06
   1      8    11.310    17.416    0.35E-03    0.12E-03    0.95E-06
   1      8    11.310    12.382    0.37E-03    0.13E-03    0.98E-06
  PAW_PBE Au 04Oct2007                  :
  PAW_PBE Ir 06Sep2000                  :
  PAW_PBE N 08Apr2002                   :

 POSCAR: Au-Ir-N
  positions in direct lattice
  velocities in cartesian coordinates
 exchange correlation table for  LEXCH =        8
   RHO(1)=    0.500       N(1)  =     2000
   RHO(2)=  100.500       N(2)  =     4000

 VTST: version 3.2, (02/03/18)

 CHAIN: initializing optimizer

 OPT: Using VASP Conjugate-Gradient optimizer
 CHAIN: Read ICHAIN            0

 POSCAR: Au-Ir-N
  positions in direct lattice
  velocities in cartesian coordinates

 ion  position               nearest neighbor table
   1  0.000  0.000  0.238-  16 2.94  12 2.94   6 2.94   8 2.94   7 2.94   3 2.94  10 2.94   4 2.94
                             2 2.94
   2  0.333  0.000  0.238-   9 2.94  11 2.94  17 2.94  10 2.94   8 2.94   4 2.94   5 2.94   1 2.94
                             3 2.94
   3  0.667  0.000  0.238-   7 2.94  18 2.94  12 2.94   1 2.94  11 2.94   5 2.94   6 2.94   9 2.94
                             2 2.94
   4  0.000  0.333  0.238-  10 2.94   6 2.94   5 2.94  13 2.94   2 2.94  15 2.94   9 2.94   1 2.94
                             7 2.94
   5  0.333  0.333  0.238-  13 2.94   7 2.94  11 2.94   4 2.94   2 2.94  14 2.94   3 2.94   8 2.94
                             6 2.94
   6  0.667  0.333  0.238-  15 2.94  14 2.94   1 2.94  12 2.94   4 2.94   9 2.94   8 2.94   3 2.94
                             5 2.94
   7  0.000  0.667  0.238-  18 2.94   3 2.94  16 2.94   5 2.94   1 2.94  13 2.94   8 2.94   4 2.94
                             9 2.94
   8  0.333  0.667  0.238-   9 2.94  17 2.94   1 2.94   2 2.94  14 2.94  16 2.94   6 2.94   7 2.94
                             5 2.94
   9  0.667  0.667  0.238-   2 2.94   8 2.94  17 2.94   6 2.94  15 2.94   4 2.94   3 2.94  18 2.94
                             7 2.94
  10  0.111  0.111  0.346-  20 2.90  11 2.94  17 2.94   2 2.94   4 2.94   1 2.94  12 2.94  16 2.94
                            13 2.94  15 2.94  26 2.94  19 2.94
  11  0.444  0.111  0.346-  20 2.91  21 2.91  27 2.93  13 2.94   2 2.94  10 2.94  17 2.94   5 2.94
                             3 2.94  18 2.94  14 2.94  12 2.94
  12  0.778  0.111  0.346-  21 2.90  16 2.94  18 2.94   1 2.94  14 2.94  15 2.94   3 2.94   6 2.94
                            10 2.94  11 2.94  25 2.94  19 2.94
  13  0.111  0.444  0.346-  23 2.91  20 2.91  22 2.93   5 2.94  18 2.94  11 2.94   7 2.94   4 2.94
                            16 2.94  10 2.94  14 2.94  15 2.94
  14  0.444  0.444  0.346-  21 2.91  23 2.91  24 2.93  15 2.94   6 2.94  12 2.94   8 2.94  17 2.94
                             5 2.94  16 2.94  13 2.94  11 2.94
  15  0.778  0.444  0.346-  24 2.92  22 2.92  14 2.94   6 2.94  17 2.94  12 2.94   9 2.94   4 2.94
                            10 2.94  13 2.94  18 2.94  19 2.94
  16  0.111  0.778  0.346-  23 2.90  18 2.94  12 2.94   7 2.94   1 2.94   8 2.94  13 2.94  10 2.94
                            14 2.94  17 2.94  25 2.94  26 2.94
  17  0.444  0.778  0.346-  27 2.92  24 2.92   9 2.94  15 2.94   2 2.94  10 2.94  11 2.94   8 2.94
                            14 2.94  16 2.94  18 2.94  26 2.94
  18  0.778  0.778  0.346-  22 2.92  27 2.92  16 2.94   7 2.94  13 2.94  12 2.94   3 2.94  11 2.94
                             9 2.94  15 2.94  17 2.94  25 2.94
  19  0.889  0.223  0.454-  21 2.93  20 2.93  24 2.93  22 2.93  15 2.94  10 2.94  12 2.94  26 2.95
                            25 2.95  28 2.95  32 2.96  31 2.96
  20  0.222  0.222  0.452-  36 2.78  10 2.90  11 2.91  13 2.91  26 2.93  19 2.93  29 2.95  31 2.95
                            27 2.95  22 2.95  23 2.95  21 2.95
  21  0.557  0.222  0.452-  36 2.78  12 2.90  14 2.91  11 2.91  25 2.93  19 2.93  30 2.95  32 2.95
                            24 2.95  27 2.95  20 2.95  23 2.95
  22  0.887  0.557  0.453-  24 2.91  27 2.91  18 2.92  15 2.92  13 2.93  25 2.93  19 2.93  23 2.95
                            20 2.95  35 2.95  33 2.96  31 2.96
  23  0.222  0.557  0.452-  36 2.78  16 2.90  13 2.91  14 2.91  25 2.93  26 2.93  33 2.95  34 2.95
                            22 2.95  24 2.95  20 2.95  21 2.95
  24  0.557  0.557  0.453-  27 2.91  22 2.91  15 2.92  17 2.92  14 2.93  26 2.93  19 2.93  21 2.95
                            23 2.95  35 2.95  32 2.96  34 2.96
  25  0.889  0.889  0.454-  23 2.93  21 2.93  22 2.93  27 2.93  18 2.94  16 2.94  12 2.94  19 2.95
                            26 2.95  28 2.95  33 2.96  30 2.96
  26  0.223  0.889  0.454-  20 2.93  23 2.93  27 2.93  24 2.93  17 2.94  10 2.94  16 2.94  19 2.95
                            25 2.95  28 2.95  29 2.96  34 2.96
  27  0.557  0.887  0.453-  24 2.91  22 2.91  17 2.92  18 2.92  11 2.93  26 2.93  25 2.93  20 2.95
                            21 2.95  35 2.95  29 2.96  30 2.96
  28  0.000  0.000  0.563-  25 2.95  19 2.95  26 2.95  34 2.96  32 2.96  33 2.96  30 2.96  31 2.96
                            29 2.96
  29  0.333  0.005  0.562-  31 2.89  30 2.89  36 2.90  20 2.95  28 2.96  35 2.96  27 2.96  26 2.96
                            34 3.03
  30  0.661  0.005  0.562-  32 2.89  29 2.89  36 2.90  21 2.95  28 2.96  35 2.96  27 2.96  25 2.96
                            33 3.03
  31  0.005  0.333  0.562-  29 2.89  33 2.89  36 2.90  20 2.95  28 2.96  35 2.96  22 2.96  19 2.96
                            32 3.03
  32  0.661  0.333  0.562-  30 2.89  34 2.89  36 2.90  21 2.95  28 2.96  35 2.96  24 2.96  19 2.96
                            31 3.03
  33  0.005  0.661  0.562-  34 2.89  31 2.89  36 2.90  23 2.95  28 2.96  35 2.96  22 2.96  25 2.96
                            30 3.03
  34  0.333  0.661  0.562-  33 2.89  32 2.89  36 2.90  23 2.95  28 2.96  35 2.96  24 2.96  26 2.96
                            29 3.03
  35  0.667  0.667  0.563-  24 2.95  27 2.95  22 2.95  29 2.96  34 2.96  32 2.96  31 2.96  30 2.96
                            33 2.96
  36  0.333  0.333  0.551-  37 1.70  20 2.78  23 2.78  21 2.78  33 2.90  31 2.90  29 2.90  30 2.90
                            34 2.90  32 2.90
  37  0.333  0.333  0.628-  36 1.70

  LATTYP: Found a hexagonal cell.
 ALAT       =     8.8135128021
 C/A-ratio  =     2.5184286595

  Lattice vectors:

 A1 = (  -4.4067569092,  -7.6327256898,   0.0000000000)
 A2 = (   8.8135128021,   0.0000000000,   0.0000000000)
 A3 = (   0.0000000000,   0.0000000000,  22.1962032318)

Analysis of symmetry for initial positions (statically):
 Subroutine PRICEL returns:
 Original cell was already a primitive cell.

 Routine SETGRP: Setting up the symmetry group for a
 hexagonal supercell.

 Subroutine GETGRP returns: Found  6 space group operations
 (whereof  6 operations were pure point group operations)
 out of a pool of 24 trial point group operations.

The static configuration has the point symmetry C_3v.

Analysis of symmetry for dynamics (positions and initial velocities):
 Subroutine PRICEL returns:
 Original cell was already a primitive cell.

[...]

The dynamic configuration has the point symmetry C_3v.

Analysis of constrained symmetry for selective dynamics:
 Subroutine PRICEL returns:
 Original cell was already a primitive cell.

 Routine SETGRP: Setting up the symmetry group for a
 hexagonal supercell.

 Subroutine GETGRP returns: Found  6 space group operations
[...]
     24      -5.0758      2.00000
     25      -5.0595      2.00000
     26      -5.0302      2.00000
     27      -4.9912      2.00000
     28      -4.9198      2.00000
     29      -4.9097      2.00000
     30      -4.8344      2.00000
     31      -4.8053      2.00000
     32      -4.7812      2.00000
     33      -4.7629      2.00000
     34      -4.7366      2.00000
     35      -4.6990      2.00000
     36      -4.6846      2.00000
     37      -4.6538      2.00000
     38      -4.6237      2.00000
     39      -4.5919      2.00000
     40      -4.5811      2.00000
     41      -4.4873      2.00000
     42      -4.4454      2.00000
     43      -4.3780      2.00000
     44      -4.3608      2.00000
     45      -4.2731      2.00000
     46      -4.2487      2.00000
     47      -4.2128      2.00000
     48      -4.1932      2.00000
     49      -4.1597      2.00000
     50      -4.1239      2.00000
     51      -4.1107      2.00000
     52      -4.0956      2.00000
     53      -4.0772      2.00000
     54      -4.0639      2.00000
     55      -4.0378      2.00000
     56      -3.9818      2.00000
     57      -3.9662      2.00000
     58      -3.9556      2.00000
     59      -3.9282      2.00000
     60      -3.9201      2.00000
[...]
    238       6.5283      0.00000
    239       6.5546      0.00000
    240       6.5815      0.00000
    241       6.7256      0.00000
    242       6.8227      0.00000
    243       6.8598      0.00000
    244       6.8952      0.00000
    245       6.9141      0.00000
    246       7.2104      0.00000
    247       7.2407      0.00000
    248       7.3576      0.00000
    249       7.5649      0.00000
    250       7.6784      0.00000
    251       7.8109      0.00000
    252       7.8513      0.00000

 soft charge-density along one line, spin component           1
         0         1         2         3         4         5         6         7         8         9
 total charge-density along one line

------------------------ aborting loop because EDIFF is reached ----------------------------------------

 total charge

# of ion       s       p       d       tot
    1        0.545   0.238   8.767   9.550
    2        0.543   0.241   8.765   9.549
    3        0.543   0.241   8.765   9.549
    4        0.543   0.241   8.765   9.549
    5        0.544   0.241   8.765   9.550
    6        0.543   0.241   8.765   9.549
    7        0.543   0.241   8.765   9.549
    8        0.543   0.241   8.765   9.549
    9        0.540   0.241   8.764   9.545
   10        0.523   0.308   8.770   9.601
   11        0.518   0.312   8.775   9.604
   12        0.523   0.308   8.770   9.601
   13        0.518   0.312   8.775   9.604
   14        0.518   0.312   8.775   9.604
   15        0.514   0.309   8.773   9.597
   16        0.523   0.308   8.770   9.601
   17        0.514   0.309   8.773   9.597
   18        0.514   0.309   8.773   9.597
   19        0.517   0.303   8.774   9.593
   20        0.547   0.335   8.749   9.632
   21        0.547   0.335   8.749   9.632
   22        0.511   0.309   8.774   9.594
   23        0.547   0.335   8.749   9.632
   24        0.511   0.309   8.774   9.594
   25        0.517   0.303   8.774   9.593
   26        0.517   0.303   8.774   9.593
   27        0.511   0.309   8.774   9.594
   28        0.542   0.227   8.772   9.541
   29        0.532   0.244   8.773   9.549
   30        0.532   0.244   8.773   9.549
   31        0.532   0.244   8.773   9.549
   32        0.532   0.244   8.773   9.549
   33        0.532   0.244   8.773   9.549
   34        0.532   0.244   8.773   9.549
   35        0.538   0.228   8.774   9.539
   36        0.704   0.702   7.069   8.475
   37        1.361   2.156   0.000   3.517
tot         20.612  12.572 313.987 347.172

  FORCE on cell =-STRESS in cart. coord.  units (eV):
  Direction    XX          YY          ZZ          XY          YZ          ZX
  Alpha Z  1029.96742  1029.96742  1029.96742
  Ewald  119910.31038119910.31081************    -0.00033    -0.00008    -0.00013
  Hartree128627.69314128627.69315************     0.00000    -0.00002    -0.00003
  E(xc)   -1789.82414 -1789.82413 -1796.36441    -0.00001    -0.00000    -0.00000
  Local  ************************261112.52416     0.00193     0.00002     0.00001
  n-local   -95.58900   -46.91870   -44.03275    24.15911    -1.36645     1.55993
  augment  2409.68022  2409.68177  2414.80309    -0.00134     0.00001     0.00005
  Kinetic  5561.71611  5568.09105  5586.92687     4.28582     0.45137     0.20110
  Fock        0.00000     0.00000     0.00000     0.00000     0.00000     0.00000
  Total     -17.60393   -17.60393     2.14482    -0.00000     0.00000    -0.00000
  in kB     -18.88917   -18.88917     2.30141    -0.00000     0.00000    -0.00000

 VOLUME and BASIS-vectors are now :
  energy-cutoff  :      500.00
  volume of cell :     1493.16
      direct lattice vectors                 reciprocal lattice vectors
     8.813512802  0.000000000  0.000000000     0.113462137 -0.065507406  0.000000000
     4.406756909  7.632725690  0.000000000     0.000000000  0.131014796  0.000000000
     0.000000000  0.000000000 22.196203232     0.000000000  0.000000000  0.045052750

  length of vectors
     8.813512802  8.813512802 22.196203232     0.131014796  0.131014796  0.045052750

 FORCES acting on ions
    electron-ion (+dipol)            ewald-force                    non-local-force                 convergence-correction
   -.196E-04 -.162E-04 0.249E+04   0.519E-04 0.434E-04 -.249E+04   0.383E-17 -.462E-17 -.787E+00   -.296E-03 -.184E-03 -.818E-01
   0.460E+00 0.433E+00 0.249E+04   -.538E+00 -.348E+00 -.249E+04   0.396E-01 0.767E-01 -.318E+00   0.379E-01 -.152E+00 -.159E+00
   -.460E+00 0.433E+00 0.249E+04   0.538E+00 -.348E+00 -.249E+04   -.396E-01 0.767E-01 -.318E+00   -.375E-01 -.150E+00 -.158E+00
   0.605E+00 0.182E+00 0.249E+04   -.570E+00 -.292E+00 -.249E+04   0.863E-01 -.405E-02 -.318E+00   -.112E+00 0.109E+00 -.159E+00
   0.851E-05 -.233E-04 0.249E+04   0.952E-04 0.174E-05 -.249E+04   -.323E-17 -.313E-18 -.275E+00   0.432E-02 0.263E-02 -.166E+00
   -.605E+00 0.182E+00 0.249E+04   0.570E+00 -.292E+00 -.249E+04   -.863E-01 -.405E-02 -.318E+00   0.111E+00 0.109E+00 -.158E+00
   0.145E+00 -.615E+00 0.249E+04   -.325E-01 0.640E+00 -.249E+04   0.466E-01 -.727E-01 -.318E+00   -.148E+00 0.424E-01 -.158E+00
   -.145E+00 -.615E+00 0.249E+04   0.324E-01 0.640E+00 -.249E+04   -.466E-01 -.727E-01 -.318E+00   0.150E+00 0.412E-01 -.158E+00
   0.193E-04 -.416E-04 0.249E+04   0.166E-03 -.201E-04 -.249E+04   -.114E-19 0.238E-17 -.483E+00   -.456E-02 -.236E-02 -.159E+00
   0.616E+01 0.355E+01 0.849E+03   -.568E+01 -.328E+01 -.848E+03   -.327E+00 -.189E+00 -.624E+00   -.145E+00 -.841E-01 -.139E+00
   0.139E-04 0.417E+01 0.854E+03   0.149E-03 -.415E+01 -.854E+03   0.564E-08 0.847E-01 -.231E+00   0.437E-02 -.162E+00 -.169E+00
   -.616E+01 0.355E+01 0.849E+03   0.568E+01 -.328E+01 -.848E+03   0.327E+00 -.189E+00 -.624E+00   0.144E+00 -.829E-01 -.138E+00
   0.361E+01 -.208E+01 0.854E+03   -.359E+01 0.207E+01 -.854E+03   0.733E-01 -.423E-01 -.231E+00   -.138E+00 0.851E-01 -.169E+00
   -.361E+01 -.208E+01 0.854E+03   0.359E+01 0.207E+01 -.854E+03   -.733E-01 -.423E-01 -.231E+00   0.146E+00 0.840E-01 -.169E+00
   0.309E-04 0.306E+01 0.851E+03   0.236E-03 -.315E+01 -.850E+03   -.217E-08 -.326E-01 -.426E+00   -.250E-02 0.813E-01 -.122E+00
   -.214E-04 -.711E+01 0.849E+03   0.163E-03 0.656E+01 -.848E+03   0.251E-07 0.378E+00 -.624E+00   -.175E-03 0.166E+00 -.138E+00
   0.265E+01 -.153E+01 0.851E+03   -.273E+01 0.157E+01 -.850E+03   -.283E-01 0.163E-01 -.426E+00   0.694E-01 -.424E-01 -.122E+00
   -.265E+01 -.153E+01 0.851E+03   0.273E+01 0.157E+01 -.850E+03   0.283E-01 0.163E-01 -.426E+00   -.688E-01 -.400E-01 -.121E+00
   -.414E-04 0.440E+01 -.831E+03   0.531E-04 -.443E+01 0.830E+03   -.741E-09 -.111E-01 0.538E+00   -.466E-02 -.287E-02 -.138E+00
   0.139E+02 0.802E+01 -.786E+03   -.128E+02 -.738E+01 0.787E+03   -.785E+00 -.453E+00 -.454E+00   -.289E+00 -.167E+00 -.212E+00
   -.139E+02 0.802E+01 -.786E+03   0.128E+02 -.738E+01 0.787E+03   0.785E+00 -.453E+00 -.454E+00   0.291E+00 -.167E+00 -.213E+00
   0.220E+00 -.127E+00 -.817E+03   -.325E+00 0.188E+00 0.817E+03   0.356E+00 -.205E+00 0.696E+00   -.209E+00 0.123E+00 -.163E+00
   -.132E-04 -.160E+02 -.786E+03   0.143E-03 0.148E+02 0.787E+03   0.603E-07 0.906E+00 -.454E+00   0.467E-03 0.336E+00 -.213E+00
   -.220E+00 -.127E+00 -.817E+03   0.325E+00 0.188E+00 0.817E+03   -.356E+00 -.205E+00 0.696E+00   0.209E+00 0.121E+00 -.163E+00
   -.381E+01 -.220E+01 -.831E+03   0.383E+01 0.221E+01 0.830E+03   0.964E-02 0.557E-02 0.538E+00   -.188E-02 -.115E-02 -.139E+00
   0.381E+01 -.220E+01 -.831E+03   -.383E+01 0.221E+01 0.830E+03   -.964E-02 0.557E-02 0.538E+00   -.449E-02 -.257E-02 -.138E+00
   0.913E-05 0.254E+00 -.817E+03   0.200E-03 -.375E+00 0.817E+03   0.273E-07 0.411E+00 0.696E+00   0.106E-02 -.242E+00 -.163E+00
   -.114E-04 -.121E-04 -.247E+04   0.282E-04 0.336E-04 0.247E+04   0.230E-17 0.114E-17 0.485E+00   -.383E-03 -.239E-03 0.755E-01
   0.224E+02 0.390E+02 -.245E+04   -.224E+02 -.392E+02 0.245E+04   -.778E-01 -.372E-01 0.500E+00   -.968E-01 -.255E+00 0.870E-01
   -.224E+02 0.390E+02 -.245E+04   0.224E+02 -.392E+02 0.245E+04   0.778E-01 -.372E-01 0.500E+00   0.975E-01 -.253E+00 0.861E-01
   0.450E+02 -.151E+00 -.245E+04   -.452E+02 0.182E+00 0.245E+04   -.711E-01 -.487E-01 0.500E+00   -.269E+00 0.433E-01 0.870E-01
   -.450E+02 -.151E+00 -.245E+04   0.452E+02 0.182E+00 0.245E+04   0.711E-01 -.487E-01 0.500E+00   0.267E+00 0.437E-01 0.863E-01
   0.226E+02 -.389E+02 -.245E+04   -.228E+02 0.390E+02 0.245E+04   0.668E-02 0.859E-01 0.500E+00   -.170E+00 0.211E+00 0.861E-01
   -.226E+02 -.389E+02 -.245E+04   0.228E+02 0.390E+02 0.245E+04   -.668E-02 0.859E-01 0.500E+00   0.172E+00 0.210E+00 0.863E-01
   0.300E-04 -.288E-04 -.247E+04   0.145E-03 -.490E-04 0.247E+04   -.850E-19 -.867E-17 0.555E+00   -.429E-02 -.218E-02 0.741E-01
   -.867E-05 -.201E-04 -.173E+04   0.926E-04 0.834E-05 0.173E+04   0.335E-17 0.232E-17 0.857E+00   0.255E-02 0.155E-02 0.122E-02
   0.107E-03 -.615E-04 -.140E+04   0.207E-04 0.131E-05 0.142E+04   -.195E-17 0.168E-17 -.256E+02   0.178E-02 0.109E-02 0.116E+00
   -.626E-03 -.819E-03 0.296E+02   -.115E-12 0.700E-13 -.409E-11   0.209E-15 0.508E-16 -.256E+02   0.146E-02 0.149E-02 -.340E+01

 POSITION                                       TOTAL-FORCE (eV/Angst)
      0.00000      0.00000      5.28038         0.000000      0.000000     -0.111333
      2.93784      0.00000      5.28038         0.000027      0.011052     -0.045296
      5.87568      0.00000      5.28038        -0.000027      0.011052     -0.045296
      1.46892      2.54424      5.28038         0.009585     -0.005503     -0.045296
      4.40676      2.54424      5.28038         0.000000     -0.000000     -0.066402
      7.34459      2.54424      5.28038        -0.009585     -0.005503     -0.045296
      2.93784      5.08848      5.28038         0.009558     -0.005549     -0.045296
      5.87568      5.08848      5.28038        -0.009558     -0.005549     -0.045296
      8.81351      5.08848      5.28038         0.000000      0.000000     -0.062245
      1.46892      0.84808      7.67911        -0.000783     -0.000452      0.122442
      4.40676      0.84808      7.67911        -0.000000     -0.059635      0.031225
      7.34459      0.84808      7.67911         0.000783     -0.000452      0.122442
      2.93784      3.39232      7.67911        -0.051645      0.029817      0.031225
      5.87568      3.39232      7.67911         0.051645      0.029817      0.031225
      8.81351      3.39232      7.67911        -0.000000     -0.046130      0.084792
      4.40676      5.93656      7.67911         0.000000      0.000904      0.122442
      7.34459      5.93656      7.67911        -0.039950      0.023065      0.084792
     10.28243      5.93656      7.67911         0.039950      0.023065      0.084792
      8.81351      1.70038     10.08128        -0.000000     -0.041806     -0.054904
      2.93047      1.69191     10.03818         0.032340      0.018671     -0.133671
      5.88304      1.69191     10.03818        -0.032340      0.018671     -0.133671
     10.26792      4.24878     10.06124         0.040977     -0.023658     -0.019012
      4.40676      4.24891     10.03818        -0.000000     -0.037343     -0.133671
      7.35911      4.24878     10.06124        -0.040977     -0.023658     -0.019012
     11.74770      6.78254     10.08128         0.036205      0.020903     -0.054904
      5.87933      6.78254     10.08128        -0.036205      0.020903     -0.054904
      8.81351      6.76789     10.06124         0.000000      0.047317     -0.019012
      0.00000      0.00000     12.49619         0.000000      0.000000     -0.027318
      2.96082      0.04010     12.48308        -0.249369     -0.483158     -0.158277
      5.85269      0.04010     12.48308         0.249369     -0.483158     -0.158277
      1.51514      2.54410     12.48308        -0.543112      0.025619     -0.158277
      7.29838      2.54410     12.48308         0.543112      0.025619     -0.158277
      2.96107      5.04853     12.48308        -0.293742      0.457539     -0.158277
      5.85244      5.04853     12.48308         0.293742      0.457539     -0.158277
      8.81351      5.08848     12.49171         0.000000      0.000000      0.016373
      4.40676      2.54424     12.23647         0.000000     -0.000000      1.312210
      4.40676      2.54424     13.93845         0.000000     -0.000000      0.067538
    total drift:                                0.000835      0.000672      0.551579

  FREE ENERGIE OF THE ION-ELECTRON SYSTEM (eV)
  free  energy   TOTEN  =      -121.03470970 eV

  energy  without entropy=     -121.03470970  energy(sigma->0) =     -121.03470970

 stress matrix after NEB project (eV)
    -17.60393     -0.00000     -0.00000
     -0.00000    -17.60393      0.00000
      0.00000      0.00000      2.14482
  FORCES: max atom, RMS     0.067538    0.011103
  FORCE total and by dimension    0.067538    0.067538
  Stress total and by dimension   24.987935   17.603930
|           W    W    AA    RRRRR   N    N  II  N    N   GGGG   !!!           |
|           W    W   A  A   R    R  NN   N  II  NN   N  G    G  !!!           |
|           W    W  A    A  R    R  N N  N  II  N N  N  G       !!!           |
|           W WW W  AAAAAA  RRRRR   N  N N  II  N  N N  G  GGG   !            |
|           WW  WW  A    A  R   R   N   NN  II  N   NN  G    G                |
|           W    W  A    A  R    R  N    N  II  N    N   GGGG   !!!           |
|     Tetrahedron method does not include variations of the Fermi             |
|     occupations, so forces and stress will be inaccurate. We suggest        |
|     using a different smearing scheme ISMEAR = 1 or 2 for metals in         |
|     relaxations.                                                            |

 total charge

# of ion       s       p       d       tot
    1        0.545   0.238   8.767   9.550
    2        0.543   0.241   8.765   9.549
    3        0.543   0.241   8.765   9.549
    4        0.543   0.241   8.765   9.549
    5        0.544   0.241   8.765   9.550
    6        0.543   0.241   8.765   9.549
    7        0.543   0.241   8.765   9.549
    8        0.543   0.241   8.765   9.549
    9        0.540   0.241   8.764   9.545
   10        0.523   0.308   8.770   9.601
   11        0.518   0.312   8.775   9.604
   12        0.523   0.308   8.770   9.601
   13        0.518   0.312   8.775   9.604
   14        0.518   0.312   8.775   9.604
   15        0.514   0.309   8.773   9.597
   16        0.523   0.308   8.770   9.601
   17        0.514   0.309   8.773   9.597
   18        0.514   0.309   8.773   9.597
   19        0.517   0.303   8.774   9.593
   20        0.547   0.335   8.749   9.632
   21        0.547   0.335   8.749   9.632
   22        0.511   0.309   8.774   9.594
   23        0.547   0.335   8.749   9.632
   24        0.511   0.309   8.774   9.594
   25        0.517   0.303   8.774   9.593
   26        0.517   0.303   8.774   9.593
   27        0.511   0.309   8.774   9.594
   28        0.542   0.227   8.772   9.541
   29        0.532   0.244   8.773   9.549
   30        0.532   0.244   8.773   9.549
   31        0.532   0.244   8.773   9.549
   32        0.532   0.244   8.773   9.549
   33        0.532   0.244   8.773   9.549
   34        0.532   0.244   8.773   9.549
   35        0.538   0.228   8.774   9.539
   36        0.704   0.702   7.069   8.475
   37        1.361   2.156   0.000   3.517
tot         20.612  12.572 313.987 347.172

 BZINTS: Fermi energy:    0.731252;  399.000000 electrons
         Band energy:-0.121989E+04;  BLOECHL correction:   -0.083119