 vasp.6.2.0 18Jan21 (build Jun 12 2021 23:27:24) complex

 executed on             LinuxIFC date 2022.05.26  19:23:09

 INCAR:
   ISMEAR = -5
   SIGMA = 0.1
   ISPIN = 1
   EDIFF = 1.d-5
   EDIFFG = -0.01
   NSW = 0
   NELM = 150
   ENCUT = 500
   ISIF = 2
   IBRION = 2
   LREAL = Auto
   ALGO = Fast
   ICHARG = 11
   LORBIT = 10
   LCHARG = .F.
   LWAVE = .F.

 POTCAR:    PAW_PBE Au 04Oct2007
 POTCAR:    PAW_PBE Mo 08Apr2002
 POTCAR:    PAW_PBE N 08Apr2002
|           W    W    AA    RRRRR   N    N  II  N    N   GGGG   !!!           |
|           W    W   A  A   R    R  NN   N  II  NN   N  G    G  !!!           |
|           W    W  A    A  R    R  N N  N  II  N N  N  G       !!!           |
|           W WW W  AAAAAA  RRRRR   N  N N  II  N  N N  G  GGG   !            |
|           WW  WW  A    A  R   R   N   NN  II  N   NN  G    G                |
|           W    W  A    A  R    R  N    N  II  N    N   GGGG   !!!           |
|     For optimal performance we recommend to set                             |
|       NCORE = 2 up to number-of-cores-per-socket                            |
|     This setting can greatly improve the performance of VASP for DFT.       |
|     The default, NCORE=1 might be grossly inefficient on modern             |
|     multi-core architectures or massively parallel machines. Do your        |
|     Unfortunately you need to use the default for GW and RPA                |
|     calculations (for HF NCORE is supported but not extensively tested      |
|     yet).                                                                   |

 POTCAR:    PAW_PBE Au 04Oct2007
   VRHFIN =Au: s1d10

   TITEL  = PAW_PBE Au 04Oct2007
   POMASS =  196.966; ZVAL   =   11.000    mass and valenz
   ENMAX  =  229.943; ENMIN  =  172.457 eV

 POTCAR:    PAW_PBE Mo 08Apr2002
   VRHFIN =Mo: 4p5s4d

   TITEL  = PAW_PBE Mo 08Apr2002
   POMASS =   95.940; ZVAL   =    6.000    mass and valenz
   ENMAX  =  224.584; ENMIN  =  168.438 eV

 POTCAR:    PAW_PBE N 08Apr2002
   VRHFIN =N: s2p3

   TITEL  = PAW_PBE N 08Apr2002
   POMASS =   14.001; ZVAL   =    5.000    mass and valenz
   ENMAX  =  400.000; ENMIN  =  300.000 eV

 Optimization of the real space projectors (new method)

 maximal supplied QI-value         = 15.12
 optimisation between [QCUT,QGAM] = [ 11.34, 22.83] = [ 36.00,145.93] Ry
 Optimized for a Real-space Cutoff    1.39 Angstroem

   l    n(q)    QCUT    max X(q) W(low)/X(q) W(high)/X(q)  e(spline)
   2      9    11.338    60.898    0.39E-03    0.42E-03    0.21E-06
   2      9    11.338    58.894    0.40E-03    0.42E-03    0.22E-06
   0      9    11.338   109.617    0.13E-03    0.20E-04    0.13E-06
   0      9    11.338    75.026    0.13E-03    0.20E-04    0.13E-06
   1      9    11.338    16.344    0.33E-04    0.24E-03    0.18E-06
   1      9    11.338    10.160    0.26E-04    0.19E-03    0.15E-06
 Optimization of the real space projectors (new method)

[...]

   l    n(q)    QCUT    max X(q) W(low)/X(q) W(high)/X(q)  e(spline)
   2     10    11.429    80.908    0.27E-03    0.78E-03    0.13E-05
   2     10    11.429    79.000    0.27E-03    0.78E-03    0.13E-05
   0     11    11.429    52.066    0.33E-04    0.97E-04    0.72E-06
   0     11    11.429    24.514    0.27E-04    0.80E-04    0.60E-06
   1     10    11.429    16.033    0.31E-04    0.17E-03    0.36E-06
   1     10    11.429    11.179    0.22E-04    0.13E-03    0.29E-06
 Optimization of the real space projectors (new method)

 maximal supplied QI-value         = 25.13
 optimisation between [QCUT,QGAM] = [ 11.31, 22.87] = [ 35.82,146.48] Ry
 Optimized for a Real-space Cutoff    1.27 Angstroem

   l    n(q)    QCUT    max X(q) W(low)/X(q) W(high)/X(q)  e(spline)
   0      9    11.310    79.467    0.75E-04    0.16E-03    0.36E-06
   0      9    11.310    66.151    0.74E-04    0.16E-03    0.36E-06
   1      8    11.310    17.416    0.35E-03    0.12E-03    0.95E-06
   1      8    11.310    12.382    0.37E-03    0.13E-03    0.98E-06
  PAW_PBE Au 04Oct2007                  :
  PAW_PBE Mo 08Apr2002                  :
  PAW_PBE N 08Apr2002                   :

 POSCAR: Au-Mo-N
  positions in direct lattice
  velocities in cartesian coordinates
 exchange correlation table for  LEXCH =        8
   RHO(1)=    0.500       N(1)  =     2000
   RHO(2)=  100.500       N(2)  =     4000

 VTST: version 3.2, (02/03/18)

 CHAIN: initializing optimizer

 OPT: Using VASP Conjugate-Gradient optimizer
 CHAIN: Read ICHAIN            0

 POSCAR: Au-Mo-N
  positions in direct lattice
  velocities in cartesian coordinates

 ion  position               nearest neighbor table
   1  0.000  0.000  0.238-  16 2.94  12 2.94   6 2.94   8 2.94   7 2.94   3 2.94  10 2.94   4 2.94
                             2 2.94
   2  0.333  0.000  0.238-   9 2.94  11 2.94  17 2.94  10 2.94   8 2.94   4 2.94   5 2.94   1 2.94
                             3 2.94
   3  0.667  0.000  0.238-   7 2.94  18 2.94  12 2.94   1 2.94  11 2.94   5 2.94   6 2.94   9 2.94
                             2 2.94
   4  0.000  0.333  0.238-  10 2.94   6 2.94   5 2.94  13 2.94   2 2.94  15 2.94   9 2.94   1 2.94
                             7 2.94
   5  0.333  0.333  0.238-  13 2.94   7 2.94  11 2.94   4 2.94   2 2.94  14 2.94   3 2.94   8 2.94
                             6 2.94
   6  0.667  0.333  0.238-  15 2.94  14 2.94   1 2.94  12 2.94   4 2.94   9 2.94   8 2.94   3 2.94
                             5 2.94
   7  0.000  0.667  0.238-  18 2.94   3 2.94  16 2.94   5 2.94   1 2.94  13 2.94   8 2.94   4 2.94
                             9 2.94
   8  0.333  0.667  0.238-   9 2.94  17 2.94   1 2.94   2 2.94  14 2.94  16 2.94   6 2.94   7 2.94
                             5 2.94
   9  0.667  0.667  0.238-   2 2.94   8 2.94  17 2.94   6 2.94  15 2.94   4 2.94   3 2.94  18 2.94
                             7 2.94
  10  0.111  0.111  0.346-  20 2.91  11 2.94  17 2.94   2 2.94   4 2.94   1 2.94  12 2.94  16 2.94
                            13 2.94  15 2.94  26 2.95  19 2.95
  11  0.444  0.111  0.346-  20 2.91  21 2.91  13 2.94   2 2.94  10 2.94  17 2.94   5 2.94   3 2.94
                            18 2.94  14 2.94  12 2.94  27 2.94
  12  0.778  0.111  0.346-  21 2.91  16 2.94  18 2.94   1 2.94  14 2.94  15 2.94   3 2.94   6 2.94
                            10 2.94  11 2.94  25 2.95  19 2.95
  13  0.111  0.444  0.346-  23 2.91  20 2.91   5 2.94  18 2.94  11 2.94   7 2.94   4 2.94  16 2.94
                            10 2.94  14 2.94  15 2.94  22 2.94
  14  0.444  0.444  0.346-  21 2.91  23 2.91  15 2.94   6 2.94  12 2.94   8 2.94  17 2.94   5 2.94
                            16 2.94  13 2.94  11 2.94  24 2.94
  15  0.778  0.444  0.346-  24 2.93  22 2.93  14 2.94   6 2.94  17 2.94  12 2.94   9 2.94   4 2.94
                            10 2.94  13 2.94  18 2.94  19 2.95
  16  0.111  0.778  0.346-  23 2.91  18 2.94  12 2.94   7 2.94   1 2.94   8 2.94  13 2.94  10 2.94
                            14 2.94  17 2.94  25 2.95  26 2.95
  17  0.444  0.778  0.346-  27 2.93  24 2.93   9 2.94  15 2.94   2 2.94  10 2.94  11 2.94   8 2.94
                            14 2.94  16 2.94  18 2.94  26 2.95
  18  0.778  0.778  0.346-  22 2.93  27 2.93  16 2.94   7 2.94  13 2.94  12 2.94   3 2.94  11 2.94
                             9 2.94  15 2.94  17 2.94  25 2.95
  19  0.889  0.223  0.455-  24 2.93  22 2.93  21 2.94  20 2.94  28 2.95  26 2.95  25 2.95  15 2.95
                            10 2.95  12 2.95  32 3.02  31 3.02
  20  0.222  0.222  0.453-  36 2.77  11 2.91  13 2.91  10 2.91  23 2.94  21 2.94  26 2.94  19 2.94
                            27 2.95  22 2.95  29 2.98  31 2.98
  21  0.555  0.222  0.453-  36 2.77  14 2.91  11 2.91  12 2.91  20 2.94  23 2.94  25 2.94  19 2.94
                            27 2.95  24 2.95  30 2.98  32 2.98
  22  0.887  0.557  0.454-  24 2.91  27 2.91  18 2.93  15 2.93  25 2.93  19 2.93  13 2.94  35 2.95
                            23 2.95  20 2.95  33 3.00  31 3.00
  23  0.222  0.555  0.453-  36 2.77  13 2.91  14 2.91  16 2.91  20 2.94  21 2.94  25 2.94  26 2.94
                            22 2.95  24 2.95  33 2.98  34 2.98
  24  0.557  0.557  0.454-  27 2.91  22 2.91  15 2.93  17 2.93  26 2.93  19 2.93  14 2.94  35 2.95
                            21 2.95  23 2.95  32 3.00  34 3.00
  25  0.889  0.889  0.455-  22 2.93  27 2.93  23 2.94  21 2.94  28 2.95  19 2.95  26 2.95  18 2.95
                            16 2.95  12 2.95  33 3.02  30 3.02
  26  0.223  0.889  0.455-  27 2.93  24 2.93  20 2.94  23 2.94  28 2.95  19 2.95  25 2.95  17 2.95
                            10 2.95  16 2.95  29 3.02  34 3.02
  27  0.557  0.887  0.454-  24 2.91  22 2.91  17 2.93  18 2.93  26 2.93  25 2.93  11 2.94  35 2.95
                            20 2.95  21 2.95  29 3.00  30 3.00
  28  0.000  0.000  0.563-  25 2.95  19 2.95  26 2.95  34 2.98  32 2.98  33 2.98  30 2.98  31 2.98
                            29 2.98
  29  0.333  0.010  0.565-  30 2.85  31 2.85  36 2.87  20 2.98  35 2.98  28 2.98  27 3.00  26 3.02
                            34 3.11
  30  0.657  0.010  0.565-  29 2.85  32 2.85  36 2.87  21 2.98  35 2.98  28 2.98  27 3.00  25 3.02
                            33 3.11
  31  0.010  0.333  0.565-  33 2.85  29 2.85  36 2.87  20 2.98  35 2.98  28 2.98  22 3.00  19 3.02
                            32 3.11
  32  0.657  0.333  0.565-  34 2.85  30 2.85  36 2.87  21 2.98  35 2.98  28 2.98  24 3.00  19 3.02
                            31 3.11
  33  0.010  0.657  0.565-  31 2.85  34 2.85  36 2.87  23 2.98  35 2.98  28 2.98  22 3.00  25 3.02
                            30 3.11
  34  0.333  0.657  0.565-  32 2.85  33 2.85  36 2.87  23 2.98  35 2.98  28 2.98  24 3.00  26 3.02
                            29 3.11
  35  0.667  0.667  0.563-  24 2.95  27 2.95  22 2.95  29 2.98  34 2.98  32 2.98  31 2.98  30 2.98
                            33 2.98
  36  0.333  0.333  0.551-  37 1.71  20 2.77  23 2.77  21 2.77  33 2.87  31 2.87  29 2.87  30 2.87
                            34 2.87  32 2.87
  37  0.333  0.333  0.628-  36 1.71

  LATTYP: Found a hexagonal cell.
 ALAT       =     8.8135128021
 C/A-ratio  =     2.5184286595

  Lattice vectors:

 A1 = (  -4.4067569092,  -7.6327256898,   0.0000000000)
 A2 = (   8.8135128021,   0.0000000000,   0.0000000000)
 A3 = (   0.0000000000,   0.0000000000,  22.1962032318)

Analysis of symmetry for initial positions (statically):
 Subroutine PRICEL returns:
 Original cell was already a primitive cell.

 Routine SETGRP: Setting up the symmetry group for a
 hexagonal supercell.

 Subroutine GETGRP returns: Found  6 space group operations
 (whereof  6 operations were pure point group operations)
 out of a pool of 24 trial point group operations.

The static configuration has the point symmetry C_3v.

Analysis of symmetry for dynamics (positions and initial velocities):
 Subroutine PRICEL returns:
 Original cell was already a primitive cell.

[...]

The dynamic configuration has the point symmetry C_3v.

Analysis of constrained symmetry for selective dynamics:
 Subroutine PRICEL returns:
 Original cell was already a primitive cell.

 Routine SETGRP: Setting up the symmetry group for a
 hexagonal supercell.

 Subroutine GETGRP returns: Found  6 space group operations
[...]
     24      -5.1022      2.00000
     25      -5.0714      2.00000
     26      -5.0486      2.00000
     27      -5.0225      2.00000
     28      -4.9600      2.00000
     29      -4.9387      2.00000
     30      -4.8471      2.00000
     31      -4.8299      2.00000
     32      -4.8196      2.00000
     33      -4.7689      2.00000
     34      -4.7618      2.00000
     35      -4.7478      2.00000
     36      -4.6872      2.00000
     37      -4.6841      2.00000
     38      -4.5802      2.00000
     39      -4.5469      2.00000
     40      -4.4935      2.00000
     41      -4.4631      2.00000
     42      -4.4244      2.00000
     43      -4.3985      2.00000
     44      -4.3867      2.00000
     45      -4.3336      2.00000
     46      -4.3019      2.00000
     47      -4.2165      2.00000
     48      -4.1999      2.00000
     49      -4.1734      2.00000
     50      -4.1502      2.00000
     51      -4.1438      2.00000
     52      -4.1406      2.00000
     53      -4.1158      2.00000
     54      -4.0980      2.00000
     55      -4.0688      2.00000
     56      -4.0221      2.00000
     57      -4.0072      2.00000
     58      -3.9948      2.00000
     59      -3.9880      2.00000
     60      -3.9737      2.00000
[...]
    238       6.4974      0.00000
    239       6.5420      0.00000
    240       6.5850      0.00000
    241       6.7280      0.00000
    242       6.7726      0.00000
    243       6.8120      0.00000
    244       6.8463      0.00000
    245       6.9893      0.00000
    246       7.1965      0.00000
    247       7.2560      0.00000
    248       7.3379      0.00000
    249       7.6262      0.00000
    250       7.6530      0.00000
    251       7.8168      0.00000
    252       7.8567      0.00000

 soft charge-density along one line, spin component           1
         0         1         2         3         4         5         6         7         8         9
 total charge-density along one line

------------------------ aborting loop because EDIFF is reached ----------------------------------------

 total charge

# of ion       s       p       d       tot
    1        0.547   0.240   8.765   9.553
    2        0.544   0.241   8.764   9.550
    3        0.544   0.241   8.764   9.550
    4        0.544   0.241   8.764   9.550
    5        0.540   0.241   8.764   9.545
    6        0.544   0.241   8.764   9.550
    7        0.544   0.241   8.764   9.550
    8        0.544   0.241   8.764   9.550
    9        0.542   0.241   8.766   9.549
   10        0.518   0.308   8.772   9.599
   11        0.519   0.310   8.776   9.605
   12        0.518   0.308   8.772   9.599
   13        0.519   0.310   8.776   9.605
   14        0.519   0.310   8.776   9.605
   15        0.515   0.309   8.773   9.598
   16        0.518   0.308   8.772   9.599
   17        0.515   0.309   8.773   9.598
   18        0.515   0.309   8.773   9.598
   19        0.517   0.295   8.776   9.588
   20        0.553   0.333   8.750   9.636
   21        0.553   0.333   8.750   9.636
   22        0.510   0.309   8.772   9.591
   23        0.553   0.333   8.750   9.636
   24        0.510   0.309   8.772   9.591
   25        0.517   0.295   8.776   9.588
   26        0.517   0.295   8.776   9.588
   27        0.510   0.309   8.772   9.591
   28        0.544   0.228   8.757   9.529
   29        0.563   0.241   8.752   9.556
   30        0.563   0.241   8.752   9.556
   31        0.563   0.241   8.752   9.556
   32        0.563   0.241   8.752   9.556
   33        0.563   0.241   8.752   9.556
   34        0.563   0.241   8.752   9.556
   35        0.540   0.230   8.755   9.525
   36        0.479   0.544   4.495   5.518
   37        1.349   2.199   0.000   3.548
tot         20.580  12.412 311.262 344.254

  FORCE on cell =-STRESS in cart. coord.  units (eV):
  Direction    XX          YY          ZZ          XY          YZ          ZX
  Alpha Z  1018.96412  1018.96412  1018.96412
  Ewald  117544.22581117544.22621************    -0.00032    -0.00009    -0.00014
  Hartree126155.91053126155.91054************     0.00000    -0.00002    -0.00004
  E(xc)   -1775.70602 -1775.70602 -1785.31516    -0.00001    -0.00000    -0.00000
  Local  ************************256102.10973     0.00192     0.00003     0.00003
  n-local   -99.49288   -54.08470   -53.13632    22.94160    -1.54101     1.39520
  augment  2374.22600  2374.22752  2392.04269    -0.00132    -0.00001     0.00004
  Kinetic  5510.92207  5519.87392  5562.61594     5.78561     0.32237     0.22730
  Fock        0.00000     0.00000     0.00000     0.00000     0.00000     0.00000
  Total     -19.21571   -19.21571     2.60074    -0.00000     0.00000    -0.00000
  in kB     -20.61862   -20.61862     2.79062    -0.00000     0.00000    -0.00000

 VOLUME and BASIS-vectors are now :
  energy-cutoff  :      500.00
  volume of cell :     1493.16
      direct lattice vectors                 reciprocal lattice vectors
     8.813512802  0.000000000  0.000000000     0.113462137 -0.065507406  0.000000000
     4.406756909  7.632725690  0.000000000     0.000000000  0.131014796  0.000000000
     0.000000000  0.000000000 22.196203232     0.000000000  0.000000000  0.045052750

  length of vectors
     8.813512802  8.813512802 22.196203232     0.131014796  0.131014796  0.045052750

 FORCES acting on ions
    electron-ion (+dipol)            ewald-force                    non-local-force                 convergence-correction
   -.195E-04 -.162E-04 0.247E+04   0.519E-04 0.433E-04 -.247E+04   0.780E-17 -.104E-16 -.556E+00   -.280E-03 -.175E-03 -.292E+00
   0.492E+00 0.929E-01 0.247E+04   -.584E+00 -.171E+00 -.247E+04   -.343E-01 0.639E-02 -.335E+00   0.125E+00 0.659E-01 -.289E+00
   -.492E+00 0.929E-01 0.247E+04   0.584E+00 -.171E+00 -.247E+04   0.343E-01 0.639E-02 -.335E+00   -.125E+00 0.679E-01 -.288E+00
   0.327E+00 0.380E+00 0.247E+04   -.440E+00 -.420E+00 -.247E+04   -.116E-01 -.329E-01 -.335E+00   0.120E+00 0.756E-01 -.289E+00
   0.863E-05 -.231E-04 0.247E+04   0.951E-04 0.174E-05 -.247E+04   0.144E-17 0.466E-18 -.417E+00   0.440E-02 0.267E-02 -.273E+00
   -.327E+00 0.380E+00 0.247E+04   0.440E+00 -.420E+00 -.247E+04   0.116E-01 -.329E-01 -.335E+00   -.122E+00 0.766E-01 -.288E+00
   -.166E+00 -.473E+00 0.247E+04   0.144E+00 0.591E+00 -.247E+04   0.227E-01 0.265E-01 -.335E+00   -.366E-02 -.142E+00 -.288E+00
   0.166E+00 -.473E+00 0.247E+04   -.144E+00 0.591E+00 -.247E+04   -.227E-01 0.265E-01 -.335E+00   0.558E-02 -.143E+00 -.288E+00
   0.195E-04 -.417E-04 0.247E+04   0.166E-03 -.200E-04 -.247E+04   0.492E-17 -.150E-17 -.464E+00   -.466E-02 -.241E-02 -.272E+00
   0.513E+01 0.296E+01 0.815E+03   -.518E+01 -.299E+01 -.815E+03   -.195E+00 -.113E+00 -.411E+00   0.204E+00 0.118E+00 0.246E+00
   0.141E-04 0.272E+01 0.821E+03   0.148E-03 -.300E+01 -.821E+03   0.128E-08 0.192E-01 -.443E+00   0.426E-02 0.189E+00 0.338E+00
   -.513E+01 0.296E+01 0.815E+03   0.518E+01 -.299E+01 -.815E+03   0.195E+00 -.113E+00 -.411E+00   -.206E+00 0.120E+00 0.247E+00
   0.236E+01 -.136E+01 0.821E+03   -.260E+01 0.150E+01 -.821E+03   0.166E-01 -.958E-02 -.443E+00   0.166E+00 -.903E-01 0.338E+00
   -.236E+01 -.136E+01 0.821E+03   0.260E+01 0.150E+01 -.821E+03   -.166E-01 -.958E-02 -.443E+00   -.157E+00 -.910E-01 0.339E+00
   0.314E-04 0.434E+01 0.819E+03   0.236E-03 -.455E+01 -.819E+03   0.294E-08 0.442E-01 -.352E+00   -.297E-02 0.113E+00 0.239E+00
   -.212E-04 -.593E+01 0.815E+03   0.162E-03 0.598E+01 -.815E+03   0.150E-07 0.226E+00 -.411E+00   0.398E-03 -.239E+00 0.247E+00
   0.376E+01 -.217E+01 0.819E+03   -.394E+01 0.228E+01 -.819E+03   0.383E-01 -.221E-01 -.352E+00   0.967E-01 -.587E-01 0.239E+00
   -.376E+01 -.217E+01 0.819E+03   0.394E+01 0.228E+01 -.819E+03   -.383E-01 -.221E-01 -.352E+00   -.966E-01 -.560E-01 0.240E+00
   -.428E-04 0.124E+00 -.863E+03   0.547E-04 -.499E+00 0.861E+03   0.300E-08 0.450E-01 0.703E+00   -.593E-02 0.269E+00 0.724E+00
   -.138E+01 -.796E+00 -.836E+03   0.139E+01 0.803E+00 0.836E+03   -.871E+00 -.503E+00 -.568E+00   0.533E+00 0.308E+00 0.116E+01
   0.138E+01 -.796E+00 -.836E+03   -.139E+01 0.803E+00 0.836E+03   0.871E+00 -.503E+00 -.568E+00   -.524E+00 0.310E+00 0.116E+01
   -.956E+01 0.552E+01 -.847E+03   0.885E+01 -.511E+01 0.845E+03   0.490E+00 -.283E+00 0.776E+00   0.270E+00 -.159E+00 0.727E+00
   -.983E-05 0.159E+01 -.836E+03   0.139E-03 -.161E+01 0.836E+03   0.669E-07 0.101E+01 -.568E+00   0.582E-02 -.609E+00 0.116E+01
   0.956E+01 0.552E+01 -.847E+03   -.885E+01 -.511E+01 0.845E+03   -.490E+00 -.283E+00 0.776E+00   -.278E+00 -.161E+00 0.727E+00
   -.108E+00 -.623E-01 -.863E+03   0.432E+00 0.250E+00 0.861E+03   -.390E-01 -.225E-01 0.703E+00   -.235E+00 -.136E+00 0.724E+00
   0.108E+00 -.622E-01 -.863E+03   -.432E+00 0.249E+00 0.861E+03   0.390E-01 -.225E-01 0.703E+00   0.230E+00 -.140E+00 0.724E+00
   0.990E-05 -.110E+02 -.847E+03   0.198E-03 0.102E+02 0.845E+03   0.377E-07 0.566E+00 0.776E+00   -.308E-02 0.313E+00 0.727E+00
   -.125E-04 -.121E-04 -.244E+04   0.288E-04 0.326E-04 0.244E+04   0.513E-18 0.161E-17 0.471E+00   -.314E-03 -.198E-03 0.625E+00
   0.168E+02 0.271E+02 -.244E+04   -.165E+02 -.268E+02 0.243E+04   -.890E+00 -.125E+01 0.630E+00   0.396E+00 0.581E+00 0.434E+00
   -.168E+02 0.271E+02 -.244E+04   0.165E+02 -.268E+02 0.243E+04   0.890E+00 -.125E+01 0.630E+00   -.396E+00 0.583E+00 0.433E+00
   0.319E+02 0.970E+00 -.244E+04   -.314E+02 -.852E+00 0.243E+04   -.152E+01 -.148E+00 0.630E+00   0.701E+00 0.529E-01 0.434E+00
   -.319E+02 0.970E+00 -.244E+04   0.314E+02 -.852E+00 0.243E+04   0.152E+01 -.148E+00 0.630E+00   -.703E+00 0.536E-01 0.432E+00
   0.151E+02 -.281E+02 -.244E+04   -.150E+02 0.277E+02 0.243E+04   -.634E+00 0.139E+01 0.630E+00   0.307E+00 -.634E+00 0.433E+00
   -.151E+02 -.281E+02 -.244E+04   0.150E+02 0.277E+02 0.243E+04   0.634E+00 0.139E+01 0.630E+00   -.305E+00 -.635E+00 0.432E+00
   0.328E-04 -.303E-04 -.244E+04   0.142E-03 -.482E-04 0.244E+04   -.272E-17 -.118E-17 0.556E+00   -.476E-02 -.245E-02 0.554E+00
   -.401E-05 -.651E-06 -.114E+04   0.625E-04 0.565E-05 0.114E+04   0.837E-17 0.458E-17 0.124E+01   0.128E-02 0.762E-03 0.280E+00
   0.105E-03 -.588E-04 -.133E+04   0.216E-04 0.134E-05 0.135E+04   -.412E-18 -.270E-18 -.203E+02   0.170E-02 0.103E-02 -.616E+00
   -.674E-03 -.823E-03 0.800E+01   -.327E-13 0.277E-12 -.477E-11   -.217E-15 -.219E-15 -.186E+02   0.264E-03 0.763E-03 0.112E+02

 POSITION                                       TOTAL-FORCE (eV/Angst)
      0.00000      0.00000      5.28038        -0.000000      0.000000     -0.099096
      2.93784      0.00000      5.28038         0.000287     -0.004242     -0.060642
      5.87568      0.00000      5.28038        -0.000287     -0.004242     -0.060642
      1.46892      2.54424      5.28038        -0.003530      0.002370     -0.060642
      4.40676      2.54424      5.28038        -0.000000      0.000000     -0.082281
      7.34459      2.54424      5.28038         0.003530      0.002370     -0.060642
      2.93784      5.08848      5.28038        -0.003817      0.001873     -0.060642
      5.87568      5.08848      5.28038         0.003817      0.001873     -0.060642
      8.81351      5.08848      5.28038        -0.000000      0.000000     -0.066475
      1.46892      0.84808      7.67911        -0.034918     -0.020160      0.114742
      4.40676      0.84808      7.67911        -0.000000     -0.072930      0.037062
      7.34459      0.84808      7.67911         0.034918     -0.020160      0.114742
      2.93784      3.39232      7.67911        -0.063159      0.036465      0.037062
      5.87568      3.39232      7.67911         0.063159      0.036465      0.037062
      8.81351      3.39232      7.67911        -0.000000     -0.052888      0.143259
      4.40676      5.93656      7.67911         0.000000      0.040320      0.114742
      7.34459      5.93656      7.67911        -0.045802      0.026444      0.143259
     10.28243      5.93656      7.67911         0.045802      0.026444      0.143259
      8.81351      1.70181     10.09390        -0.000000     -0.059328     -0.034683
      2.93906      1.69686     10.04479        -0.329613     -0.190302     -0.298139
      5.87446      1.69686     10.04479         0.329613     -0.190302     -0.298139
     10.26694      4.24935     10.06849         0.057023     -0.032922      0.000006
      4.40676      4.23900     10.04479         0.000000      0.380604     -0.298139
      7.36009      4.24935     10.06849        -0.057023     -0.032922      0.000006
     11.74646      6.78182     10.09390         0.051380      0.029664     -0.034683
      5.88057      6.78182     10.09390        -0.051380      0.029664     -0.034683
      8.81351      6.76675     10.06849         0.000000      0.065844      0.000006
      0.00000      0.00000     12.49934        -0.000000      0.000000     -0.050614
      2.98260      0.07565     12.53968        -0.175555     -0.350625     -0.238738
      5.83091      0.07565     12.53968         0.175555     -0.350625     -0.238738
      1.55682      2.54518     12.53968        -0.391428      0.023277     -0.238738
      7.25669      2.54518     12.53968         0.391428      0.023277     -0.238738
      2.98097      5.01189     12.53968        -0.215872      0.327348     -0.238738
      5.83254      5.01189     12.53968         0.215872      0.327348     -0.238738
      8.81351      5.08848     12.49853        -0.000000      0.000000      0.044693
      4.40676      2.54424     12.23451        -0.000000      0.000000      2.161310
      4.40676      2.54424     13.93975        -0.000000      0.000000      0.001997
    total drift:                               -0.000409     -0.000060      0.547239

  FREE ENERGIE OF THE ION-ELECTRON SYSTEM (eV)
  free  energy   TOTEN  =      -123.91032264 eV

  energy  without entropy=     -123.91032264  energy(sigma->0) =     -123.91032264

 stress matrix after NEB project (eV)
    -19.21571     -0.00000     -0.00000
     -0.00000    -19.21571      0.00000
     -0.00000      0.00000      2.60074
  FORCES: max atom, RMS     0.001997    0.000328
  FORCE total and by dimension    0.001997    0.001997
  Stress total and by dimension   27.299283   19.215711
|           W    W    AA    RRRRR   N    N  II  N    N   GGGG   !!!           |
|           W    W   A  A   R    R  NN   N  II  NN   N  G    G  !!!           |
|           W    W  A    A  R    R  N N  N  II  N N  N  G       !!!           |
|           W WW W  AAAAAA  RRRRR   N  N N  II  N  N N  G  GGG   !            |
|           WW  WW  A    A  R   R   N   NN  II  N   NN  G    G                |
|           W    W  A    A  R    R  N    N  II  N    N   GGGG   !!!           |
|     Tetrahedron method does not include variations of the Fermi             |
|     occupations, so forces and stress will be inaccurate. We suggest        |
|     using a different smearing scheme ISMEAR = 1 or 2 for metals in         |
|     relaxations.                                                            |

 total charge

# of ion       s       p       d       tot
    1        0.547   0.240   8.765   9.553
    2        0.544   0.241   8.764   9.550
    3        0.544   0.241   8.764   9.550
    4        0.544   0.241   8.764   9.550
    5        0.540   0.241   8.764   9.545
    6        0.544   0.241   8.764   9.550
    7        0.544   0.241   8.764   9.550
    8        0.544   0.241   8.764   9.550
    9        0.542   0.241   8.766   9.549
   10        0.518   0.308   8.772   9.599
   11        0.519   0.310   8.776   9.605
   12        0.518   0.308   8.772   9.599
   13        0.519   0.310   8.776   9.605
   14        0.519   0.310   8.776   9.605
   15        0.515   0.309   8.773   9.598
   16        0.518   0.308   8.772   9.599
   17        0.515   0.309   8.773   9.598
   18        0.515   0.309   8.773   9.598
   19        0.517   0.295   8.776   9.588
   20        0.553   0.333   8.750   9.636
   21        0.553   0.333   8.750   9.636
   22        0.510   0.309   8.772   9.591
   23        0.553   0.333   8.750   9.636
   24        0.510   0.309   8.772   9.591
   25        0.517   0.295   8.776   9.588
   26        0.517   0.295   8.776   9.588
   27        0.510   0.309   8.772   9.591
   28        0.544   0.228   8.757   9.529
   29        0.563   0.241   8.752   9.556
   30        0.563   0.241   8.752   9.556
   31        0.563   0.241   8.752   9.556
   32        0.563   0.241   8.752   9.556
   33        0.563   0.241   8.752   9.556
   34        0.563   0.241   8.752   9.556
   35        0.540   0.230   8.755   9.525
   36        0.479   0.544   4.495   5.518
   37        1.349   2.199   0.000   3.548
tot         20.580  12.412 311.262 344.254

 BZINTS: Fermi energy:    0.671509;  396.000000 electrons
         Band energy:-0.123248E+04;  BLOECHL correction:   -0.044567