 vasp.6.2.0 18Jan21 (build Jun 12 2021 23:27:24) complex

 executed on             LinuxIFC date 2022.05.28  01:07:24

 INCAR:
   ISMEAR = -5
   SIGMA = 0.1
   ISPIN = 1
   EDIFF = 1.d-5
   EDIFFG = -0.01
   NSW = 0
   NELM = 150
   ENCUT = 500
   ISIF = 2
   IBRION = 2
   LREAL = Auto
   ALGO = Fast
   ICHARG = 11
   LORBIT = 10
   LCHARG = .F.
   LWAVE = .F.

 POTCAR:    PAW_PBE Au 04Oct2007
 POTCAR:    PAW_PBE Ta 17Jan2003
 POTCAR:    PAW_PBE C 08Apr2002
 POTCAR:    PAW_PBE O 08Apr2002
|           W    W    AA    RRRRR   N    N  II  N    N   GGGG   !!!           |
|           W    W   A  A   R    R  NN   N  II  NN   N  G    G  !!!           |
|           W    W  A    A  R    R  N N  N  II  N N  N  G       !!!           |
|           W WW W  AAAAAA  RRRRR   N  N N  II  N  N N  G  GGG   !            |
|           WW  WW  A    A  R   R   N   NN  II  N   NN  G    G                |
|           W    W  A    A  R    R  N    N  II  N    N   GGGG   !!!           |
|     For optimal performance we recommend to set                             |
|       NCORE = 2 up to number-of-cores-per-socket                            |
|     This setting can greatly improve the performance of VASP for DFT.       |
|     The default, NCORE=1 might be grossly inefficient on modern             |
|     multi-core architectures or massively parallel machines. Do your        |
|     Unfortunately you need to use the default for GW and RPA                |
|     calculations (for HF NCORE is supported but not extensively tested      |
|     yet).                                                                   |

 POTCAR:    PAW_PBE Au 04Oct2007
   VRHFIN =Au: s1d10

   TITEL  = PAW_PBE Au 04Oct2007
   POMASS =  196.966; ZVAL   =   11.000    mass and valenz
   ENMAX  =  229.943; ENMIN  =  172.457 eV

 POTCAR:    PAW_PBE Ta 17Jan2003
   VRHFIN =Ta:  6s5d

   TITEL  = PAW_PBE Ta 17Jan2003
   POMASS =  180.948; ZVAL   =    5.000    mass and valenz
   ENMAX  =  223.667; ENMIN  =  167.750 eV

 POTCAR:    PAW_PBE C 08Apr2002
   VRHFIN =C: s2p2

   TITEL  = PAW_PBE C 08Apr2002
   POMASS =   12.011; ZVAL   =    4.000    mass and valenz
   ENMAX  =  400.000; ENMIN  =  300.000 eV

 POTCAR:    PAW_PBE O 08Apr2002
   VRHFIN =O: s2p4

   TITEL  = PAW_PBE O 08Apr2002
   POMASS =   16.000; ZVAL   =    6.000    mass and valenz
   ENMAX  =  400.000; ENMIN  =  300.000 eV

 Optimization of the real space projectors (new method)

 maximal supplied QI-value         = 15.12
 optimisation between [QCUT,QGAM] = [ 11.34, 22.83] = [ 36.00,145.93] Ry
 Optimized for a Real-space Cutoff    1.39 Angstroem

   l    n(q)    QCUT    max X(q) W(low)/X(q) W(high)/X(q)  e(spline)
   2      9    11.338    60.898    0.39E-03    0.42E-03    0.21E-06
   2      9    11.338    58.894    0.40E-03    0.42E-03    0.22E-06
   0      9    11.338   109.617    0.13E-03    0.20E-04    0.13E-06
   0      9    11.338    75.026    0.13E-03    0.20E-04    0.13E-06
   1      9    11.338    16.344    0.33E-04    0.24E-03    0.18E-06
   1      9    11.338    10.160    0.26E-04    0.19E-03    0.15E-06
 Optimization of the real space projectors (new method)

[...]

   l    n(q)    QCUT    max X(q) W(low)/X(q) W(high)/X(q)  e(spline)
   0      7    11.310   115.676    0.43E-03    0.13E-02    0.19E-06
   0      7    11.310    87.132    0.43E-03    0.13E-02    0.18E-06
   1      6    11.310     4.429    0.42E-03    0.74E-03    0.11E-06
   1      6    11.310     2.733    0.34E-03    0.55E-03    0.92E-07
 Optimization of the real space projectors (new method)

 maximal supplied QI-value         = 24.76
 optimisation between [QCUT,QGAM] = [ 11.39, 22.77] = [ 36.31,145.25] Ry
 Optimized for a Real-space Cutoff    1.00 Angstroem

   l    n(q)    QCUT    max X(q) W(low)/X(q) W(high)/X(q)  e(spline)
   0      7    11.387    20.381    0.39E-03    0.13E-02    0.15E-06
   0      7    11.387    15.268    0.42E-03    0.14E-02    0.17E-06
   1      6    11.387     5.964    0.41E-03    0.11E-02    0.17E-06
   1      6    11.387     5.382    0.39E-03    0.87E-03    0.15E-06
  PAW_PBE Au 04Oct2007                  :
  PAW_PBE Ta 17Jan2003                  :
  PAW_PBE C 08Apr2002                   :
  PAW_PBE O 08Apr2002                   :

 POSCAR: Au-Ta-CO2
  positions in direct lattice
  velocities in cartesian coordinates
 exchange correlation table for  LEXCH =        8
   RHO(1)=    0.500       N(1)  =     2000
   RHO(2)=  100.500       N(2)  =     4000

 VTST: version 3.2, (02/03/18)

 CHAIN: initializing optimizer

 OPT: Using VASP Conjugate-Gradient optimizer
 CHAIN: Read ICHAIN            0

 POSCAR: Au-Ta-CO2
  positions in direct lattice
  velocities in cartesian coordinates

 ion  position               nearest neighbor table
   1  0.000  0.000  0.217-  16 2.94  12 2.94   6 2.94   8 2.94   7 2.94   3 2.94  10 2.94   4 2.94
                             2 2.94
   2  0.333  0.000  0.217-   9 2.94  11 2.94  17 2.94  10 2.94   8 2.94   4 2.94   5 2.94   1 2.94
                             3 2.94
   3  0.667  0.000  0.217-   7 2.94  18 2.94  12 2.94   1 2.94  11 2.94   5 2.94   6 2.94   9 2.94
                             2 2.94
   4  0.000  0.333  0.217-  10 2.94   6 2.94   5 2.94  13 2.94   2 2.94  15 2.94   9 2.94   1 2.94
                             7 2.94
   5  0.333  0.333  0.217-  13 2.94   7 2.94  11 2.94   4 2.94   2 2.94  14 2.94   3 2.94   8 2.94
                             6 2.94
   6  0.667  0.333  0.217-  15 2.94  14 2.94   1 2.94  12 2.94   4 2.94   9 2.94   8 2.94   3 2.94
                             5 2.94
   7  0.000  0.667  0.217-  18 2.94   3 2.94  16 2.94   5 2.94   1 2.94  13 2.94   8 2.94   4 2.94
                             9 2.94
   8  0.333  0.667  0.217-   9 2.94  17 2.94   1 2.94   2 2.94  14 2.94  16 2.94   6 2.94   7 2.94
                             5 2.94
   9  0.667  0.667  0.217-   2 2.94   8 2.94  17 2.94   6 2.94  15 2.94   4 2.94   3 2.94  18 2.94
                             7 2.94
  10  0.111  0.111  0.315-  20 2.91  11 2.94  17 2.94   2 2.94   4 2.94   1 2.94  12 2.94  16 2.94
                            13 2.94  15 2.94  26 2.96  19 2.96
  11  0.444  0.111  0.315-  20 2.91  21 2.91  13 2.94   2 2.94  10 2.94  17 2.94   5 2.94   3 2.94
                            18 2.94  14 2.94  12 2.94  27 2.94
  12  0.778  0.111  0.315-  21 2.91  16 2.94  18 2.94   1 2.94  14 2.94  15 2.94   3 2.94   6 2.94
                            10 2.94  11 2.94  25 2.96  19 2.96
  13  0.111  0.444  0.315-  23 2.91  20 2.91   5 2.94  18 2.94  11 2.94   7 2.94   4 2.94  16 2.94
                            10 2.94  14 2.94  15 2.94  22 2.94
  14  0.444  0.444  0.315-  21 2.91  23 2.91  15 2.94   6 2.94  12 2.94   8 2.94  17 2.94   5 2.94
                            16 2.94  13 2.94  11 2.94  24 2.94
  15  0.778  0.444  0.315-  24 2.92  22 2.92  14 2.94   6 2.94  17 2.94  12 2.94   9 2.94   4 2.94
                            10 2.94  13 2.94  18 2.94  19 2.95
  16  0.111  0.778  0.315-  23 2.91  18 2.94  12 2.94   7 2.94   1 2.94   8 2.94  13 2.94  10 2.94
                            14 2.94  17 2.94  25 2.96  26 2.96
  17  0.444  0.778  0.315-  27 2.92  24 2.92   9 2.94  15 2.94   2 2.94  10 2.94  11 2.94   8 2.94
                            14 2.94  16 2.94  18 2.94  26 2.95
  18  0.778  0.778  0.315-  22 2.92  27 2.92  16 2.94   7 2.94  13 2.94  12 2.94   3 2.94  11 2.94
                             9 2.94  15 2.94  17 2.94  25 2.95
  19  0.888  0.223  0.414-  24 2.93  22 2.93  21 2.93  20 2.93  28 2.95  15 2.95  26 2.95  25 2.95
                            10 2.96  12 2.96  32 3.06  31 3.06
  20  0.222  0.222  0.412-  36 2.74  10 2.91  11 2.91  13 2.91  26 2.93  19 2.93  23 2.95  21 2.95
                            27 2.95  22 2.95  29 2.99  31 2.99
  21  0.556  0.222  0.412-  36 2.74  12 2.91  14 2.91  11 2.91  25 2.93  19 2.93  20 2.95  23 2.95
                            27 2.95  24 2.95  30 2.99  32 2.99
  22  0.886  0.557  0.413-  24 2.91  27 2.91  18 2.92  15 2.92  25 2.93  19 2.93  13 2.94  23 2.95
                            20 2.95  35 2.96  33 3.03  31 3.03
  23  0.222  0.556  0.412-  36 2.74  16 2.91  13 2.91  14 2.91  25 2.93  26 2.93  20 2.95  21 2.95
                            22 2.95  24 2.95  33 2.99  34 2.99
  24  0.557  0.557  0.413-  27 2.91  22 2.91  15 2.92  17 2.92  26 2.93  19 2.93  14 2.94  21 2.95
                            23 2.95  35 2.96  32 3.03  34 3.03
  25  0.888  0.888  0.414-  22 2.93  27 2.93  23 2.93  21 2.93  28 2.95  18 2.95  19 2.95  26 2.95
                            16 2.96  12 2.96  33 3.06  30 3.06
  26  0.223  0.888  0.414-  27 2.93  24 2.93  20 2.93  23 2.93  28 2.95  17 2.95  19 2.95  25 2.95
                            10 2.96  16 2.96  29 3.06  34 3.06
  27  0.557  0.886  0.413-  24 2.91  22 2.91  17 2.92  18 2.92  26 2.93  25 2.93  11 2.94  20 2.95
                            21 2.95  35 2.96  29 3.03  30 3.03
  28  0.000  0.000  0.513-  25 2.95  19 2.95  26 2.95  34 3.00  32 3.00  33 3.00  30 3.00  31 3.00
                            29 3.00
  29  0.334  0.012  0.516-  30 2.82  31 2.84  36 2.85  35 2.99  20 2.99  28 3.00  27 3.03  26 3.06
                            34 3.16
  30  0.654  0.012  0.516-  29 2.82  32 2.84  36 2.85  35 2.99  21 2.99  28 3.00  27 3.03  25 3.06
                            33 3.16
  31  0.012  0.334  0.516-  33 2.82  29 2.84  36 2.85  35 2.99  20 2.99  28 3.00  22 3.03  19 3.06
                            32 3.16
  32  0.654  0.334  0.516-  34 2.82  30 2.84  36 2.85  35 2.99  21 2.99  28 3.00  24 3.03  19 3.06
                            31 3.16
  33  0.012  0.654  0.516-  31 2.82  34 2.84  36 2.85  35 2.99  23 2.99  28 3.00  22 3.03  25 3.06
                            30 3.16
  34  0.334  0.654  0.516-  32 2.82  33 2.84  36 2.85  35 2.99  23 2.99  28 3.00  24 3.03  26 3.06
                            29 3.16
  35  0.667  0.667  0.513-  24 2.96  27 2.96  22 2.96  29 2.99  34 2.99  32 2.99  31 2.99  30 2.99
                            33 2.99
  36  0.333  0.333  0.501-  20 2.74  23 2.74  21 2.74  33 2.85  31 2.85  29 2.85  30 2.85  34 2.85
                            32 2.85
  37  0.334  0.332  0.677-  38 1.18  39 1.18
  38  0.200  0.332  0.676-  37 1.18
  39  0.468  0.332  0.677-  37 1.18

  LATTYP: Found a hexagonal cell.
 ALAT       =     8.8135128021
 C/A-ratio  =     2.7649717827

  Lattice vectors:

 A1 = (  -4.4067569092,  -7.6327256898,   0.0000000000)
 A2 = (   8.8135128021,   0.0000000000,   0.0000000000)
 A3 = (   0.0000000000,   0.0000000000,  24.3691142040)

Analysis of symmetry for initial positions (statically):
 Subroutine PRICEL returns:
 Original cell was already a primitive cell.

 Routine SETGRP: Setting up the symmetry group for a
 hexagonal supercell.

 Subroutine GETGRP returns: Found  1 space group operations
 (whereof  1 operations were pure point group operations)
 out of a pool of 24 trial point group operations.

The static configuration has the point symmetry C_1 .

Analysis of symmetry for dynamics (positions and initial velocities):
 Subroutine PRICEL returns:
 Original cell was already a primitive cell.

[...]

The dynamic configuration has the point symmetry C_1 .

Analysis of constrained symmetry for selective dynamics:
 Subroutine PRICEL returns:
[...]
     41      -5.0668      2.00000
     42      -5.0617      2.00000
     43      -4.9305      2.00000
     44      -4.8661      2.00000
     45      -4.8156      2.00000
     46      -4.7829      2.00000
     47      -4.7504      2.00000
     48      -4.7260      2.00000
     49      -4.6998      2.00000
     50      -4.6764      2.00000
     51      -4.6483      2.00000
     52      -4.5775      2.00000
     53      -4.5570      2.00000
     54      -4.5139      2.00000
     55      -4.4976      2.00000
     56      -4.4881      2.00000
     57      -4.4736      2.00000
     58      -4.4520      2.00000
     59      -4.4366      2.00000
     60      -4.4083      2.00000
[...]
    238       5.0812      0.00000
    239       5.1777      0.00000
    240       5.2988      0.00000
    241       5.5180      0.00000
    242       5.7199      0.00000
    243       5.8350      0.00000
    244       5.9363      0.00000
    245       6.0331      0.00000
    246       6.1033      0.00000
    247       6.1888      0.00000
    248       6.2115      0.00000
    249       6.3803      0.00000
    250       6.4328      0.00000
    251       6.5242      0.00000
    252       6.6952      0.00000

 soft charge-density along one line, spin component           1
         0         1         2         3         4         5         6         7         8         9
 total charge-density along one line

------------------------ aborting loop because EDIFF is reached ----------------------------------------

 total charge

# of ion       s       p       d       tot
    1        0.549   0.236   8.767   9.552
    2        0.540   0.241   8.765   9.547
    3        0.540   0.241   8.765   9.547
    4        0.540   0.241   8.765   9.547
    5        0.547   0.241   8.760   9.548
    6        0.540   0.241   8.765   9.547
    7        0.540   0.241   8.765   9.547
    8        0.540   0.241   8.765   9.547
    9        0.544   0.239   8.766   9.550
   10        0.528   0.306   8.766   9.600
   11        0.520   0.307   8.780   9.607
   12        0.528   0.306   8.766   9.600
   13        0.520   0.307   8.780   9.607
   14        0.520   0.307   8.780   9.607
   15        0.516   0.307   8.774   9.597
   16        0.528   0.306   8.766   9.600
   17        0.516   0.307   8.774   9.597
   18        0.516   0.307   8.774   9.597
   19        0.517   0.296   8.769   9.581
   20        0.582   0.348   8.714   9.645
   21        0.582   0.348   8.714   9.645
   22        0.508   0.304   8.779   9.591
   23        0.583   0.348   8.714   9.645
   24        0.508   0.304   8.779   9.591
   25        0.517   0.296   8.768   9.581
   26        0.517   0.296   8.768   9.581
   27        0.508   0.304   8.779   9.591
   28        0.538   0.226   8.753   9.517
   29        0.595   0.254   8.720   9.569
   30        0.595   0.254   8.720   9.569
   31        0.594   0.253   8.721   9.568
   32        0.594   0.253   8.721   9.568
   33        0.595   0.254   8.720   9.569
   34        0.595   0.254   8.720   9.569
   35        0.537   0.227   8.756   9.520
   36        0.646   0.551   2.865   4.063
   37        0.933   1.802   0.000   2.734
   38        1.607   3.529   0.000   5.136
   39        1.607   3.529   0.000   5.136
tot         23.835  19.151 309.326 352.311

  FORCE on cell =-STRESS in cart. coord.  units (eV):
  Direction    XX          YY          ZZ          XY          YZ          ZX
  Alpha Z   961.89945   961.89945   961.89945
  Ewald  140987.52577140198.11411************    -0.41979     0.01524     1.89565
  Hartree149350.18146148980.83352************    -0.19407     0.02231     0.90970
  E(xc)   -1821.55401 -1823.66623 -1831.22291    -0.00110    -0.00123     0.00489
  Local  ************************301312.79767     0.57830    -0.05597    -2.63734
  n-local  -101.40174   -95.41832   -66.34360    -0.00838     0.00696    -0.01235
  augment  2374.19045  2376.92038  2398.31524    -0.00001     0.00273    -0.00609
  Kinetic  5667.92219  5733.30627  5801.69260     0.03585     0.01168    -0.15073
  Fock        0.00000     0.00000     0.00000     0.00000     0.00000     0.00000
  Total     -24.50505   -24.53309     2.02762    -0.00921     0.00173     0.00373
  in kB     -23.94958   -23.97698     1.98166    -0.00900     0.00169     0.00364

 VOLUME and BASIS-vectors are now :
  energy-cutoff  :      500.00
  volume of cell :     1639.34
      direct lattice vectors                 reciprocal lattice vectors
     8.813512802  0.000000000  0.000000000     0.113462137 -0.065507406  0.000000000
     4.406756909  7.632725690  0.000000000     0.000000000  0.131014796  0.000000000
     0.000000000  0.000000000 24.369114204     0.000000000  0.000000000  0.041035550

  length of vectors
     8.813512802  8.813512802 24.369114204     0.131014796  0.131014796  0.041035550

 FORCES acting on ions
    electron-ion (+dipol)            ewald-force                    non-local-force                 convergence-correction
   0.141E-02 0.157E-01 0.263E+04   0.158E-04 -.124E-01 -.263E+04   -.252E-04 -.494E-03 -.711E+00   -.142E-02 -.276E-02 -.140E+00
   0.490E+00 -.242E+00 0.263E+04   -.492E+00 0.778E-01 -.263E+04   0.298E-01 0.143E+00 -.356E+00   -.251E-01 0.845E-02 -.140E+00
   -.491E+00 -.252E+00 0.263E+04   0.492E+00 0.779E-01 -.263E+04   -.298E-01 0.143E+00 -.356E+00   0.266E-01 0.185E-01 -.138E+00
   0.234E-01 0.549E+00 0.263E+04   -.168E+00 -.470E+00 -.263E+04   0.139E+00 -.456E-01 -.362E+00   -.422E-02 -.243E-01 -.141E+00
   -.135E-01 -.887E-02 0.263E+04   0.192E-03 0.682E-03 -.263E+04   0.257E-04 -.426E-03 0.190E+00   0.135E-01 0.924E-02 -.471E-01
   -.144E-01 0.545E+00 0.263E+04   0.168E+00 -.470E+00 -.263E+04   -.139E+00 -.455E-01 -.362E+00   -.455E-02 -.200E-01 -.137E+00
   -.477E+00 -.306E+00 0.263E+04   0.324E+00 0.393E+00 -.263E+04   0.110E+00 -.960E-01 -.355E+00   0.306E-01 0.132E-01 -.137E+00
   0.468E+00 -.300E+00 0.263E+04   -.324E+00 0.393E+00 -.263E+04   -.110E+00 -.960E-01 -.355E+00   -.219E-01 0.719E-02 -.136E+00
   0.132E-01 -.367E-02 0.263E+04   0.106E-03 0.117E-01 -.263E+04   -.746E-05 0.806E-03 -.384E+00   -.135E-01 -.857E-02 -.540E-01
   0.469E+01 0.279E+01 0.892E+03   -.429E+01 -.256E+01 -.891E+03   -.393E+00 -.225E+00 -.679E+00   -.385E-01 -.204E-01 -.232E+00
   -.987E-02 0.314E+00 0.894E+03   0.727E-03 -.319E+00 -.893E+03   -.263E-04 -.421E-01 -.113E+00   0.938E-02 -.152E-01 -.226E+00
   -.469E+01 0.278E+01 0.892E+03   0.429E+01 -.256E+01 -.891E+03   0.393E+00 -.224E+00 -.679E+00   0.337E-01 -.167E-01 -.241E+00
   0.197E+00 -.184E+00 0.894E+03   -.204E+00 0.176E+00 -.894E+03   -.389E-01 0.219E-01 -.117E+00   -.890E-02 0.176E-01 -.225E+00
   -.214E+00 -.182E+00 0.894E+03   0.205E+00 0.176E+00 -.894E+03   0.389E-01 0.219E-01 -.117E+00   0.253E-01 0.152E-01 -.235E+00
   0.788E-02 0.519E+01 0.897E+03   -.560E-03 -.533E+01 -.896E+03   -.359E-04 0.308E-02 -.584E+00   -.732E-02 0.482E-01 -.247E+00
   -.876E-03 -.543E+01 0.892E+03   0.386E-03 0.498E+01 -.891E+03   0.938E-05 0.450E+00 -.677E+00   0.500E-03 0.355E-01 -.240E+00
   0.455E+01 -.264E+01 0.897E+03   -.466E+01 0.272E+01 -.896E+03   0.238E-02 -.293E-02 -.579E+00   0.384E-01 -.316E-01 -.249E+00
   -.455E+01 -.265E+01 0.897E+03   0.466E+01 0.272E+01 -.896E+03   -.244E-02 -.290E-02 -.579E+00   -.388E-01 -.247E-01 -.246E+00
   -.933E-02 -.151E+01 -.865E+03   -.525E-02 0.163E+01 0.864E+03   0.940E-04 -.823E-01 0.509E+00   0.147E-01 -.469E-01 0.287E-01
   -.145E+02 -.798E+01 -.850E+03   0.155E+02 0.857E+01 0.851E+03   -.102E+01 -.585E+00 -.140E+01   -.247E-01 -.129E-01 0.274E-02
   0.145E+02 -.798E+01 -.850E+03   -.155E+02 0.858E+01 0.851E+03   0.102E+01 -.585E+00 -.140E+01   0.597E-02 -.132E-01 -.644E-03
   -.171E+02 0.932E+01 -.846E+03   0.168E+02 -.910E+01 0.846E+03   0.391E+00 -.230E+00 0.603E+00   -.164E-01 0.427E-02 -.238E-01
   0.342E-02 0.161E+02 -.850E+03   0.505E-02 -.173E+02 0.852E+03   -.432E-04 0.117E+01 -.141E+01   -.868E-02 0.149E-01 0.243E-02
   0.171E+02 0.932E+01 -.846E+03   -.168E+02 -.910E+01 0.846E+03   -.391E+00 -.229E+00 0.603E+00   0.209E-01 0.988E-02 -.268E-01
   0.159E+01 0.116E+01 -.866E+03   -.171E+01 -.123E+01 0.865E+03   0.748E-01 0.450E-01 0.494E+00   0.532E-01 0.257E-01 0.263E-01
   -.159E+01 0.116E+01 -.866E+03   0.171E+01 -.123E+01 0.865E+03   -.748E-01 0.451E-01 0.494E+00   -.505E-01 0.341E-01 0.299E-01
   0.133E-02 -.196E+02 -.847E+03   0.646E-03 0.192E+02 0.846E+03   0.265E-05 0.449E+00 0.595E+00   -.199E-02 -.172E-01 -.230E-01
   0.451E-02 0.353E+01 -.248E+04   -.121E-01 -.353E+01 0.248E+04   0.825E-04 -.153E-02 0.495E+00   0.754E-02 0.472E-03 0.158E+00
   0.442E+01 0.269E+01 -.249E+04   -.294E+01 -.521E+00 0.249E+04   -.145E+01 -.215E+01 -.567E+00   -.438E-01 0.998E-03 0.117E+00
   -.442E+01 0.264E+01 -.249E+04   0.296E+01 -.479E+00 0.249E+04   0.145E+01 -.215E+01 -.567E+00   0.281E-01 0.321E-02 0.119E+00
   0.256E+01 0.498E+01 -.248E+04   0.548E-01 -.478E+01 0.248E+04   -.258E+01 -.183E+00 -.482E+00   -.227E-01 -.397E-01 0.113E+00
   -.249E+01 0.497E+01 -.248E+04   -.111E+00 -.477E+01 0.248E+04   0.258E+01 -.183E+00 -.483E+00   0.108E-01 -.346E-01 0.118E+00
   -.465E+01 -.769E+01 -.249E+04   0.578E+01 0.533E+01 0.249E+04   -.113E+01 0.233E+01 -.570E+00   0.222E-01 0.248E-01 0.117E+00
   0.463E+01 -.765E+01 -.249E+04   -.576E+01 0.529E+01 0.249E+04   0.113E+01 0.233E+01 -.570E+00   -.297E-01 0.271E-01 0.120E+00
   0.244E-01 -.337E+01 -.248E+04   -.189E-01 0.337E+01 0.248E+04   0.480E-04 0.170E-02 0.701E+00   -.574E-02 -.239E-02 0.130E+00
   -.201E-01 -.878E-01 -.105E+04   0.195E-01 0.894E-01 0.105E+04   0.120E-04 0.226E-02 0.250E+01   0.387E-03 0.109E-02 0.490E-01
   0.177E-02 -.177E+00 -.776E+03   -.348E-03 0.177E+00 0.776E+03   -.126E-02 0.674E-03 -.117E+00   0.423E-03 -.331E-04 0.157E-01
   0.261E+03 -.764E-01 -.116E+04   -.325E+03 0.898E-01 0.116E+04   0.639E+02 -.112E-01 0.381E+00   0.265E-02 0.214E-02 0.174E-01
   -.261E+03 0.209E+00 -.116E+04   0.325E+03 -.260E+00 0.116E+04   -.639E+02 0.594E-01 0.809E-01   -.606E-02 -.355E-02 0.271E-01
   0.282E-01 -.269E-01 0.924E+01   0.568E-13 -.528E-13 -.182E-11   -.437E-02 0.488E-01 -.727E+01   -.295E-01 -.128E-01 -.209E+01

 POSITION                                       TOTAL-FORCE (eV/Angst)
      0.00000      0.00000      5.28038         0.000134     -0.000139     -0.154832
      2.93784      0.00000      5.28038         0.002840     -0.013396     -0.054725
      5.87568      0.00000      5.28038        -0.002529     -0.013366     -0.054695
      1.46892      2.54424      5.28038        -0.009304      0.008548     -0.054977
      4.40676      2.54424      5.28038         0.000363      0.000390     -0.066825
      7.34459      2.54424      5.28038         0.009585      0.008577     -0.054886
      2.93784      5.08848      5.28038        -0.012373      0.003732     -0.055358
      5.87568      5.08848      5.28038         0.012698      0.003710     -0.055312
      8.81351      5.08848      5.28038        -0.000075      0.000046     -0.075714
      1.46892      0.84808      7.67911        -0.031305     -0.018605      0.071652
      4.40676      0.84808      7.67911         0.000360     -0.062844     -0.072634
      7.34459      0.84808      7.67911         0.031592     -0.018579      0.071605
      2.93784      3.39232      7.67911        -0.054435      0.030850     -0.072270
      5.87568      3.39232      7.67911         0.055173      0.030849     -0.072371
      8.81351      3.39232      7.67911         0.000118     -0.083501      0.066512
      4.40676      5.93656      7.67911         0.000167      0.035860      0.072152
      7.34459      5.93656      7.67911        -0.072323      0.041474      0.065929
     10.28243      5.93656      7.67911         0.072620      0.041502      0.065965
      8.81351      1.70341     10.09804         0.000370     -0.008336      0.011414
      2.93277      1.69323     10.04724        -0.001392     -0.001779      0.009544
      5.88075      1.69323     10.04724         0.001188     -0.001789      0.009437
     10.26617      4.24979     10.06844         0.001079      0.000170      0.038135
      4.40676      4.24626     10.04724        -0.000112     -0.000870      0.007209
      7.36086      4.24979     10.06844        -0.000786      0.000188      0.038107
     11.74508      6.78102     10.09804         0.006327      0.003658      0.010862
      5.88195      6.78102     10.09804        -0.005989      0.003669      0.010888
      8.81351      6.76586     10.06844         0.000136     -0.000990      0.035117
      0.00000      0.00000     12.50054         0.000151      0.000081     -0.025600
      2.99863      0.09131     12.57640        -0.012080      0.018618      0.046918
      5.81488      0.09131     12.57640         0.011956      0.018535      0.047054
      1.57839      2.55123     12.57640         0.008012     -0.019995      0.044269
      7.23512      2.55123     12.57640        -0.008061     -0.019951      0.044478
      2.98652      4.99018     12.57640         0.023583      0.000910      0.047581
      5.82700      4.99018     12.57640        -0.023703      0.000879      0.047632
      8.81351      5.08848     12.50707        -0.000045     -0.001050      0.075089
      4.40676      2.54424     12.20058        -0.000084      0.004692     -0.061679
      4.40647      2.53376     16.48963         0.000731     -0.000130     -0.006050
      3.22993      2.53405     16.48139        -0.006774      0.004139      0.001042
      5.58304      2.53279     16.48688         0.002187      0.004245     -0.000664
    total drift:                               -0.005757      0.009134     -0.126489

  FREE ENERGIE OF THE ION-ELECTRON SYSTEM (eV)
  free  energy   TOTEN  =      -140.61326569 eV

  energy  without entropy=     -140.61326569  energy(sigma->0) =     -140.61326569

 stress matrix after NEB project (eV)
    -24.50505     -0.00921      0.00373
     -0.00921    -24.53309      0.00173
      0.00373      0.00173      2.02762
  FORCES: max atom, RMS     0.008007    0.001787
  FORCE total and by dimension    0.011159    0.006774
  Stress total and by dimension   34.734445   24.533090
|           W    W    AA    RRRRR   N    N  II  N    N   GGGG   !!!           |
|           W    W   A  A   R    R  NN   N  II  NN   N  G    G  !!!           |
|           W    W  A    A  R    R  N N  N  II  N N  N  G       !!!           |
|           W WW W  AAAAAA  RRRRR   N  N N  II  N  N N  G  GGG   !            |
|           WW  WW  A    A  R   R   N   NN  II  N   NN  G    G                |
|           W    W  A    A  R    R  N    N  II  N    N   GGGG   !!!           |
|     Tetrahedron method does not include variations of the Fermi             |
|     occupations, so forces and stress will be inaccurate. We suggest        |
|     using a different smearing scheme ISMEAR = 1 or 2 for metals in         |
|     relaxations.                                                            |

 total charge

# of ion       s       p       d       tot
    1        0.549   0.236   8.767   9.552
    2        0.540   0.241   8.765   9.547
    3        0.540   0.241   8.765   9.547
    4        0.540   0.241   8.765   9.547
    5        0.547   0.241   8.760   9.548
    6        0.540   0.241   8.765   9.547
    7        0.540   0.241   8.765   9.547
    8        0.540   0.241   8.765   9.547
    9        0.544   0.239   8.766   9.550
   10        0.528   0.306   8.766   9.600
   11        0.520   0.307   8.780   9.607
   12        0.528   0.306   8.766   9.600
   13        0.520   0.307   8.780   9.607
   14        0.520   0.307   8.780   9.607
   15        0.516   0.307   8.774   9.597
   16        0.528   0.306   8.766   9.600
   17        0.516   0.307   8.774   9.597
   18        0.516   0.307   8.774   9.597
   19        0.517   0.296   8.769   9.581
   20        0.582   0.348   8.714   9.645
   21        0.582   0.348   8.714   9.645
   22        0.508   0.304   8.779   9.591
   23        0.583   0.348   8.714   9.645
   24        0.508   0.304   8.779   9.591
   25        0.517   0.296   8.768   9.581
   26        0.517   0.296   8.768   9.581
   27        0.508   0.304   8.779   9.591
   28        0.538   0.226   8.753   9.517
   29        0.595   0.254   8.720   9.569
   30        0.595   0.254   8.720   9.569
   31        0.594   0.253   8.721   9.568
   32        0.594   0.253   8.721   9.568
   33        0.595   0.254   8.720   9.569
   34        0.595   0.254   8.720   9.569
   35        0.537   0.227   8.756   9.520
   36        0.646   0.551   2.865   4.063
   37        0.933   1.802   0.000   2.734
   38        1.607   3.529   0.000   5.136
   39        1.607   3.529   0.000   5.136
tot         23.835  19.151 309.326 352.311

 BZINTS: Fermi energy:    0.356668;  406.000000 electrons
         Band energy:-0.149986E+04;  BLOECHL correction:   -0.032144