 vasp.6.2.0 18Jan21 (build Jun 12 2021 23:27:24) complex

 executed on             LinuxIFC date 2022.05.30  17:13:06

 INCAR:
   ISMEAR = -5
   SIGMA = 0.1
   ISPIN = 1
   EDIFF = 1.d-5
   EDIFFG = -0.01
   NSW = 0
   NELM = 150
   ENCUT = 500
   ISIF = 2
   IBRION = 2
   LREAL = Auto
   ALGO = Fast
   ICHARG = 11
   LORBIT = 10
   LCHARG = .F.
   LWAVE = .F.

 POTCAR:    PAW_PBE Ag 02Apr2005
 POTCAR:    PAW_PBE Zr_sv 04Jan2005
 POTCAR:    PAW_PBE C 08Apr2002
|           W    W    AA    RRRRR   N    N  II  N    N   GGGG   !!!           |
|           W    W   A  A   R    R  NN   N  II  NN   N  G    G  !!!           |
|           W    W  A    A  R    R  N N  N  II  N N  N  G       !!!           |
|           W WW W  AAAAAA  RRRRR   N  N N  II  N  N N  G  GGG   !            |
|           WW  WW  A    A  R   R   N   NN  II  N   NN  G    G                |
|           W    W  A    A  R    R  N    N  II  N    N   GGGG   !!!           |
|     For optimal performance we recommend to set                             |
|       NCORE = 2 up to number-of-cores-per-socket                            |
|     This setting can greatly improve the performance of VASP for DFT.       |
|     The default, NCORE=1 might be grossly inefficient on modern             |
|     multi-core architectures or massively parallel machines. Do your        |
|     Unfortunately you need to use the default for GW and RPA                |
|     calculations (for HF NCORE is supported but not extensively tested      |
|     yet).                                                                   |

 POTCAR:    PAW_PBE Ag 02Apr2005
   VRHFIN =Ag : s1 d10

   TITEL  = PAW_PBE Ag 02Apr2005
   POMASS =  107.868; ZVAL   =   11.000    mass and valenz
   ENMAX  =  249.844; ENMIN  =  187.383 eV

 POTCAR:    PAW_PBE Zr_sv 04Jan2005
   VRHFIN =Zr: 4s4p5s4d

   TITEL  = PAW_PBE Zr_sv 04Jan2005
   POMASS =   91.224; ZVAL   =   12.000    mass and valenz
   ENMAX  =  229.898; ENMIN  =  172.424 eV

 POTCAR:    PAW_PBE C 08Apr2002
   VRHFIN =C: s2p2

   TITEL  = PAW_PBE C 08Apr2002
   POMASS =   12.011; ZVAL   =    4.000    mass and valenz
   ENMAX  =  400.000; ENMIN  =  300.000 eV

 Optimization of the real space projectors (new method)

 maximal supplied QI-value         = 15.12
 optimisation between [QCUT,QGAM] = [ 11.34, 22.83] = [ 36.00,145.93] Ry
 Optimized for a Real-space Cutoff    1.43 Angstroem

   l    n(q)    QCUT    max X(q) W(low)/X(q) W(high)/X(q)  e(spline)
   2      9    11.338    53.897    0.16E-03    0.20E-03    0.28E-06
   2      9    11.338    52.416    0.16E-03    0.20E-03    0.29E-06
   0     10    11.338   122.045    0.31E-04    0.76E-04    0.15E-06
   0     10    11.338    73.629    0.30E-04    0.72E-04    0.15E-06
   1      9    11.338    15.255    0.20E-03    0.19E-04    0.17E-06
   1      9    11.338     9.562    0.16E-03    0.15E-04    0.14E-06
 Optimization of the real space projectors (new method)

[...]

   l    n(q)    QCUT    max X(q) W(low)/X(q) W(high)/X(q)  e(spline)
   0     10    11.338    12.107    0.38E-04    0.13E-04    0.27E-07
   0     10    11.338     9.948    0.69E-04    0.30E-04    0.38E-07
   1     10    11.338     3.563    0.26E-04    0.18E-04    0.40E-07
   1     10    11.338     4.524    0.25E-03    0.39E-04    0.44E-06
   2      9    11.338    87.261    0.26E-03    0.91E-05    0.26E-06
   2      9    11.338    70.950    0.25E-03    0.91E-05    0.25E-06
 Optimization of the real space projectors (new method)

 maximal supplied QI-value         = 25.13
 optimisation between [QCUT,QGAM] = [ 11.31, 22.87] = [ 35.82,146.48] Ry
 Optimized for a Real-space Cutoff    1.00 Angstroem

   l    n(q)    QCUT    max X(q) W(low)/X(q) W(high)/X(q)  e(spline)
   0      7    11.310   115.676    0.43E-03    0.13E-02    0.19E-06
   0      7    11.310    87.132    0.43E-03    0.13E-02    0.18E-06
   1      6    11.310     4.429    0.42E-03    0.74E-03    0.11E-06
   1      6    11.310     2.733    0.34E-03    0.55E-03    0.92E-07
  PAW_PBE Ag 02Apr2005                  :
  PAW_PBE Zr_sv 04Jan2005               :
  PAW_PBE C 08Apr2002                   :

 POSCAR: Ag-Zr-C
  positions in direct lattice
  velocities in cartesian coordinates
 exchange correlation table for  LEXCH =        8
   RHO(1)=    0.500       N(1)  =     2000
   RHO(2)=  100.500       N(2)  =     4000

 VTST: version 3.2, (02/03/18)

 CHAIN: initializing optimizer

 OPT: Using VASP Conjugate-Gradient optimizer
 CHAIN: Read ICHAIN            0

 POSCAR: Ag-Zr-C
  positions in direct lattice
  velocities in cartesian coordinates

 ion  position               nearest neighbor table
   1  0.000  0.000  0.217-   2 2.93   8 2.93   7 2.93   6 2.93   4 2.93  12 2.93  16 2.93  10 2.93
                             3 2.93
   2  0.333  0.000  0.217-   1 2.93   8 2.93   9 2.93   3 2.93   4 2.93   5 2.93  10 2.93  17 2.93
                            11 2.93
   3  0.667  0.000  0.217-   9 2.93   2 2.93   5 2.93  11 2.93   7 2.93  18 2.93   1 2.93   6 2.93
                            12 2.93
   4  0.000  0.333  0.217-   5 2.93   6 2.93   2 2.93   1 2.93   7 2.93  13 2.93  15 2.93   9 2.93
                            10 2.93
   5  0.333  0.333  0.217-   4 2.93   3 2.93   7 2.93   2 2.93   8 2.93  14 2.93  13 2.93  11 2.93
                             6 2.93
   6  0.667  0.333  0.217-   4 2.93   9 2.93   1 2.93  15 2.93   8 2.93  12 2.93   3 2.93   5 2.93
                            14 2.93
   7  0.000  0.667  0.217-   8 2.93   1 2.93   5 2.93   3 2.93   4 2.93  16 2.93  18 2.93  13 2.93
                             9 2.93
   8  0.333  0.667  0.217-   7 2.93   1 2.93   2 2.93   9 2.93   5 2.93  16 2.93   6 2.93  17 2.93
                            14 2.93
   9  0.667  0.667  0.217-   3 2.93   2 2.93   8 2.93   6 2.93  17 2.93   4 2.93  15 2.93   7 2.93
                            18 2.93
  10  0.111  0.111  0.315-  20 2.91  19 2.92  26 2.92  12 2.93  16 2.93  15 2.93  17 2.93  13 2.93
                            11 2.93   2 2.93   1 2.93   4 2.93
  11  0.444  0.111  0.315-  21 2.91  20 2.91  14 2.93  17 2.93  18 2.93   3 2.93  12 2.93  13 2.93
                            10 2.93   5 2.93   2 2.93  27 2.93
  12  0.778  0.111  0.315-  21 2.91  25 2.92  19 2.92  10 2.93  16 2.93  18 2.93  15 2.93  11 2.93
                             1 2.93  14 2.93   6 2.93   3 2.93
  13  0.111  0.444  0.315-  20 2.91  23 2.91  15 2.93  14 2.93  18 2.93  10 2.93  11 2.93  16 2.93
                             4 2.93   5 2.93   7 2.93  22 2.93
  14  0.444  0.444  0.315-  23 2.91  21 2.91  13 2.93  11 2.93  16 2.93   5 2.93  12 2.93  17 2.93
                             8 2.93  15 2.93   6 2.93  24 2.93
  15  0.778  0.444  0.315-  19 2.92  13 2.93  10 2.93  12 2.93  17 2.93  18 2.93   4 2.93   6 2.93
                             9 2.93  14 2.93  24 2.93  22 2.93
  16  0.111  0.778  0.315-  23 2.91  26 2.92  25 2.92  18 2.93  12 2.93  10 2.93  14 2.93  17 2.93
                            13 2.93   7 2.93   8 2.93   1 2.93
  17  0.444  0.778  0.315-  26 2.92  11 2.93  10 2.93   9 2.93  18 2.93  15 2.93  16 2.93   2 2.93
                            14 2.93   8 2.93  27 2.93  24 2.93
  18  0.778  0.778  0.315-  25 2.92  16 2.93  12 2.93  13 2.93  11 2.93  17 2.93  15 2.93   7 2.93
                             3 2.93   9 2.93  22 2.93  27 2.93
  19  0.889  0.222  0.412-  10 2.92  12 2.92  15 2.92  26 2.93  25 2.93  20 2.93  21 2.93  24 2.93
                            22 2.93  28 2.93  32 2.97  31 2.97
  20  0.222  0.222  0.412-  13 2.91  11 2.91  10 2.91  36 2.92  21 2.93  23 2.93  27 2.93  22 2.93
                            19 2.93  26 2.93  31 2.97  29 2.97
  21  0.555  0.222  0.412-  11 2.91  14 2.91  12 2.91  36 2.92  20 2.93  23 2.93  27 2.93  24 2.93
                            25 2.93  19 2.93  30 2.97  32 2.97
  22  0.889  0.556  0.413-  24 2.93  27 2.93  23 2.93  20 2.93  18 2.93  15 2.93  13 2.93  25 2.93
                            19 2.93  35 2.94  33 2.95  31 2.95
  23  0.222  0.555  0.412-  14 2.91  13 2.91  16 2.91  36 2.92  21 2.93  20 2.93  22 2.93  24 2.93
                            26 2.93  25 2.93  34 2.97  33 2.97
  24  0.556  0.556  0.413-  27 2.93  22 2.93  23 2.93  21 2.93  15 2.93  17 2.93  14 2.93  19 2.93
                            26 2.93  35 2.94  32 2.95  34 2.95
  25  0.889  0.889  0.412-  16 2.92  12 2.92  18 2.92  26 2.93  19 2.93  23 2.93  21 2.93  22 2.93
                            27 2.93  28 2.93  33 2.97  30 2.97
  26  0.222  0.889  0.412-  16 2.92  10 2.92  17 2.92  25 2.93  19 2.93  23 2.93  20 2.93  27 2.93
                            24 2.93  28 2.93  34 2.97  29 2.97
  27  0.556  0.889  0.413-  24 2.93  22 2.93  20 2.93  21 2.93  17 2.93  18 2.93  11 2.93  26 2.93
                            25 2.93  35 2.94  29 2.95  30 2.95
  28  0.000  0.000  0.511-  29 2.93  34 2.93  33 2.93  32 2.93  31 2.93  30 2.93  26 2.93  25 2.93
                            19 2.93
  29  0.334  0.000  0.512-  30 2.93  36 2.93  35 2.93  31 2.93  28 2.93  34 2.94  27 2.95  26 2.97
                            20 2.97
  30  0.666  0.000  0.512-  29 2.93  36 2.93  35 2.93  32 2.93  28 2.93  33 2.94  27 2.95  25 2.97
                            21 2.97
  31  0.000  0.334  0.512-  33 2.93  36 2.93  35 2.93  29 2.93  28 2.93  32 2.94  22 2.95  19 2.97
                            20 2.97
  32  0.666  0.334  0.512-  34 2.93  36 2.93  35 2.93  30 2.93  28 2.93  31 2.94  24 2.95  19 2.97
                            21 2.97
  33  0.000  0.666  0.512-  31 2.93  36 2.93  35 2.93  34 2.93  28 2.93  30 2.94  22 2.95  25 2.97
                            23 2.97
  34  0.334  0.666  0.512-  32 2.93  36 2.93  35 2.93  33 2.93  28 2.93  29 2.94  24 2.95  26 2.97
                            23 2.97
  35  0.667  0.667  0.512-  30 2.93  29 2.93  32 2.93  34 2.93  31 2.93  33 2.93  24 2.94  27 2.94
                            22 2.94
  36  0.333  0.333  0.510-  37 1.89  21 2.92  20 2.92  23 2.92  31 2.93  33 2.93  30 2.93  29 2.93
                            34 2.93  32 2.93
  37  0.333  0.333  0.588-  36 1.89

  LATTYP: Found a hexagonal cell.
 ALAT       =     8.7913665772
 C/A-ratio  =     2.7711238095

  Lattice vectors:

 A1 = (  -4.3956832886,  -7.6135467898,   0.0000000000)
 A2 = (   8.7913665771,   0.0000000000,   0.0000000000)
 A3 = (   0.0000000000,   0.0000000000,  24.3619652401)

Analysis of symmetry for initial positions (statically):
 Subroutine PRICEL returns:
 Original cell was already a primitive cell.

 Routine SETGRP: Setting up the symmetry group for a
 hexagonal supercell.

 Subroutine GETGRP returns: Found  6 space group operations
 (whereof  6 operations were pure point group operations)
 out of a pool of 24 trial point group operations.

The static configuration has the point symmetry C_3v.

Analysis of symmetry for dynamics (positions and initial velocities):
 Subroutine PRICEL returns:
 Original cell was already a primitive cell.

[...]

The dynamic configuration has the point symmetry C_3v.

Analysis of constrained symmetry for selective dynamics:
 Subroutine PRICEL returns:
 Original cell was already a primitive cell.

 Routine SETGRP: Setting up the symmetry group for a
 hexagonal supercell.

 Subroutine GETGRP returns: Found  6 space group operations
[...]
     24      -5.2843      2.00000
     25      -5.2740      2.00000
     26      -5.2600      2.00000
     27      -5.2423      2.00000
     28      -5.2342      2.00000
     29      -5.2096      2.00000
     30      -5.1985      2.00000
     31      -5.1955      2.00000
     32      -5.1640      2.00000
     33      -5.1534      2.00000
     34      -5.1501      2.00000
     35      -5.1149      2.00000
     36      -5.1095      2.00000
     37      -5.0981      2.00000
     38      -5.0637      2.00000
     39      -5.0424      2.00000
     40      -5.0394      2.00000
     41      -4.9953      2.00000
     42      -4.9669      2.00000
     43      -4.9368      2.00000
     44      -4.9312      2.00000
     45      -4.9224      2.00000
     46      -4.9191      2.00000
     47      -4.9007      2.00000
     48      -4.7989      2.00000
     49      -4.7866      2.00000
     50      -4.7781      2.00000
     51      -4.7610      2.00000
     52      -4.7578      2.00000
     53      -4.7519      2.00000
     54      -4.7476      2.00000
     55      -4.7419      2.00000
     56      -4.7302      2.00000
     57      -4.7162      2.00000
     58      -4.6561      2.00000
     59      -4.6456      2.00000
     60      -4.6439      2.00000
[...]
    238       5.7250      0.00000
    239       5.7520      0.00000
    240       5.8090      0.00000
    241       5.8426      0.00000
    242       5.9070      0.00000
    243       5.9362      0.00000
    244       6.1717      0.00000
    245       6.6035      0.00000
    246       6.6105      0.00000
    247       6.6658      0.00000
    248       6.6708      0.00000
    249       6.7113      0.00000
    250       6.7686      0.00000
    251       6.8522      0.00000
    252       6.9545      0.00000

 soft charge-density along one line, spin component           1
         0         1         2         3         4         5         6         7         8         9
 total charge-density along one line

------------------------ aborting loop because EDIFF is reached ----------------------------------------

 total charge

# of ion       s       p       d       tot
    1        0.415   0.203   9.177   9.796
    2        0.416   0.203   9.177   9.796
    3        0.416   0.203   9.177   9.796
    4        0.416   0.203   9.177   9.796
    5        0.420   0.201   9.176   9.797
    6        0.416   0.203   9.177   9.796
    7        0.416   0.203   9.177   9.796
    8        0.416   0.203   9.177   9.796
    9        0.416   0.203   9.178   9.797
   10        0.406   0.272   9.163   9.840
   11        0.409   0.266   9.166   9.841
   12        0.406   0.272   9.163   9.840
   13        0.409   0.266   9.166   9.841
   14        0.409   0.266   9.166   9.841
   15        0.402   0.270   9.163   9.836
   16        0.406   0.272   9.163   9.840
   17        0.402   0.270   9.163   9.836
   18        0.402   0.270   9.163   9.836
   19        0.401   0.268   9.166   9.834
   20        0.424   0.288   9.149   9.862
   21        0.424   0.288   9.149   9.862
   22        0.394   0.271   9.165   9.830
   23        0.424   0.288   9.149   9.862
   24        0.394   0.271   9.165   9.830
   25        0.401   0.268   9.166   9.834
   26        0.401   0.268   9.166   9.834
   27        0.394   0.271   9.165   9.830
   28        0.414   0.202   9.178   9.794
   29        0.437   0.210   9.163   9.810
   30        0.437   0.210   9.163   9.810
   31        0.437   0.210   9.163   9.810
   32        0.437   0.210   9.163   9.810
   33        0.437   0.210   9.163   9.810
   34        0.437   0.210   9.163   9.810
   35        0.412   0.201   9.178   9.792
   36        2.196   5.962   1.938  10.095
   37        1.006   1.190   0.000   2.196
tot         17.702  15.548 322.784 356.033

  FORCE on cell =-STRESS in cart. coord.  units (eV):
  Direction    XX          YY          ZZ          XY          YZ          ZX
  Alpha Z   697.82492   697.82492   697.82492
  Ewald  154059.40108154059.40116************     0.00002     0.00000     0.00003
  Hartree164090.59230164090.59233************     0.00001     0.00000     0.00001
  E(xc)   -2094.33013 -2094.33011 -2099.25126    -0.00001     0.00000     0.00000
  Local  ************************329750.62724     0.00032    -0.00005    -0.00012
  n-local  -329.01866  -312.59095  -336.64663    10.31897    -0.57805     0.58969
  augment  3219.89497  3219.89519  3238.08273    -0.00020    -0.00002    -0.00001
  Kinetic  5040.89285  5042.57351  5090.73104     3.75875     0.66523    -0.24739
  Fock        0.00000     0.00000     0.00000     0.00000     0.00000     0.00000
  Total      -5.62063    -5.62063    -0.70321    -0.00000     0.00000     0.00000
  in kB      -5.52256    -5.52256    -0.69094    -0.00000     0.00000     0.00000

 VOLUME and BASIS-vectors are now :
  energy-cutoff  :      500.00
  volume of cell :     1630.63
      direct lattice vectors                 reciprocal lattice vectors
     8.791366577  0.000000000  0.000000000     0.113747958 -0.065672414  0.000000000
     4.395683289  7.613546790  0.000000000     0.000000000  0.131344829  0.000000000
     0.000000000  0.000000000 24.361965240     0.000000000  0.000000000  0.041047592

  length of vectors
     8.791366577  8.791366577 24.361965240     0.131344829  0.131344829  0.041047592

 FORCES acting on ions
    electron-ion (+dipol)            ewald-force                    non-local-force                 convergence-correction
   0.465E-04 -.279E-04 0.269E+04   -.953E-04 0.593E-04 -.269E+04   0.199E-17 -.224E-17 -.212E+01   -.913E-04 -.161E-03 -.146E+00
   -.192E+00 0.458E+00 0.269E+04   0.397E-01 -.546E+00 -.269E+04   0.782E-01 0.859E-01 -.166E+01   0.692E-01 0.513E-03 -.411E-01
   0.192E+00 0.458E+00 0.269E+04   -.396E-01 -.546E+00 -.269E+04   -.782E-01 0.859E-01 -.166E+01   -.698E-01 0.236E-02 -.404E-01
   0.300E+00 -.395E+00 0.269E+04   -.453E+00 0.307E+00 -.269E+04   0.114E+00 0.247E-01 -.166E+01   0.353E-01 0.598E-01 -.412E-01
   -.692E-05 -.196E-04 0.269E+04   0.981E-04 -.201E-05 -.269E+04   -.292E-18 -.165E-18 -.132E+01   0.616E-02 0.374E-02 0.700E-01
   -.300E+00 -.395E+00 0.269E+04   0.453E+00 0.307E+00 -.269E+04   -.114E+00 0.247E-01 -.166E+01   -.366E-01 0.607E-01 -.405E-01
   0.492E+00 -.626E-01 0.269E+04   -.493E+00 0.239E+00 -.269E+04   0.353E-01 -.111E+00 -.166E+01   -.324E-01 -.610E-01 -.405E-01
   -.492E+00 -.626E-01 0.269E+04   0.493E+00 0.238E+00 -.269E+04   -.353E-01 -.111E+00 -.166E+01   0.340E-01 -.620E-01 -.405E-01
   0.364E-04 -.130E-04 0.269E+04   0.792E-04 -.643E-04 -.269E+04   -.521E-17 -.171E-17 -.189E+01   -.660E-02 -.336E-02 -.556E-02
   0.150E+01 0.864E+00 0.931E+03   -.131E+01 -.758E+00 -.930E+03   -.230E+00 -.133E+00 -.723E+00   0.431E-01 0.246E-01 0.269E-01
   -.282E-04 0.514E+01 0.933E+03   0.410E-04 -.521E+01 -.933E+03   0.150E-12 0.228E-01 -.476E+00   0.618E-02 0.218E-01 0.549E-01
   -.150E+01 0.864E+00 0.931E+03   0.131E+01 -.758E+00 -.930E+03   0.230E+00 -.133E+00 -.723E+00   -.443E-01 0.251E-01 0.260E-01
   0.446E+01 -.257E+01 0.933E+03   -.451E+01 0.260E+01 -.933E+03   0.198E-01 -.114E-01 -.476E+00   0.221E-01 -.557E-02 0.546E-01
   -.446E+01 -.257E+01 0.933E+03   0.451E+01 0.260E+01 -.933E+03   -.198E-01 -.114E-01 -.476E+00   -.120E-01 -.672E-02 0.523E-01
   0.157E-04 -.303E+01 0.927E+03   -.109E-03 0.297E+01 -.926E+03   0.306E-12 0.466E-01 -.726E+00   -.122E-02 0.220E-01 0.484E-01
   -.801E-05 -.173E+01 0.931E+03   0.208E-04 0.152E+01 -.930E+03   0.174E-11 0.265E+00 -.723E+00   -.387E-03 -.509E-01 0.256E-01
   -.262E+01 0.151E+01 0.927E+03   0.257E+01 -.148E+01 -.926E+03   0.403E-01 -.233E-01 -.726E+00   0.184E-01 -.117E-01 0.490E-01
   0.262E+01 0.151E+01 0.927E+03   -.257E+01 -.148E+01 -.926E+03   -.403E-01 -.233E-01 -.726E+00   -.181E-01 -.103E-01 0.500E-01
   0.398E-04 -.250E+01 -.856E+03   -.130E-03 0.230E+01 0.855E+03   0.808E-12 0.123E+00 0.981E+00   0.934E-03 0.971E-01 -.109E+00
   0.179E+02 0.104E+02 -.830E+03   -.176E+02 -.102E+02 0.830E+03   -.558E+00 -.322E+00 -.461E+00   0.389E-01 0.217E-01 -.144E+00
   -.179E+02 0.104E+02 -.830E+03   0.176E+02 -.102E+02 0.830E+03   0.558E+00 -.322E+00 -.461E+00   -.502E-01 0.206E-01 -.144E+00
   0.807E+01 -.466E+01 -.861E+03   -.829E+01 0.479E+01 0.861E+03   0.168E+00 -.973E-01 0.448E+00   0.634E-01 -.293E-01 -.128E+00
   -.548E-04 -.207E+02 -.830E+03   0.455E-04 0.203E+02 0.830E+03   0.423E-11 0.644E+00 -.461E+00   -.677E-02 -.536E-01 -.144E+00
   -.807E+01 -.466E+01 -.861E+03   0.829E+01 0.479E+01 0.861E+03   -.168E+00 -.973E-01 0.448E+00   -.513E-01 -.288E-01 -.128E+00
   0.217E+01 0.125E+01 -.856E+03   -.199E+01 -.115E+01 0.855E+03   -.107E+00 -.615E-01 0.981E+00   -.862E-01 -.492E-01 -.110E+00
   -.217E+01 0.125E+01 -.856E+03   0.199E+01 -.115E+01 0.855E+03   0.107E+00 -.615E-01 0.981E+00   0.956E-01 -.475E-01 -.109E+00
   0.204E-04 0.932E+01 -.861E+03   0.109E-03 -.957E+01 0.861E+03   0.128E-11 0.195E+00 0.448E+00   0.449E-02 0.698E-01 -.128E+00
   0.553E-04 -.355E-04 -.263E+04   -.119E-03 0.784E-04 0.263E+04   -.288E-17 -.154E-17 0.185E+01   0.630E-04 0.104E-03 0.100E-01
   0.260E+02 0.383E+02 -.263E+04   -.256E+02 -.376E+02 0.263E+04   -.524E+00 -.813E+00 0.184E+01   0.718E-01 -.480E-01 -.187E-01
   -.260E+02 0.383E+02 -.263E+04   0.256E+02 -.376E+02 0.263E+04   0.524E+00 -.813E+00 0.184E+01   -.728E-01 -.468E-01 -.185E-01
   0.462E+02 0.337E+01 -.263E+04   -.453E+02 -.343E+01 0.263E+04   -.966E+00 -.473E-01 0.184E+01   -.523E-02 0.862E-01 -.180E-01
   -.462E+02 0.337E+01 -.263E+04   0.453E+02 -.343E+01 0.263E+04   0.966E+00 -.473E-01 0.184E+01   0.471E-02 0.870E-01 -.169E-01
   0.202E+02 -.417E+02 -.263E+04   -.197E+02 0.410E+02 0.263E+04   -.442E+00 0.860E+00 0.184E+01   -.765E-01 -.390E-01 -.184E-01
   -.202E+02 -.417E+02 -.263E+04   0.197E+02 0.410E+02 0.263E+04   0.442E+00 0.860E+00 0.184E+01   0.777E-01 -.392E-01 -.170E-01
   0.200E-04 -.984E-05 -.264E+04   0.105E-03 -.671E-04 0.264E+04   0.177E-17 -.107E-17 0.198E+01   -.629E-02 -.293E-02 0.392E-01
   0.224E-03 -.149E-03 -.268E+04   0.112E-03 0.106E-04 0.268E+04   0.932E-18 -.658E-18 -.156E+01   0.505E-02 0.296E-02 -.852E-01
   0.551E-04 -.305E-04 -.122E+04   0.146E-04 0.164E-06 0.123E+04   0.101E-17 -.336E-19 -.211E+01   0.757E-03 0.451E-03 -.502E-01
   0.640E-03 -.849E-03 0.814E+01   -.991E-13 -.355E-12 -.118E-10   -.163E-15 -.224E-15 -.696E+01   0.211E-01 0.104E-01 -.127E+01

 POSITION                                       TOTAL-FORCE (eV/Angst)
      0.00000      0.00000      5.28219        -0.000000     -0.000000      0.009686
      2.93046      0.00000      5.28219        -0.004265     -0.000735      0.019498
      5.86091      0.00000      5.28219         0.004265     -0.000735      0.019498
      1.46523      2.53785      5.28219        -0.002769     -0.003327      0.019498
      4.39568      2.53785      5.28219        -0.000000      0.000000     -0.025019
      7.32614      2.53785      5.28219         0.002769     -0.003327      0.019498
      2.93046      5.07570      5.28219         0.001496      0.004061      0.019498
      5.86091      5.07570      5.28219        -0.001496      0.004061      0.019498
      8.79137      5.07570      5.28219        -0.000000      0.000000      0.021087
      1.46523      0.84595      7.67490        -0.002548     -0.001471     -0.040861
      4.39568      0.84595      7.67490        -0.000000     -0.020388     -0.059383
      7.32614      0.84595      7.67490         0.002548     -0.001471     -0.040861
      2.93046      3.38380      7.67490        -0.017657      0.010194     -0.059383
      5.86091      3.38380      7.67490         0.017657      0.010194     -0.059383
      8.79137      3.38380      7.67490         0.000000      0.008568      0.022283
      4.39568      5.92165      7.67490         0.000000      0.002943     -0.040861
      7.32614      5.92165      7.67490         0.007420     -0.004284      0.022283
     10.25659      5.92165      7.67490        -0.007420     -0.004284      0.022283
      8.79137      1.69022     10.04930         0.000000      0.027343      0.106521
      2.93117      1.69231     10.04246        -0.164005     -0.094688     -0.118771
      5.86019      1.69231     10.04246         0.164005     -0.094688     -0.118771
     10.25641      4.22985     10.06824         0.005252     -0.003032      0.065907
      4.39568      4.22892     10.04246         0.000000      0.189377     -0.118771
      7.32632      4.22985     10.06824        -0.005252     -0.003032      0.065907
     11.72328      6.76844     10.04930        -0.023680     -0.013671      0.106521
      5.85946      6.76844     10.04930         0.023680     -0.013671      0.106521
      8.79137      6.76739     10.06824         0.000000      0.006065      0.065907
      0.00000      0.00000     12.44689        -0.000000      0.000000     -0.068306
      2.93311      0.00118     12.48352        -0.073670     -0.082195      0.057528
      5.85826      0.00118     12.48352         0.073670     -0.082195      0.057528
      1.46758      2.53956     12.48352        -0.108018     -0.022703      0.057528
      7.32379      2.53956     12.48352         0.108018     -0.022703      0.057528
      2.93015      5.07281     12.48352        -0.034348      0.104898      0.057528
      5.86121      5.07281     12.48352         0.034348      0.104898      0.057528
      8.79137      5.07570     12.47551        -0.000000     -0.000000     -0.105895
      4.39568      2.53785     12.42634        -0.000000      0.000000     -0.222809
      4.39568      2.53785     14.31657        -0.000000     -0.000000      0.002013
    total drift:                                0.021726      0.009518     -0.090056

  FREE ENERGIE OF THE ION-ELECTRON SYSTEM (eV)
  free  energy   TOTEN  =      -102.04314950 eV

  energy  without entropy=     -102.04314950  energy(sigma->0) =     -102.04314950

 stress matrix after NEB project (eV)
     -5.62063     -0.00000      0.00000
     -0.00000     -5.62063      0.00000
      0.00000      0.00000     -0.70321
  FORCES: max atom, RMS     0.002013    0.000331
  FORCE total and by dimension    0.002013    0.002013
  Stress total and by dimension    7.979822    5.620634
|           W    W    AA    RRRRR   N    N  II  N    N   GGGG   !!!           |
|           W    W   A  A   R    R  NN   N  II  NN   N  G    G  !!!           |
|           W    W  A    A  R    R  N N  N  II  N N  N  G       !!!           |
|           W WW W  AAAAAA  RRRRR   N  N N  II  N  N N  G  GGG   !            |
|           WW  WW  A    A  R   R   N   NN  II  N   NN  G    G                |
|           W    W  A    A  R    R  N    N  II  N    N   GGGG   !!!           |
|     Tetrahedron method does not include variations of the Fermi             |
|     occupations, so forces and stress will be inaccurate. We suggest        |
|     using a different smearing scheme ISMEAR = 1 or 2 for metals in         |
|     relaxations.                                                            |

 total charge

# of ion       s       p       d       tot
    1        0.415   0.203   9.177   9.796
    2        0.416   0.203   9.177   9.796
    3        0.416   0.203   9.177   9.796
    4        0.416   0.203   9.177   9.796
    5        0.420   0.201   9.176   9.797
    6        0.416   0.203   9.177   9.796
    7        0.416   0.203   9.177   9.796
    8        0.416   0.203   9.177   9.796
    9        0.416   0.203   9.178   9.797
   10        0.406   0.272   9.163   9.840
   11        0.409   0.266   9.166   9.841
   12        0.406   0.272   9.163   9.840
   13        0.409   0.266   9.166   9.841
   14        0.409   0.266   9.166   9.841
   15        0.402   0.270   9.163   9.836
   16        0.406   0.272   9.163   9.840
   17        0.402   0.270   9.163   9.836
   18        0.402   0.270   9.163   9.836
   19        0.401   0.268   9.166   9.834
   20        0.424   0.288   9.149   9.862
   21        0.424   0.288   9.149   9.862
   22        0.394   0.271   9.165   9.830
   23        0.424   0.288   9.149   9.862
   24        0.394   0.271   9.165   9.830
   25        0.401   0.268   9.166   9.834
   26        0.401   0.268   9.166   9.834
   27        0.394   0.271   9.165   9.830
   28        0.414   0.202   9.178   9.794
   29        0.437   0.210   9.163   9.810
   30        0.437   0.210   9.163   9.810
   31        0.437   0.210   9.163   9.810
   32        0.437   0.210   9.163   9.810
   33        0.437   0.210   9.163   9.810
   34        0.437   0.210   9.163   9.810
   35        0.412   0.201   9.178   9.792
   36        2.196   5.962   1.938  10.095
   37        1.006   1.190   0.000   2.196
tot         17.702  15.548 322.784 356.033

 BZINTS: Fermi energy:    0.287142;  401.000000 electrons
         Band energy:-0.176745E+04;  BLOECHL correction:   -0.049176