 vasp.6.2.0 18Jan21 (build Jun 12 2021 23:27:24) complex

 executed on             LinuxIFC date 2022.05.27  05:53:10

 INCAR:
   ISMEAR = -5
   SIGMA = 0.1
   ISPIN = 1
   EDIFF = 1.d-5
   EDIFFG = -0.01
   NSW = 0
   NELM = 150
   ENCUT = 500
   ISIF = 2
   IBRION = 2
   LREAL = Auto
   ALGO = Fast
   ICHARG = 11
   LORBIT = 10
   LCHARG = .F.
   LWAVE = .F.

 POTCAR:    PAW_PBE Ag 02Apr2005
 POTCAR:    PAW_PBE Os 17Jan2003
 POTCAR:    PAW_PBE N 08Apr2002
|           W    W    AA    RRRRR   N    N  II  N    N   GGGG   !!!           |
|           W    W   A  A   R    R  NN   N  II  NN   N  G    G  !!!           |
|           W    W  A    A  R    R  N N  N  II  N N  N  G       !!!           |
|           W WW W  AAAAAA  RRRRR   N  N N  II  N  N N  G  GGG   !            |
|           WW  WW  A    A  R   R   N   NN  II  N   NN  G    G                |
|           W    W  A    A  R    R  N    N  II  N    N   GGGG   !!!           |
|     For optimal performance we recommend to set                             |
|       NCORE = 2 up to number-of-cores-per-socket                            |
|     This setting can greatly improve the performance of VASP for DFT.       |
|     The default, NCORE=1 might be grossly inefficient on modern             |
|     multi-core architectures or massively parallel machines. Do your        |
|     Unfortunately you need to use the default for GW and RPA                |
|     calculations (for HF NCORE is supported but not extensively tested      |
|     yet).                                                                   |

 POTCAR:    PAW_PBE Ag 02Apr2005
   VRHFIN =Ag : s1 d10

   TITEL  = PAW_PBE Ag 02Apr2005
   POMASS =  107.868; ZVAL   =   11.000    mass and valenz
   ENMAX  =  249.844; ENMIN  =  187.383 eV

 POTCAR:    PAW_PBE Os 17Jan2003
   VRHFIN =Os: 6s5d

   TITEL  = PAW_PBE Os 17Jan2003
   POMASS =  190.200; ZVAL   =    8.000    mass and valenz
   ENMAX  =  228.022; ENMIN  =  171.017 eV

 POTCAR:    PAW_PBE N 08Apr2002
   VRHFIN =N: s2p3

   TITEL  = PAW_PBE N 08Apr2002
   POMASS =   14.001; ZVAL   =    5.000    mass and valenz
   ENMAX  =  400.000; ENMIN  =  300.000 eV

 Optimization of the real space projectors (new method)

 maximal supplied QI-value         = 15.12
 optimisation between [QCUT,QGAM] = [ 11.34, 22.83] = [ 36.00,145.93] Ry
 Optimized for a Real-space Cutoff    1.43 Angstroem

   l    n(q)    QCUT    max X(q) W(low)/X(q) W(high)/X(q)  e(spline)
   2      9    11.338    53.897    0.16E-03    0.20E-03    0.28E-06
   2      9    11.338    52.416    0.16E-03    0.20E-03    0.29E-06
   0     10    11.338   122.045    0.31E-04    0.76E-04    0.15E-06
   0     10    11.338    73.629    0.30E-04    0.72E-04    0.15E-06
   1      9    11.338    15.255    0.20E-03    0.19E-04    0.17E-06
   1      9    11.338     9.562    0.16E-03    0.15E-04    0.14E-06
 Optimization of the real space projectors (new method)

[...]

   l    n(q)    QCUT    max X(q) W(low)/X(q) W(high)/X(q)  e(spline)
   2     10    11.327   152.873    0.32E-03    0.72E-03    0.11E-05
   2     10    11.327   151.010    0.32E-03    0.72E-03    0.11E-05
   0     11    11.327    72.114    0.43E-04    0.61E-04    0.13E-06
   0     11    11.327    44.596    0.40E-04    0.57E-04    0.12E-06
   1     10    11.327    13.742    0.16E-03    0.10E-03    0.19E-06
   1     10    11.327     8.461    0.12E-03    0.78E-04    0.15E-06
 Optimization of the real space projectors (new method)

 maximal supplied QI-value         = 25.13
 optimisation between [QCUT,QGAM] = [ 11.31, 22.87] = [ 35.82,146.48] Ry
 Optimized for a Real-space Cutoff    1.27 Angstroem

   l    n(q)    QCUT    max X(q) W(low)/X(q) W(high)/X(q)  e(spline)
   0      9    11.310    79.467    0.75E-04    0.16E-03    0.36E-06
   0      9    11.310    66.151    0.74E-04    0.16E-03    0.36E-06
   1      8    11.310    17.416    0.35E-03    0.12E-03    0.95E-06
   1      8    11.310    12.382    0.37E-03    0.13E-03    0.98E-06
  PAW_PBE Ag 02Apr2005                  :
  PAW_PBE Os 17Jan2003                  :
  PAW_PBE N 08Apr2002                   :

 POSCAR: Ag-Os-N2
  positions in direct lattice
  velocities in cartesian coordinates
 exchange correlation table for  LEXCH =        8
   RHO(1)=    0.500       N(1)  =     2000
   RHO(2)=  100.500       N(2)  =     4000

 VTST: version 3.2, (02/03/18)

 CHAIN: initializing optimizer

 OPT: Using VASP Conjugate-Gradient optimizer
 CHAIN: Read ICHAIN            0

 POSCAR: Ag-Os-N2
  positions in direct lattice
  velocities in cartesian coordinates

 ion  position               nearest neighbor table
   1  0.000  0.000  0.238-   2 2.93   8 2.93   7 2.93   6 2.93   4 2.93  12 2.93  16 2.93  10 2.93
                             3 2.93
   2  0.333  0.000  0.238-   1 2.93   8 2.93   9 2.93   3 2.93   4 2.93   5 2.93  10 2.93  17 2.93
                            11 2.93
   3  0.667  0.000  0.238-   9 2.93   2 2.93   5 2.93  11 2.93   7 2.93  18 2.93   1 2.93   6 2.93
                            12 2.93
   4  0.000  0.333  0.238-   5 2.93   6 2.93   2 2.93   1 2.93   7 2.93  13 2.93  15 2.93   9 2.93
                            10 2.93
   5  0.333  0.333  0.238-   4 2.93   3 2.93   7 2.93   2 2.93   8 2.93  14 2.93  13 2.93  11 2.93
                             6 2.93
   6  0.667  0.333  0.238-   4 2.93   9 2.93   1 2.93  15 2.93   8 2.93  12 2.93   3 2.93   5 2.93
                            14 2.93
   7  0.000  0.667  0.238-   8 2.93   1 2.93   5 2.93   3 2.93   4 2.93  16 2.93  18 2.93  13 2.93
                             9 2.93
   8  0.333  0.667  0.238-   7 2.93   1 2.93   2 2.93   9 2.93   5 2.93  16 2.93   6 2.93  17 2.93
                            14 2.93
   9  0.667  0.667  0.238-   3 2.93   2 2.93   8 2.93   6 2.93  17 2.93   4 2.93  15 2.93   7 2.93
                            18 2.93
  10  0.111  0.111  0.346-  20 2.89  12 2.93  16 2.93  15 2.93  17 2.93  13 2.93  11 2.93   2 2.93
                             1 2.93   4 2.93  19 2.93  26 2.93
  11  0.444  0.111  0.346-  21 2.89  20 2.89  27 2.92  14 2.93  17 2.93  18 2.93   3 2.93  12 2.93
                            13 2.93  10 2.93   5 2.93   2 2.93
  12  0.778  0.111  0.346-  21 2.89  10 2.93  16 2.93  18 2.93  15 2.93  11 2.93   1 2.93  14 2.93
                             6 2.93   3 2.93  25 2.93  19 2.93
  13  0.111  0.444  0.346-  20 2.89  23 2.89  22 2.92  15 2.93  14 2.93  18 2.93  10 2.93  11 2.93
                            16 2.93   4 2.93   5 2.93   7 2.93
  14  0.444  0.444  0.346-  23 2.89  21 2.89  24 2.92  13 2.93  11 2.93  16 2.93   5 2.93  12 2.93
                            17 2.93   8 2.93  15 2.93   6 2.93
  15  0.778  0.444  0.346-  24 2.92  22 2.92  19 2.93  13 2.93  10 2.93  12 2.93  17 2.93  18 2.93
                             4 2.93   6 2.93   9 2.93  14 2.93
  16  0.111  0.778  0.346-  23 2.89  18 2.93  12 2.93  10 2.93  14 2.93  17 2.93  13 2.93   7 2.93
                             8 2.93   1 2.93  26 2.93  25 2.93
  17  0.444  0.778  0.346-  27 2.92  24 2.92  26 2.93  11 2.93  10 2.93   9 2.93  18 2.93  15 2.93
                            16 2.93   2 2.93  14 2.93   8 2.93
  18  0.778  0.778  0.346-  22 2.92  27 2.92  25 2.93  16 2.93  12 2.93  13 2.93  11 2.93  17 2.93
                            15 2.93   7 2.93   3 2.93   9 2.93
  19  0.888  0.223  0.454-  28 2.90  24 2.93  22 2.93  15 2.93  20 2.93  21 2.93  10 2.93  12 2.93
                            26 2.94  25 2.94  32 2.95  31 2.95
  20  0.222  0.222  0.452-  36 2.76  13 2.89  11 2.89  10 2.89  31 2.93  29 2.93  21 2.93  23 2.93
                            19 2.93  26 2.93  27 2.94  22 2.94
  21  0.556  0.222  0.452-  36 2.76  11 2.89  14 2.89  12 2.89  30 2.93  32 2.93  20 2.93  23 2.93
                            25 2.93  19 2.93  27 2.94  24 2.94
  22  0.888  0.556  0.453-  35 2.90  18 2.92  15 2.92  24 2.92  27 2.92  13 2.92  25 2.93  19 2.93
                            33 2.94  31 2.94  23 2.94  20 2.94
  23  0.222  0.556  0.452-  36 2.76  14 2.89  13 2.89  16 2.89  34 2.93  33 2.93  21 2.93  20 2.93
                            26 2.93  25 2.93  22 2.94  24 2.94
  24  0.556  0.556  0.453-  35 2.90  15 2.92  17 2.92  27 2.92  22 2.92  14 2.92  19 2.93  26 2.93
                            32 2.94  34 2.94  23 2.94  21 2.94
  25  0.888  0.888  0.454-  28 2.90  22 2.93  27 2.93  18 2.93  23 2.93  21 2.93  16 2.93  12 2.93
                            26 2.94  19 2.94  33 2.95  30 2.95
  26  0.223  0.888  0.454-  28 2.90  27 2.93  24 2.93  17 2.93  23 2.93  20 2.93  16 2.93  10 2.93
                            25 2.94  19 2.94  34 2.95  29 2.95
  27  0.556  0.888  0.453-  35 2.90  17 2.92  18 2.92  24 2.92  22 2.92  11 2.92  26 2.93  25 2.93
                            29 2.94  30 2.94  20 2.94  21 2.94
  28  0.000  0.000  0.560-  26 2.90  25 2.90  19 2.90  29 2.96  34 2.96  33 2.96  32 2.96  31 2.96
                            30 2.96
  29  0.333  0.008  0.561-  31 2.86  30 2.87  36 2.88  20 2.93  27 2.94  26 2.95  28 2.96  35 2.97
                            34 3.06
  30  0.659  0.008  0.561-  32 2.86  29 2.87  36 2.88  21 2.93  27 2.94  25 2.95  28 2.96  35 2.97
                            33 3.06
  31  0.008  0.333  0.561-  29 2.86  33 2.87  36 2.88  20 2.93  22 2.94  19 2.95  28 2.96  35 2.97
                            32 3.06
  32  0.659  0.333  0.561-  30 2.86  34 2.87  36 2.88  21 2.93  24 2.94  19 2.95  28 2.96  35 2.97
                            31 3.06
  33  0.008  0.659  0.561-  34 2.86  31 2.87  36 2.88  23 2.93  22 2.94  25 2.95  28 2.96  35 2.97
                            30 3.06
  34  0.333  0.659  0.561-  33 2.86  32 2.87  36 2.88  23 2.93  24 2.94  26 2.95  28 2.96  35 2.97
                            29 3.06
  35  0.667  0.667  0.560-  24 2.90  27 2.90  22 2.90  30 2.97  32 2.97  29 2.97  34 2.97  31 2.97
                            33 2.97
  36  0.333  0.333  0.550-  38 2.24  37 2.24  21 2.76  20 2.76  23 2.76  31 2.88  30 2.88  33 2.88
                            29 2.88  34 2.88  32 2.88
  37  0.270  0.328  0.648-  38 1.16  36 2.24
  38  0.402  0.328  0.648-  37 1.16  36 2.24

  LATTYP: Found a hexagonal cell.
 ALAT       =     8.7913665772
 C/A-ratio  =     2.5227160501

  Lattice vectors:

 A1 = (  -4.3956832886,  -7.6135467898,   0.0000000000)
 A2 = (   8.7913665771,   0.0000000000,   0.0000000000)
 A3 = (   0.0000000000,   0.0000000000,  22.1781215668)

Analysis of symmetry for initial positions (statically):
 Subroutine PRICEL returns:
 Original cell was already a primitive cell.

 Routine SETGRP: Setting up the symmetry group for a
 hexagonal supercell.

 Subroutine GETGRP returns: Found  2 space group operations
 (whereof  2 operations were pure point group operations)
 out of a pool of 24 trial point group operations.

The static configuration has the point symmetry C_1h.

Analysis of symmetry for dynamics (positions and initial velocities):
 Subroutine PRICEL returns:
 Original cell was already a primitive cell.

[...]

The dynamic configuration has the point symmetry C_1h.

Analysis of constrained symmetry for selective dynamics:
 Subroutine PRICEL returns:
 Original cell was already a primitive cell.

 Routine SETGRP: Setting up the symmetry group for a
 hexagonal supercell.

[...]
     33      -4.4669      2.00000
     34      -4.4489      2.00000
     35      -4.4377      2.00000
     36      -4.4273      2.00000
     37      -4.3861      2.00000
     38      -4.3530      2.00000
     39      -4.3231      2.00000
     40      -4.3128      2.00000
     41      -4.3029      2.00000
     42      -4.2670      2.00000
     43      -4.2414      2.00000
     44      -4.2279      2.00000
     45      -4.2173      2.00000
     46      -4.2121      2.00000
     47      -4.1993      2.00000
     48      -4.1193      2.00000
     49      -4.0955      2.00000
     50      -4.0827      2.00000
     51      -4.0743      2.00000
     52      -4.0706      2.00000
     53      -4.0653      2.00000
     54      -4.0531      2.00000
     55      -4.0466      2.00000
     56      -4.0421      2.00000
     57      -4.0321      2.00000
     58      -3.9569      2.00000
     59      -3.9492      2.00000
     60      -3.9426      2.00000
[...]
    238       6.0716      0.00000
    239       6.2708      0.00000
    240       6.3184      0.00000
    241       6.4197      0.00000
    242       6.4340      0.00000
    243       6.5178      0.00000
    244       7.0231      0.00000
    245       7.3198      0.00000
    246       7.3302      0.00000
    247       7.3751      0.00000
    248       7.3986      0.00000
    249       7.4115      0.00000
    250       7.4492      0.00000
    251       7.6312      0.00000
    252       7.6922      0.00000

 soft charge-density along one line, spin component           1
         0         1         2         3         4         5         6         7         8         9
 total charge-density along one line

------------------------ aborting loop because EDIFF is reached ----------------------------------------

 total charge

# of ion       s       p       d       tot
    1        0.417   0.202   9.177   9.796
    2        0.417   0.203   9.178   9.798
    3        0.417   0.203   9.178   9.798
    4        0.418   0.203   9.177   9.798
    5        0.417   0.204   9.176   9.797
    6        0.418   0.203   9.177   9.798
    7        0.419   0.203   9.177   9.798
    8        0.419   0.203   9.177   9.798
    9        0.413   0.203   9.180   9.795
   10        0.407   0.269   9.163   9.839
   11        0.410   0.267   9.169   9.847
   12        0.407   0.269   9.163   9.839
   13        0.410   0.267   9.169   9.846
   14        0.410   0.267   9.169   9.846
   15        0.401   0.269   9.166   9.837
   16        0.408   0.269   9.162   9.840
   17        0.401   0.271   9.166   9.837
   18        0.401   0.271   9.166   9.837
   19        0.399   0.265   9.167   9.831
   20        0.427   0.302   9.145   9.874
   21        0.427   0.302   9.145   9.874
   22        0.394   0.273   9.168   9.835
   23        0.429   0.307   9.140   9.875
   24        0.394   0.273   9.168   9.835
   25        0.404   0.265   9.166   9.834
   26        0.404   0.265   9.166   9.834
   27        0.394   0.272   9.170   9.836
   28        0.413   0.196   9.181   9.790
   29        0.418   0.215   9.173   9.807
   30        0.418   0.215   9.173   9.807
   31        0.411   0.216   9.175   9.801
   32        0.411   0.216   9.175   9.801
   33        0.418   0.216   9.172   9.806
   34        0.418   0.216   9.172   9.806
   35        0.404   0.199   9.182   9.784
   36        0.520   0.379   6.031   6.930
   37        1.347   2.446   0.000   3.793
   38        1.347   2.446   0.000   3.793
tot         17.607  13.731 326.958 358.296

  FORCE on cell =-STRESS in cart. coord.  units (eV):
  Direction    XX          YY          ZZ          XY          YZ          ZX
  Alpha Z   783.16025   783.16025   783.16025
  Ewald  120272.77932119956.91453************     0.00005     0.80021     0.00006
  Hartree130484.51865130368.21771************     0.00002     1.62627     0.00002
  E(xc)   -2107.41471 -2108.61757 -2113.25601     0.00006    -0.02258    -0.00000
  Local  ************************261698.98446     0.00080    -2.71261    -0.00016
  n-local  -374.70135  -363.82199  -372.08320     2.61754     0.21325     0.16541
  augment  3238.35040  3237.76026  3247.98078    -0.00011    -0.02754     0.00007
  Kinetic  5067.49428  5081.84819  5104.06866     1.68377     0.34386    -0.02864
  Fock        0.00000     0.00000     0.00000     0.00000     0.00000     0.00000
  Total      -7.75854    -7.98942    -0.34179    -0.00000     0.22086     0.00000
  in kB      -8.37379    -8.62299    -0.36889    -0.00000     0.23837     0.00000

 VOLUME and BASIS-vectors are now :
  energy-cutoff  :      500.00
  volume of cell :     1484.46
      direct lattice vectors                 reciprocal lattice vectors
     8.791366577  0.000000000  0.000000000     0.113747958 -0.065672414  0.000000000
     4.395683289  7.613546790  0.000000000     0.000000000  0.131344829  0.000000000
     0.000000000  0.000000000 22.178121567     0.000000000  0.000000000  0.045089481

  length of vectors
     8.791366577  8.791366577 22.178121567     0.131344829  0.131344829  0.045089481

 FORCES acting on ions
    electron-ion (+dipol)            ewald-force                    non-local-force                 convergence-correction
   0.459E-04 -.317E-01 0.252E+04   -.954E-04 -.163E-01 -.252E+04   0.233E-12 0.355E-01 -.237E+01   -.125E-03 0.506E-02 -.631E-01
   0.574E+00 0.600E+00 0.252E+04   -.593E+00 -.619E+00 -.252E+04   0.500E-01 0.604E-01 -.155E+01   -.242E-01 -.268E-01 -.872E-01
   -.574E+00 0.600E+00 0.252E+04   0.593E+00 -.619E+00 -.252E+04   -.500E-01 0.604E-01 -.155E+01   0.237E-01 -.248E-01 -.865E-01
   0.774E+00 0.155E+00 0.252E+04   -.818E+00 -.204E+00 -.252E+04   0.938E-01 0.171E-01 -.159E+01   -.287E-01 0.274E-01 -.488E-01
   -.738E-05 -.414E-01 0.252E+04   0.980E-04 0.774E-02 -.252E+04   0.157E-12 0.240E-01 -.138E+01   0.630E-02 0.916E-02 -.157E-01
   -.774E+00 0.156E+00 0.252E+04   0.818E+00 -.205E+00 -.252E+04   -.938E-01 0.171E-01 -.159E+01   0.273E-01 0.283E-01 -.479E-01
   0.258E+00 -.741E+00 0.252E+04   -.225E+00 0.823E+00 -.252E+04   0.261E-01 -.986E-01 -.151E+01   -.406E-01 0.677E-02 -.574E-01
   -.258E+00 -.741E+00 0.252E+04   0.225E+00 0.823E+00 -.252E+04   -.261E-01 -.986E-01 -.151E+01   0.423E-01 0.573E-02 -.572E-01
   0.361E-04 0.523E-01 0.252E+04   0.792E-04 0.866E-02 -.252E+04   -.146E-12 -.223E-01 -.206E+01   -.670E-02 -.356E-01 -.120E+00
   0.706E+01 0.407E+01 0.875E+03   -.651E+01 -.385E+01 -.874E+03   -.504E+00 -.251E+00 -.868E+00   -.390E-01 0.271E-01 0.306E+00
   -.294E-04 0.600E+01 0.882E+03   0.410E-04 -.627E+01 -.883E+03   0.127E-11 0.194E+00 -.348E+00   0.644E-02 0.675E-02 0.317E+00
   -.706E+01 0.407E+01 0.875E+03   0.651E+01 -.384E+01 -.874E+03   0.504E+00 -.251E+00 -.868E+00   0.372E-01 0.286E-01 0.306E+00
   0.522E+01 -.308E+01 0.882E+03   -.535E+01 0.320E+01 -.883E+03   0.127E+00 -.123E+00 -.368E+00   -.408E-01 0.398E-01 0.300E+00
   -.522E+01 -.308E+01 0.882E+03   0.535E+01 0.320E+01 -.883E+03   -.127E+00 -.123E+00 -.368E+00   0.519E-01 0.390E-01 0.301E+00
   0.163E-04 0.155E+01 0.875E+03   -.109E-03 -.163E+01 -.875E+03   0.355E-12 0.540E-01 -.794E+00   -.195E-02 -.927E-02 0.262E+00
   -.805E-05 -.812E+01 0.875E+03   0.205E-04 0.749E+01 -.874E+03   0.412E-11 0.628E+00 -.936E+00   0.386E-03 -.200E-01 0.279E+00
   0.145E+01 -.724E+00 0.875E+03   -.150E+01 0.850E+00 -.875E+03   0.329E-01 -.568E-01 -.721E+00   -.132E-01 -.527E-01 0.255E+00
   -.145E+01 -.724E+00 0.875E+03   0.149E+01 0.850E+00 -.875E+03   -.329E-01 -.568E-01 -.721E+00   0.131E-01 -.505E-01 0.255E+00
   0.407E-04 0.278E+01 -.803E+03   -.129E-03 -.290E+01 0.802E+03   0.798E-12 0.121E+00 0.797E+00   -.613E-02 -.168E-01 0.459E+00
   0.141E+02 0.843E+01 -.758E+03   -.127E+02 -.763E+01 0.758E+03   -.149E+01 -.870E+00 -.135E+01   0.771E-01 0.519E-01 0.631E+00
   -.141E+02 0.843E+01 -.758E+03   0.127E+02 -.763E+01 0.758E+03   0.149E+01 -.870E+00 -.135E+01   -.756E-01 0.532E-01 0.631E+00
   0.391E+01 -.285E+01 -.790E+03   -.424E+01 0.317E+01 0.789E+03   0.365E+00 -.278E+00 0.615E+00   0.301E-02 -.608E-01 0.434E+00
   -.542E-04 -.173E+02 -.759E+03   0.432E-04 0.155E+02 0.760E+03   0.125E-10 0.190E+01 -.161E+01   0.228E-02 -.132E+00 0.611E+00
   -.391E+01 -.285E+01 -.790E+03   0.424E+01 0.317E+01 0.789E+03   -.365E+00 -.278E+00 0.615E+00   -.136E-01 -.619E-01 0.434E+00
   -.240E+01 -.859E+00 -.804E+03   0.240E+01 0.788E+00 0.803E+03   -.212E-01 0.210E-01 0.694E+00   0.152E-01 0.509E-01 0.486E+00
   0.240E+01 -.859E+00 -.804E+03   -.240E+01 0.788E+00 0.803E+03   0.212E-01 0.210E-01 0.694E+00   -.246E-01 0.491E-01 0.487E+00
   0.197E-04 0.475E+01 -.790E+03   0.110E-03 -.533E+01 0.789E+03   0.368E-11 0.560E+00 0.636E+00   -.489E-02 0.477E-01 0.476E+00
   0.536E-04 0.329E+01 -.244E+04   -.116E-03 -.328E+01 0.244E+04   -.214E-12 -.326E-01 0.196E+01   0.120E-02 -.678E-03 0.136E+00
   0.321E+02 0.633E+02 -.242E+04   -.314E+02 -.627E+02 0.242E+04   -.841E+00 -.916E+00 0.186E+01   0.355E-01 0.137E+00 0.155E+00
   -.321E+02 0.633E+02 -.242E+04   0.314E+02 -.627E+02 0.242E+04   0.841E+00 -.916E+00 0.186E+01   -.461E-01 0.139E+00 0.155E+00
   0.731E+02 -.184E+01 -.241E+04   -.725E+02 0.206E+01 0.241E+04   -.100E+01 -.155E+00 0.250E+01   0.164E+00 -.494E-01 0.121E+00
   -.731E+02 -.184E+01 -.241E+04   0.725E+02 0.206E+01 0.241E+04   0.100E+01 -.155E+00 0.250E+01   -.175E+00 -.486E-01 0.120E+00
   0.309E+02 -.600E+02 -.242E+04   -.305E+02 0.592E+02 0.242E+04   -.616E+00 0.111E+01 0.179E+01   0.977E-01 -.108E+00 0.161E+00
   -.309E+02 -.600E+02 -.242E+04   0.305E+02 0.592E+02 0.242E+04   0.616E+00 0.111E+01 0.179E+01   -.106E+00 -.109E+00 0.160E+00
   0.208E-04 -.202E+01 -.244E+04   0.106E-03 0.197E+01 0.244E+04   0.341E-12 0.519E-01 0.213E+01   -.546E-02 0.154E-01 0.202E+00
   -.124E-04 -.349E+01 -.153E+04   0.774E-04 0.353E+01 0.153E+04   0.523E-12 0.797E-01 0.291E+01   0.245E-02 -.229E-02 0.976E-01
   0.216E+03 -.480E+00 -.129E+04   -.257E+03 0.407E+00 0.130E+04   0.408E+02 0.762E-01 -.901E+01   0.305E-01 -.273E-02 -.122E+00
   -.216E+03 -.480E+00 -.129E+04   0.257E+03 0.407E+00 0.130E+04   -.408E+02 0.762E-01 -.901E+01   -.299E-01 -.267E-02 -.123E+00
   0.505E-03 -.616E+00 0.124E+02   0.000E+00 -.544E-13 0.637E-11   0.436E-11 0.663E+00 -.201E+02   -.456E-01 -.485E-01 0.771E+01

 POSITION                                       TOTAL-FORCE (eV/Angst)
      0.00000      0.00000      5.28219        -0.000000     -0.007290      0.004921
      2.93046      0.00000      5.28219         0.007118      0.016196      0.041782
      5.86091      0.00000      5.28219        -0.007118      0.016196      0.041782
      1.46523      2.53785      5.28219         0.021339     -0.003957      0.037201
      4.39568      2.53785      5.28219        -0.000000     -0.000529      0.004107
      7.32614      2.53785      5.28219        -0.021339     -0.003957      0.037201
      2.93046      5.07570      5.28219         0.017174     -0.009914      0.031665
      5.86091      5.07570      5.28219        -0.017174     -0.009914      0.031665
      8.79137      5.07570      5.28219         0.000000      0.003095      0.024415
      1.46523      0.84595      7.67490         0.009927      0.007143      0.006313
      4.39568      0.84595      7.67490        -0.000000     -0.067526     -0.101576
      7.32614      0.84595      7.67490        -0.009927      0.007143      0.006313
      2.93046      3.38380      7.67490        -0.050141      0.032982     -0.085001
      5.86091      3.38380      7.67490         0.050141      0.032982     -0.085001
      8.79137      3.38380      7.67490        -0.000000     -0.030723      0.010588
      4.39568      5.92165      7.67490        -0.000000     -0.024085      0.019533
      7.32614      5.92165      7.67490        -0.026734      0.017888      0.022810
     10.25659      5.92165      7.67490         0.026734      0.017888      0.022810
      8.79137      1.69824     10.07044        -0.000000     -0.007913      0.013675
      2.93075      1.69207     10.02201         0.015523     -0.021105     -0.119048
      5.86061      1.69207     10.02201        -0.015523     -0.021105     -0.119048
     10.25044      4.23330     10.05478         0.043652     -0.016546     -0.001633
      4.39568      4.22940     10.02201        -0.000000     -0.037665     -0.093520
      7.33230      4.23330     10.05478        -0.043652     -0.016546     -0.001633
     11.71633      6.76443     10.07044         0.001402      0.000155     -0.019280
      5.86640      6.76443     10.07044        -0.001402      0.000155     -0.019280
      8.79137      6.76048     10.05478         0.000000      0.030328     -0.016062
      0.00000      0.00000     12.42728        -0.000000     -0.023673     -0.000960
      2.96092      0.05748     12.44843        -0.094031     -0.231374     -0.147123
      5.83045      0.05748     12.44843         0.094031     -0.231374     -0.147123
      1.53024      2.53549     12.44843        -0.273405      0.023777     -0.165677
      7.26113      2.53549     12.44843         0.273405      0.023777     -0.165677
      2.96500      5.02058     12.44843        -0.106900      0.199686     -0.128464
      5.82636      5.02058     12.44843         0.106900      0.199686     -0.128464
      8.79137      5.07570     12.42122         0.000000      0.016535      0.012796
      4.39568      2.53785     12.20312         0.000000      0.118786      1.178373
      3.81405      2.50044     14.36757         0.022638      0.000398     -0.001689
      4.97731      2.50044     14.36757        -0.022638      0.000398     -0.001689
    total drift:                               -0.045073     -0.001303      0.035031

  FREE ENERGIE OF THE ION-ELECTRON SYSTEM (eV)
  free  energy   TOTEN  =      -113.47354223 eV

  energy  without entropy=     -113.47354223  energy(sigma->0) =     -113.47354223

 stress matrix after NEB project (eV)
     -7.75854     -0.00000      0.00000
     -0.00000     -7.98942      0.22086
      0.00000      0.22086     -0.34179
  FORCES: max atom, RMS     0.022704    0.005209
  FORCE total and by dimension    0.032108    0.022638
  Stress total and by dimension   11.146304    7.989420
|           W    W    AA    RRRRR   N    N  II  N    N   GGGG   !!!           |
|           W    W   A  A   R    R  NN   N  II  NN   N  G    G  !!!           |
|           W    W  A    A  R    R  N N  N  II  N N  N  G       !!!           |
|           W WW W  AAAAAA  RRRRR   N  N N  II  N  N N  G  GGG   !            |
|           WW  WW  A    A  R   R   N   NN  II  N   NN  G    G                |
|           W    W  A    A  R    R  N    N  II  N    N   GGGG   !!!           |
|     Tetrahedron method does not include variations of the Fermi             |
|     occupations, so forces and stress will be inaccurate. We suggest        |
|     using a different smearing scheme ISMEAR = 1 or 2 for metals in         |
|     relaxations.                                                            |

 total charge

# of ion       s       p       d       tot
    1        0.417   0.202   9.177   9.796
    2        0.417   0.203   9.178   9.798
    3        0.417   0.203   9.178   9.798
    4        0.418   0.203   9.177   9.798
    5        0.417   0.204   9.176   9.797
    6        0.418   0.203   9.177   9.798
    7        0.419   0.203   9.177   9.798
    8        0.419   0.203   9.177   9.798
    9        0.413   0.203   9.180   9.795
   10        0.407   0.269   9.163   9.839
   11        0.410   0.267   9.169   9.847
   12        0.407   0.269   9.163   9.839
   13        0.410   0.267   9.169   9.846
   14        0.410   0.267   9.169   9.846
   15        0.401   0.269   9.166   9.837
   16        0.408   0.269   9.162   9.840
   17        0.401   0.271   9.166   9.837
   18        0.401   0.271   9.166   9.837
   19        0.399   0.265   9.167   9.831
   20        0.427   0.302   9.145   9.874
   21        0.427   0.302   9.145   9.874
   22        0.394   0.273   9.168   9.835
   23        0.429   0.307   9.140   9.875
   24        0.394   0.273   9.168   9.835
   25        0.404   0.265   9.166   9.834
   26        0.404   0.265   9.166   9.834
   27        0.394   0.272   9.170   9.836
   28        0.413   0.196   9.181   9.790
   29        0.418   0.215   9.173   9.807
   30        0.418   0.215   9.173   9.807
   31        0.411   0.216   9.175   9.801
   32        0.411   0.216   9.175   9.801
   33        0.418   0.216   9.172   9.806
   34        0.418   0.216   9.172   9.806
   35        0.404   0.199   9.182   9.784
   36        0.520   0.379   6.031   6.930
   37        1.347   2.446   0.000   3.793
   38        1.347   2.446   0.000   3.793
tot         17.607  13.731 326.958 358.296

 BZINTS: Fermi energy:    0.887150;  403.000000 electrons
         Band energy:-0.132364E+04;  BLOECHL correction:   -0.044823