 vasp.6.2.0 18Jan21 (build Jun 12 2021 23:27:24) complex

 executed on             LinuxIFC date 2022.05.28  01:00:59

 INCAR:
   ISMEAR = -5
   SIGMA = 0.1
   ISPIN = 1
   EDIFF = 1.d-5
   EDIFFG = -0.01
   NSW = 0
   NELM = 150
   ENCUT = 500
   ISIF = 2
   IBRION = 2
   LREAL = Auto
   ALGO = Fast
   ICHARG = 11
   LORBIT = 10
   LCHARG = .F.
   LWAVE = .F.

 POTCAR:    PAW_PBE Au 04Oct2007
 POTCAR:    PAW_PBE Rh 04Feb2005
 POTCAR:    PAW_PBE H 15Jun2001
 POTCAR:    PAW_PBE O 08Apr2002
|           W    W    AA    RRRRR   N    N  II  N    N   GGGG   !!!           |
|           W    W   A  A   R    R  NN   N  II  NN   N  G    G  !!!           |
|           W    W  A    A  R    R  N N  N  II  N N  N  G       !!!           |
|           W WW W  AAAAAA  RRRRR   N  N N  II  N  N N  G  GGG   !            |
|           WW  WW  A    A  R   R   N   NN  II  N   NN  G    G                |
|           W    W  A    A  R    R  N    N  II  N    N   GGGG   !!!           |
|     For optimal performance we recommend to set                             |
|       NCORE = 2 up to number-of-cores-per-socket                            |
|     This setting can greatly improve the performance of VASP for DFT.       |
|     The default, NCORE=1 might be grossly inefficient on modern             |
|     multi-core architectures or massively parallel machines. Do your        |
|     Unfortunately you need to use the default for GW and RPA                |
|     calculations (for HF NCORE is supported but not extensively tested      |
|     yet).                                                                   |

 POTCAR:    PAW_PBE Au 04Oct2007
   VRHFIN =Au: s1d10

   TITEL  = PAW_PBE Au 04Oct2007
   POMASS =  196.966; ZVAL   =   11.000    mass and valenz
   ENMAX  =  229.943; ENMIN  =  172.457 eV

 POTCAR:    PAW_PBE Rh 04Feb2005
   VRHFIN =Rh: s1 d8

   TITEL  = PAW_PBE Rh 04Feb2005
   POMASS =  102.906; ZVAL   =    9.000    mass and valenz
   ENMAX  =  228.996; ENMIN  =  171.747 eV

 POTCAR:    PAW_PBE H 15Jun2001
   VRHFIN =H: ultrasoft test

   TITEL  = PAW_PBE H 15Jun2001
   POMASS =    1.000; ZVAL   =    1.000    mass and valenz
   ENMAX  =  250.000; ENMIN  =  200.000 eV

 POTCAR:    PAW_PBE O 08Apr2002
   VRHFIN =O: s2p4

   TITEL  = PAW_PBE O 08Apr2002
   POMASS =   16.000; ZVAL   =    6.000    mass and valenz
   ENMAX  =  400.000; ENMIN  =  300.000 eV

 Optimization of the real space projectors (new method)

 maximal supplied QI-value         = 15.12
 optimisation between [QCUT,QGAM] = [ 11.34, 22.83] = [ 36.00,145.93] Ry
 Optimized for a Real-space Cutoff    1.39 Angstroem

   l    n(q)    QCUT    max X(q) W(low)/X(q) W(high)/X(q)  e(spline)
   2      9    11.338    60.898    0.39E-03    0.42E-03    0.21E-06
   2      9    11.338    58.894    0.40E-03    0.42E-03    0.22E-06
   0      9    11.338   109.617    0.13E-03    0.20E-04    0.13E-06
   0      9    11.338    75.026    0.13E-03    0.20E-04    0.13E-06
   1      9    11.338    16.344    0.33E-04    0.24E-03    0.18E-06
   1      9    11.338    10.160    0.26E-04    0.19E-03    0.15E-06
 Optimization of the real space projectors (new method)

[...]

   l    n(q)    QCUT    max X(q) W(low)/X(q) W(high)/X(q)  e(spline)
   0      8    11.287    19.460    0.40E-03    0.73E-03    0.16E-06
   0      8    11.287    12.209    0.38E-03    0.70E-03    0.15E-06
   1      7    11.287     4.655    0.22E-03    0.25E-04    0.22E-06
 Optimization of the real space projectors (new method)

 maximal supplied QI-value         = 24.76
 optimisation between [QCUT,QGAM] = [ 11.39, 22.77] = [ 36.31,145.25] Ry
 Optimized for a Real-space Cutoff    1.00 Angstroem

   l    n(q)    QCUT    max X(q) W(low)/X(q) W(high)/X(q)  e(spline)
   0      7    11.387    20.381    0.39E-03    0.13E-02    0.15E-06
   0      7    11.387    15.268    0.42E-03    0.14E-02    0.17E-06
   1      6    11.387     5.964    0.41E-03    0.11E-02    0.17E-06
   1      6    11.387     5.382    0.39E-03    0.87E-03    0.15E-06
  PAW_PBE Au 04Oct2007                  :
  PAW_PBE Rh 04Feb2005                  :
  PAW_PBE H 15Jun2001                   :
  PAW_PBE O 08Apr2002                   :

 POSCAR: Au-Rh-H2O
  positions in direct lattice
  velocities in cartesian coordinates
 exchange correlation table for  LEXCH =        8
   RHO(1)=    0.500       N(1)  =     2000
   RHO(2)=  100.500       N(2)  =     4000

 VTST: version 3.2, (02/03/18)

 CHAIN: initializing optimizer

 OPT: Using VASP Conjugate-Gradient optimizer
 CHAIN: Read ICHAIN            0

 POSCAR: Au-Rh-H2O
  positions in direct lattice
  velocities in cartesian coordinates

 ion  position               nearest neighbor table
   1  0.000  0.000  0.213-  16 2.94  12 2.94   6 2.94   8 2.94   7 2.94   3 2.94  10 2.94   4 2.94
                             2 2.94
   2  0.333  0.000  0.213-   9 2.94  11 2.94  17 2.94  10 2.94   8 2.94   4 2.94   5 2.94   1 2.94
                             3 2.94
   3  0.667  0.000  0.213-   7 2.94  18 2.94  12 2.94   1 2.94  11 2.94   5 2.94   6 2.94   9 2.94
                             2 2.94
   4  0.000  0.333  0.213-  10 2.94   6 2.94   5 2.94  13 2.94   2 2.94  15 2.94   9 2.94   1 2.94
                             7 2.94
   5  0.333  0.333  0.213-  13 2.94   7 2.94  11 2.94   4 2.94   2 2.94  14 2.94   3 2.94   8 2.94
                             6 2.94
   6  0.667  0.333  0.213-  15 2.94  14 2.94   1 2.94  12 2.94   4 2.94   9 2.94   8 2.94   3 2.94
                             5 2.94
   7  0.000  0.667  0.213-  18 2.94   3 2.94  16 2.94   5 2.94   1 2.94  13 2.94   8 2.94   4 2.94
                             9 2.94
   8  0.333  0.667  0.213-   9 2.94  17 2.94   1 2.94   2 2.94  14 2.94  16 2.94   6 2.94   7 2.94
                             5 2.94
   9  0.667  0.667  0.213-   2 2.94   8 2.94  17 2.94   6 2.94  15 2.94   4 2.94   3 2.94  18 2.94
                             7 2.94
  10  0.111  0.111  0.310-  20 2.91  26 2.93  19 2.93  11 2.94  17 2.94   2 2.94   4 2.94   1 2.94
                            12 2.94  16 2.94  13 2.94  15 2.94
  11  0.444  0.111  0.310-  20 2.91  21 2.91  27 2.93  13 2.94   2 2.94  10 2.94  17 2.94   5 2.94
                             3 2.94  18 2.94  14 2.94  12 2.94
  12  0.778  0.111  0.310-  21 2.91  25 2.93  19 2.93  16 2.94  18 2.94   1 2.94  14 2.94  15 2.94
                             3 2.94   6 2.94  10 2.94  11 2.94
  13  0.111  0.444  0.310-  23 2.91  20 2.91  22 2.93   5 2.94  18 2.94  11 2.94   7 2.94   4 2.94
                            16 2.94  10 2.94  14 2.94  15 2.94
  14  0.444  0.444  0.310-  21 2.91  23 2.91  24 2.93  15 2.94   6 2.94  12 2.94   8 2.94  17 2.94
                             5 2.94  16 2.94  13 2.94  11 2.94
  15  0.778  0.444  0.310-  24 2.93  22 2.93  19 2.93  14 2.94   6 2.94  17 2.94  12 2.94   9 2.94
                             4 2.94  10 2.94  13 2.94  18 2.94
  16  0.111  0.778  0.310-  23 2.91  25 2.93  26 2.93  18 2.94  12 2.94   7 2.94   1 2.94   8 2.94
                            13 2.94  10 2.94  14 2.94  17 2.94
  17  0.444  0.778  0.310-  27 2.93  24 2.93  26 2.93   9 2.94  15 2.94   2 2.94  10 2.94  11 2.94
                             8 2.94  14 2.94  16 2.94  18 2.94
  18  0.778  0.778  0.310-  22 2.93  27 2.93  25 2.93  16 2.94   7 2.94  13 2.94  12 2.94   3 2.94
                            11 2.94   9 2.94  15 2.94  17 2.94
  19  0.889  0.222  0.407-  15 2.93  10 2.93  12 2.93  21 2.94  20 2.94  24 2.94  22 2.94  26 2.94
                            25 2.94  28 2.96  32 2.96  31 2.96
  20  0.222  0.222  0.406-  36 2.79  10 2.91  11 2.91  13 2.91  26 2.94  19 2.94  23 2.94  21 2.94
                            27 2.94  22 2.94  29 2.95  31 2.95
  21  0.556  0.222  0.406-  36 2.79  12 2.91  14 2.91  11 2.91  25 2.94  19 2.94  20 2.94  23 2.94
                            27 2.94  24 2.94  30 2.95  32 2.95
  22  0.888  0.556  0.407-  24 2.92  27 2.92  18 2.93  15 2.93  13 2.93  25 2.94  19 2.94  23 2.94
                            20 2.94  33 2.95  31 2.95  35 2.96
  23  0.222  0.556  0.406-  36 2.79  16 2.91  13 2.91  14 2.91  25 2.94  26 2.94  20 2.94  21 2.94
                            22 2.94  24 2.94  33 2.95  34 2.95
  24  0.556  0.556  0.407-  27 2.92  22 2.92  15 2.93  17 2.93  14 2.93  26 2.94  19 2.94  21 2.94
                            23 2.94  32 2.95  34 2.95  35 2.96
  25  0.889  0.889  0.407-  18 2.93  16 2.93  12 2.93  23 2.94  21 2.94  22 2.94  27 2.94  19 2.94
                            26 2.94  28 2.96  33 2.96  30 2.96
  26  0.222  0.889  0.407-  17 2.93  10 2.93  16 2.93  20 2.94  23 2.94  27 2.94  24 2.94  19 2.94
                            25 2.94  28 2.96  29 2.96  34 2.96
  27  0.556  0.888  0.407-  24 2.92  22 2.92  17 2.93  18 2.93  11 2.93  26 2.94  25 2.94  20 2.94
                            21 2.94  29 2.95  30 2.95  35 2.96
  28  0.000  0.000  0.505-  34 2.95  32 2.95  33 2.95  30 2.95  31 2.95  29 2.95  25 2.96  19 2.96
                            26 2.96
  29  0.333  0.004  0.504-  31 2.90  30 2.90  36 2.91  20 2.95  27 2.95  28 2.95  35 2.96  26 2.96
                            34 3.01
  30  0.663  0.004  0.504-  32 2.90  29 2.90  36 2.91  21 2.95  27 2.95  28 2.95  35 2.96  25 2.96
                            33 3.01
  31  0.004  0.333  0.504-  29 2.90  33 2.90  36 2.91  20 2.95  22 2.95  28 2.95  35 2.96  19 2.96
                            32 3.01
  32  0.663  0.333  0.504-  30 2.90  34 2.90  36 2.91  21 2.95  24 2.95  28 2.95  35 2.96  19 2.96
                            31 3.01
  33  0.004  0.663  0.504-  34 2.90  31 2.90  36 2.91  23 2.95  22 2.95  28 2.95  35 2.96  25 2.96
                            30 3.01
  34  0.333  0.663  0.504-  33 2.90  32 2.90  36 2.91  23 2.95  24 2.95  28 2.95  35 2.96  26 2.96
                            29 3.01
  35  0.667  0.667  0.505-  29 2.96  34 2.96  32 2.96  31 2.96  30 2.96  33 2.96  24 2.96  27 2.96
                            22 2.96
  36  0.333  0.333  0.496-  39 2.29  20 2.79  23 2.79  21 2.79  33 2.91  31 2.91  29 2.91  30 2.91
                            34 2.91  32 2.91
  37  0.207  0.411  0.595-  39 0.98
  38  0.384  0.411  0.595-  39 0.98
  39  0.332  0.336  0.588-  37 0.98  38 0.98  36 2.29

  LATTYP: Found a hexagonal cell.
 ALAT       =     8.8135128021
 C/A-ratio  =     2.8075332270

  Lattice vectors:

 A1 = (  -4.4067569092,  -7.6327256898,   0.0000000000)
 A2 = (   8.8135128021,   0.0000000000,   0.0000000000)
 A3 = (   0.0000000000,   0.0000000000,  24.7442300386)

Analysis of symmetry for initial positions (statically):
 Subroutine PRICEL returns:
 Original cell was already a primitive cell.

 Routine SETGRP: Setting up the symmetry group for a
 hexagonal supercell.

 Subroutine GETGRP returns: Found  1 space group operations
 (whereof  1 operations were pure point group operations)
 out of a pool of 24 trial point group operations.

The static configuration has the point symmetry C_1 .

Analysis of symmetry for dynamics (positions and initial velocities):
 Subroutine PRICEL returns:
 Original cell was already a primitive cell.

[...]

The dynamic configuration has the point symmetry C_1 .

Analysis of constrained symmetry for selective dynamics:
 Subroutine PRICEL returns:
[...]
     41      -4.8415      2.00000
     42      -4.7982      2.00000
     43      -4.7114      2.00000
     44      -4.6908      2.00000
     45      -4.6555      2.00000
     46      -4.6194      2.00000
     47      -4.6044      2.00000
     48      -4.5987      2.00000
     49      -4.5118      2.00000
     50      -4.4841      2.00000
     51      -4.4541      2.00000
     52      -4.4329      2.00000
     53      -4.4304      2.00000
     54      -4.4147      2.00000
     55      -4.4012      2.00000
     56      -4.3728      2.00000
     57      -4.3538      2.00000
     58      -4.3151      2.00000
     59      -4.2648      2.00000
     60      -4.2638      2.00000
[...]
    238       5.8737      0.00000
    239       6.0391      0.00000
    240       6.0884      0.00000
    241       6.1423      0.00000
    242       6.1895      0.00000
    243       6.3786      0.00000
    244       6.4464      0.00000
    245       6.4758      0.00000
    246       6.5335      0.00000
    247       6.6139      0.00000
    248       6.6704      0.00000
    249       6.7021      0.00000
    250       6.7452      0.00000
    251       6.8847      0.00000
    252       6.9396      0.00000

 soft charge-density along one line, spin component           1
         0         1         2         3         4         5         6         7         8         9
 total charge-density along one line

------------------------ aborting loop because EDIFF is reached ----------------------------------------

 total charge

# of ion       s       p       d       tot
    1        0.543   0.240   8.767   9.550
    2        0.546   0.240   8.765   9.551
    3        0.546   0.240   8.765   9.551
    4        0.547   0.240   8.764   9.551
    5        0.540   0.243   8.761   9.545
    6        0.546   0.240   8.764   9.551
    7        0.546   0.240   8.764   9.551
    8        0.546   0.240   8.764   9.551
    9        0.540   0.240   8.770   9.550
   10        0.521   0.309   8.769   9.599
   11        0.522   0.306   8.780   9.609
   12        0.521   0.309   8.769   9.599
   13        0.523   0.306   8.780   9.609
   14        0.523   0.306   8.780   9.609
   15        0.515   0.308   8.777   9.599
   16        0.520   0.309   8.769   9.599
   17        0.515   0.308   8.776   9.599
   18        0.515   0.308   8.776   9.599
   19        0.521   0.303   8.775   9.598
   20        0.537   0.324   8.756   9.616
   21        0.536   0.324   8.756   9.616
   22        0.511   0.308   8.776   9.594
   23        0.537   0.324   8.756   9.617
   24        0.511   0.307   8.775   9.594
   25        0.520   0.303   8.775   9.598
   26        0.520   0.303   8.775   9.598
   27        0.509   0.308   8.775   9.593
   28        0.541   0.232   8.768   9.542
   29        0.550   0.237   8.761   9.548
   30        0.550   0.237   8.761   9.548
   31        0.554   0.242   8.758   9.554
   32        0.554   0.242   8.758   9.554
   33        0.555   0.244   8.757   9.556
   34        0.555   0.244   8.757   9.556
   35        0.536   0.233   8.770   9.538
   36        0.338   0.327   7.358   8.023
   37        0.607   0.118   0.000   0.726
   38        0.607   0.118   0.000   0.725
   39        1.568   3.590   0.000   5.159
tot         21.795  13.801 314.229 349.825

  FORCE on cell =-STRESS in cart. coord.  units (eV):
  Direction    XX          YY          ZZ          XY          YZ          ZX
  Alpha Z   916.70541   916.70541   916.70541
  Ewald  157290.47999157230.04839************     0.15239    14.42458    -0.72259
  Hartree165828.27734165816.94756************     0.02563    -0.31796    -0.20518
  E(xc)   -1806.49173 -1806.72041 -1813.25626     0.00071     0.04730    -0.00258
  Local  ************************335541.33348    -0.13093    -8.33385     0.75038
  n-local   -86.26578   -87.55160   -64.30423    -0.00588     0.03394    -0.00395
  augment  2432.30929  2433.51847  2446.60635    -0.00460    -0.36159     0.00886
  Kinetic  5596.53064  5613.69935  5667.68757    -0.04112    -5.43984     0.16887
  Fock        0.00000     0.00000     0.00000     0.00000     0.00000     0.00000
  Total     -20.92667   -21.14485     2.19273    -0.00380     0.05258    -0.00619
  in kB     -20.14226   -20.35225     2.11054    -0.00366     0.05061    -0.00595

 VOLUME and BASIS-vectors are now :
  energy-cutoff  :      500.00
  volume of cell :     1664.57
      direct lattice vectors                 reciprocal lattice vectors
     8.813512802  0.000000000  0.000000000     0.113462137 -0.065507406  0.000000000
     4.406756909  7.632725690  0.000000000     0.000000000  0.131014796  0.000000000
     0.000000000  0.000000000 24.744230039     0.000000000  0.000000000  0.040413462

  length of vectors
     8.813512802  8.813512802 24.744230039     0.131014796  0.131014796  0.040413462

 FORCES acting on ions
    electron-ion (+dipol)            ewald-force                    non-local-force                 convergence-correction
   0.154E-02 -.546E-02 0.270E+04   0.380E-03 0.828E-02 -.270E+04   -.185E-03 -.417E-02 -.972E+00   -.167E-02 0.751E-03 -.378E+00
   0.245E+00 0.341E+00 0.270E+04   -.282E+00 -.390E+00 -.270E+04   0.246E-01 0.306E-01 -.229E+00   0.958E-02 0.364E-01 -.448E+00
   -.246E+00 0.330E+00 0.270E+04   0.282E+00 -.391E+00 -.270E+04   -.244E-01 0.308E-01 -.229E+00   -.783E-02 0.480E-01 -.446E+00
   0.432E+00 0.631E-01 0.270E+04   -.486E+00 -.641E-01 -.270E+04   0.355E-01 0.830E-02 -.219E+00   0.349E-01 -.166E-01 -.444E+00
   -.140E-01 0.186E-02 0.270E+04   -.696E-03 -.193E-01 -.270E+04   -.109E-03 0.754E-02 -.232E+00   0.151E-01 0.134E-01 -.433E+00
   -.422E+00 0.585E-01 0.270E+04   0.487E+00 -.643E-01 -.270E+04   -.355E-01 0.815E-02 -.219E+00   -.453E-01 -.117E-01 -.438E+00
   0.158E+00 -.395E+00 0.270E+04   -.205E+00 0.455E+00 -.270E+04   0.191E-01 -.382E-01 -.210E+00   0.439E-01 -.311E-01 -.447E+00
   -.168E+00 -.388E+00 0.270E+04   0.204E+00 0.455E+00 -.270E+04   -.190E-01 -.382E-01 -.210E+00   -.340E-01 -.382E-01 -.444E+00
   0.140E-01 -.651E-02 0.270E+04   0.614E-03 0.108E-01 -.270E+04   -.104E-03 -.318E-02 -.512E+00   -.147E-01 -.267E-02 -.452E+00
   0.380E+01 0.224E+01 0.933E+03   -.342E+01 -.201E+01 -.932E+03   -.294E+00 -.168E+00 -.780E+00   -.272E-01 -.262E-01 -.677E-01
   -.727E-02 0.421E+01 0.937E+03   -.391E-02 -.424E+01 -.937E+03   -.717E-04 0.342E-01 -.373E+00   0.114E-01 -.470E-01 0.247E-01
   -.379E+01 0.223E+01 0.933E+03   0.342E+01 -.201E+01 -.932E+03   0.293E+00 -.168E+00 -.778E+00   0.198E-01 -.156E-01 -.699E-01
   0.363E+01 -.200E+01 0.937E+03   -.365E+01 0.201E+01 -.937E+03   0.171E-01 -.153E-01 -.355E+00   -.305E-01 0.270E-01 0.169E-01
   -.365E+01 -.200E+01 0.937E+03   0.365E+01 0.201E+01 -.937E+03   -.170E-01 -.152E-01 -.355E+00   0.539E-01 0.258E-01 0.167E-01
   0.862E-02 0.670E+00 0.933E+03   0.561E-02 -.703E+00 -.932E+03   -.253E-03 -.903E-02 -.461E+00   -.140E-01 0.242E-01 -.737E-01
   -.321E-02 -.454E+01 0.934E+03   -.134E-02 0.409E+01 -.933E+03   0.109E-03 0.349E+00 -.730E+00   0.449E-02 0.357E-01 -.803E-01
   0.503E+00 -.409E+00 0.933E+03   -.525E+00 0.437E+00 -.932E+03   -.585E-02 -.387E-02 -.475E+00   0.174E-01 -.145E-01 -.691E-01
   -.500E+00 -.416E+00 0.933E+03   0.526E+00 0.432E+00 -.932E+03   0.572E-02 -.363E-02 -.476E+00   -.216E-01 -.261E-02 -.712E-01
   -.286E-01 0.183E+01 -.863E+03   0.332E-01 -.193E+01 0.862E+03   0.523E-03 -.577E-02 0.502E+00   -.520E-02 0.892E-01 0.563E+00
   0.124E+02 0.800E+01 -.831E+03   -.120E+02 -.777E+01 0.830E+03   -.726E+00 -.432E+00 -.764E+00   0.411E+00 0.227E+00 0.124E+01
   -.124E+02 0.801E+01 -.831E+03   0.120E+02 -.780E+01 0.830E+03   0.725E+00 -.431E+00 -.763E+00   -.405E+00 0.239E+00 0.124E+01
   0.437E+01 -.239E+01 -.856E+03   -.481E+01 0.266E+01 0.854E+03   0.272E+00 -.165E+00 0.538E+00   0.154E+00 -.976E-01 0.662E+00
   0.229E-01 -.143E+02 -.829E+03   -.356E-01 0.139E+02 0.828E+03   0.133E-03 0.812E+00 -.764E+00   0.123E-01 -.472E+00 0.124E+01
   -.438E+01 -.242E+01 -.856E+03   0.485E+01 0.269E+01 0.854E+03   -.272E+00 -.164E+00 0.538E+00   -.176E+00 -.963E-01 0.662E+00
   -.934E+00 -.141E+01 -.863E+03   0.106E+01 0.142E+01 0.862E+03   -.355E-01 0.354E-01 0.517E+00   -.777E-01 -.355E-01 0.559E+00
   0.921E+00 -.144E+01 -.863E+03   -.105E+01 0.145E+01 0.862E+03   0.355E-01 0.360E-01 0.517E+00   0.865E-01 -.458E-01 0.561E+00
   0.167E-01 0.409E+01 -.857E+03   -.402E-02 -.460E+01 0.856E+03   0.986E-04 0.321E+00 0.559E+00   -.130E-01 0.185E+00 0.660E+00
   -.607E-01 -.165E+01 -.263E+04   0.593E-01 0.165E+01 0.263E+04   0.244E-03 -.320E-02 0.299E+00   0.115E-02 0.340E-02 0.767E+00
   0.180E+02 0.334E+02 -.261E+04   -.181E+02 -.336E+02 0.261E+04   -.343E+00 -.454E+00 0.408E+00   0.383E+00 0.597E+00 0.714E+00
   -.179E+02 0.336E+02 -.261E+04   0.180E+02 -.339E+02 0.261E+04   0.342E+00 -.453E+00 0.410E+00   -.384E+00 0.609E+00 0.717E+00
   0.426E+02 0.359E+01 -.260E+04   -.427E+02 -.351E+01 0.260E+04   -.699E+00 -.899E-01 0.584E-01   0.707E+00 0.303E-01 0.724E+00
   -.430E+02 0.363E+01 -.260E+04   0.431E+02 -.356E+01 0.260E+04   0.700E+00 -.907E-01 0.541E-01   -.716E+00 0.375E-01 0.722E+00
   0.237E+02 -.404E+02 -.260E+04   -.238E+02 0.405E+02 0.260E+04   -.261E+00 0.656E+00 -.515E-01   0.334E+00 -.634E+00 0.729E+00
   -.236E+02 -.407E+02 -.260E+04   0.238E+02 0.408E+02 0.260E+04   0.262E+00 0.658E+00 -.558E-01   -.323E+00 -.638E+00 0.724E+00
   -.724E-01 -.230E+01 -.264E+04   0.885E-01 0.232E+01 0.263E+04   -.160E-03 -.151E-01 0.398E+00   -.162E-01 -.515E-02 0.736E+00
   0.397E+00 0.853E+01 -.193E+04   -.409E+00 -.854E+01 0.193E+04   0.137E-02 -.250E-01 0.222E+01   0.101E-01 0.789E-04 0.598E+00
   0.688E+02 -.462E+02 -.289E+03   -.756E+02 0.509E+02 0.290E+03   0.675E+01 -.460E+01 -.141E+01   0.521E-01 -.370E-01 -.616E-01
   -.689E+02 -.463E+02 -.288E+03   0.757E+02 0.510E+02 0.289E+03   -.675E+01 -.461E+01 -.133E+01   -.522E-01 -.374E-01 -.616E-01
   0.112E+00 0.587E+02 -.166E+04   -.970E-01 -.104E+03 0.166E+04   -.120E-01 0.453E+02 0.487E+01   0.348E-02 0.214E-01 -.646E+00
   0.243E-01 -.362E+02 -.733E+01   -.288E-13 -.156E-12 -.157E-10   -.178E-01 0.363E+02 -.106E+01   0.256E-02 -.527E-01 0.875E+01

 POSITION                                       TOTAL-FORCE (eV/Angst)
      0.00000      0.00000      5.28038        -0.000165     -0.000207      0.018920
      2.93784      0.00000      5.28038        -0.003768      0.018757      0.004031
      5.87568      0.00000      5.28038         0.003251      0.018768      0.004099
      1.46892      2.54424      5.28038         0.015925     -0.008961      0.002388
      4.40676      2.54424      5.28038         0.000035      0.003890     -0.013986
      7.34459      2.54424      5.28038        -0.016461     -0.008877      0.002544
      2.93784      5.08848      5.28038         0.016482     -0.008974      0.005340
      5.87568      5.08848      5.28038        -0.016915     -0.009025      0.005429
      8.81351      5.08848      5.28038        -0.000449     -0.001175      0.008303
      1.46892      0.84808      7.67911         0.058225      0.036432      0.086050
      4.40676      0.84808      7.67911        -0.000038     -0.043676      0.001758
      7.34459      0.84808      7.67911        -0.058678      0.036478      0.086085
      2.93784      3.39232      7.67911        -0.037297      0.020310      0.005236
      5.87568      3.39232      7.67911         0.037277      0.020331      0.005275
      8.81351      3.39232      7.67911        -0.000278     -0.017374      0.086516
      4.40676      5.93656      7.67911        -0.000183     -0.067701      0.096695
      7.34459      5.93656      7.67911        -0.010741      0.009642      0.086966
     10.28243      5.93656      7.67911         0.010282      0.009647      0.086944
      8.81351      1.69621     10.07295        -0.000271     -0.012443     -0.032001
      2.93663      1.69546     10.04742         0.050812      0.023911     -0.096339
      5.87688      1.69546     10.04742        -0.050830      0.023483     -0.097207
     10.27557      4.24437     10.06760        -0.014427      0.006228     -0.036022
      4.40676      4.24180     10.04742        -0.000411     -0.055718     -0.108817
      7.35146      4.24437     10.06760         0.013530      0.006275     -0.036259
     11.75131      6.78462     10.07295         0.009772      0.009582     -0.030415
      5.87571      6.78462     10.07295        -0.010200      0.009474     -0.030589
      8.81351      6.77672     10.06760        -0.000485     -0.009537     -0.015243
      0.00000      0.00000     12.49471        -0.000192      0.001833     -0.104606
      2.95476      0.03042     12.47845        -0.031125     -0.077544     -0.071634
      5.85875      0.03042     12.47845         0.030684     -0.078263     -0.072207
      1.50372      2.54369     12.47845        -0.081931      0.019559     -0.055473
      7.30979      2.54369     12.47845         0.083323      0.019878     -0.056941
      2.95572      5.05862     12.47845        -0.067188      0.066977     -0.047289
      5.85780      5.05862     12.47845         0.067230      0.067772     -0.047737
      8.81351      5.08848     12.49462        -0.000461      0.002009     -0.084093
      4.40676      2.54424     12.26123        -0.001359     -0.033317      0.498231
      3.63372      3.13375     14.72568        -0.017662      0.019034      0.001931
      5.19127      3.13521     14.71608         0.017985      0.019840      0.006797
      4.41194      2.56606     14.55327         0.006701     -0.037314     -0.062682
    total drift:                                0.009095     -0.015354      0.363375

  FREE ENERGIE OF THE ION-ELECTRON SYSTEM (eV)
  free  energy   TOTEN  =      -127.68872714 eV

  energy  without entropy=     -127.68872714  energy(sigma->0) =     -127.68872714

 stress matrix after NEB project (eV)
    -20.92667     -0.00380     -0.00619
     -0.00380    -21.14485      0.05258
     -0.00619      0.05258      2.19273
  FORCES: max atom, RMS     0.073255    0.013212
  FORCE total and by dimension    0.082508    0.062682
  Stress total and by dimension   29.830253   21.144848
|           W    W    AA    RRRRR   N    N  II  N    N   GGGG   !!!           |
|           W    W   A  A   R    R  NN   N  II  NN   N  G    G  !!!           |
|           W    W  A    A  R    R  N N  N  II  N N  N  G       !!!           |
|           W WW W  AAAAAA  RRRRR   N  N N  II  N  N N  G  GGG   !            |
|           WW  WW  A    A  R   R   N   NN  II  N   NN  G    G                |
|           W    W  A    A  R    R  N    N  II  N    N   GGGG   !!!           |
|     Tetrahedron method does not include variations of the Fermi             |
|     occupations, so forces and stress will be inaccurate. We suggest        |
|     using a different smearing scheme ISMEAR = 1 or 2 for metals in         |
|     relaxations.                                                            |

 total charge

# of ion       s       p       d       tot
    1        0.543   0.240   8.767   9.550
    2        0.546   0.240   8.765   9.551
    3        0.546   0.240   8.765   9.551
    4        0.547   0.240   8.764   9.551
    5        0.540   0.243   8.761   9.545
    6        0.546   0.240   8.764   9.551
    7        0.546   0.240   8.764   9.551
    8        0.546   0.240   8.764   9.551
    9        0.540   0.240   8.770   9.550
   10        0.521   0.309   8.769   9.599
   11        0.522   0.306   8.780   9.609
   12        0.521   0.309   8.769   9.599
   13        0.523   0.306   8.780   9.609
   14        0.523   0.306   8.780   9.609
   15        0.515   0.308   8.777   9.599
   16        0.520   0.309   8.769   9.599
   17        0.515   0.308   8.776   9.599
   18        0.515   0.308   8.776   9.599
   19        0.521   0.303   8.775   9.598
   20        0.537   0.324   8.756   9.616
   21        0.536   0.324   8.756   9.616
   22        0.511   0.308   8.776   9.594
   23        0.537   0.324   8.756   9.617
   24        0.511   0.307   8.775   9.594
   25        0.520   0.303   8.775   9.598
   26        0.520   0.303   8.775   9.598
   27        0.509   0.308   8.775   9.593
   28        0.541   0.232   8.768   9.542
   29        0.550   0.237   8.761   9.548
   30        0.550   0.237   8.761   9.548
   31        0.554   0.242   8.758   9.554
   32        0.554   0.242   8.758   9.554
   33        0.555   0.244   8.757   9.556
   34        0.555   0.244   8.757   9.556
   35        0.536   0.233   8.770   9.538
   36        0.338   0.327   7.358   8.023
   37        0.607   0.118   0.000   0.726
   38        0.607   0.118   0.000   0.725
   39        1.568   3.590   0.000   5.159
tot         21.795  13.801 314.229 349.825

 BZINTS: Fermi energy:    0.347338;  402.000000 electrons
         Band energy:-0.138641E+04;  BLOECHL correction:   -0.079209