 vasp.6.2.0 18Jan21 (build Jun 12 2021 23:27:24) complex

 executed on             LinuxIFC date 2022.05.27  05:04:38

 INCAR:
   ISMEAR = -5
   SIGMA = 0.1
   ISPIN = 1
   EDIFF = 1.d-5
   EDIFFG = -0.01
   NSW = 0
   NELM = 150
   ENCUT = 500
   ISIF = 2
   IBRION = 2
   LREAL = Auto
   ALGO = Fast
   ICHARG = 11
   LORBIT = 10
   LCHARG = .F.
   LWAVE = .F.

 POTCAR:    PAW_PBE Au 04Oct2007
 POTCAR:    PAW_PBE Co 02Aug2007
 POTCAR:    PAW_PBE H 15Jun2001
|           W    W    AA    RRRRR   N    N  II  N    N   GGGG   !!!           |
|           W    W   A  A   R    R  NN   N  II  NN   N  G    G  !!!           |
|           W    W  A    A  R    R  N N  N  II  N N  N  G       !!!           |
|           W WW W  AAAAAA  RRRRR   N  N N  II  N  N N  G  GGG   !            |
|           WW  WW  A    A  R   R   N   NN  II  N   NN  G    G                |
|           W    W  A    A  R    R  N    N  II  N    N   GGGG   !!!           |
|     For optimal performance we recommend to set                             |
|       NCORE = 2 up to number-of-cores-per-socket                            |
|     This setting can greatly improve the performance of VASP for DFT.       |
|     The default, NCORE=1 might be grossly inefficient on modern             |
|     multi-core architectures or massively parallel machines. Do your        |
|     Unfortunately you need to use the default for GW and RPA                |
|     calculations (for HF NCORE is supported but not extensively tested      |
|     yet).                                                                   |

 POTCAR:    PAW_PBE Au 04Oct2007
   VRHFIN =Au: s1d10

   TITEL  = PAW_PBE Au 04Oct2007
   POMASS =  196.966; ZVAL   =   11.000    mass and valenz
   ENMAX  =  229.943; ENMIN  =  172.457 eV

 POTCAR:    PAW_PBE Co 02Aug2007
   VRHFIN =Co: d8 s1

   TITEL  = PAW_PBE Co 02Aug2007
   POMASS =   58.933; ZVAL   =    9.000    mass and valenz
   ENMAX  =  267.968; ENMIN  =  200.976 eV

 POTCAR:    PAW_PBE H 15Jun2001
   VRHFIN =H: ultrasoft test

   TITEL  = PAW_PBE H 15Jun2001
   POMASS =    1.000; ZVAL   =    1.000    mass and valenz
   ENMAX  =  250.000; ENMIN  =  200.000 eV

 Optimization of the real space projectors (new method)

 maximal supplied QI-value         = 15.12
 optimisation between [QCUT,QGAM] = [ 11.34, 22.83] = [ 36.00,145.93] Ry
 Optimized for a Real-space Cutoff    1.39 Angstroem

   l    n(q)    QCUT    max X(q) W(low)/X(q) W(high)/X(q)  e(spline)
   2      9    11.338    60.898    0.39E-03    0.42E-03    0.21E-06
   2      9    11.338    58.894    0.40E-03    0.42E-03    0.22E-06
   0      9    11.338   109.617    0.13E-03    0.20E-04    0.13E-06
   0      9    11.338    75.026    0.13E-03    0.20E-04    0.13E-06
   1      9    11.338    16.344    0.33E-04    0.24E-03    0.18E-06
   1      9    11.338    10.160    0.26E-04    0.19E-03    0.15E-06
 Optimization of the real space projectors (new method)

[...]

   l    n(q)    QCUT    max X(q) W(low)/X(q) W(high)/X(q)  e(spline)
   2      8    11.376    65.824    0.20E-03    0.32E-04    0.13E-06
   2      8    11.376    61.429    0.20E-03    0.33E-04    0.14E-06
   0      9    11.376    56.174    0.76E-04    0.11E-03    0.19E-06
   0      9    11.376    31.263    0.69E-04    0.99E-04    0.17E-06
   1      9    11.376    19.828    0.35E-03    0.11E-03    0.12E-06
   1      9    11.376    15.139    0.29E-03    0.94E-04    0.10E-06
 Optimization of the real space projectors (new method)

 maximal supplied QI-value         = 34.20
 optimisation between [QCUT,QGAM] = [ 11.29, 22.57] = [ 35.68,142.71] Ry
 Optimized for a Real-space Cutoff    1.16 Angstroem

   l    n(q)    QCUT    max X(q) W(low)/X(q) W(high)/X(q)  e(spline)
   0      8    11.287    19.460    0.40E-03    0.73E-03    0.16E-06
   0      8    11.287    12.209    0.38E-03    0.70E-03    0.15E-06
   1      7    11.287     4.655    0.22E-03    0.25E-04    0.22E-06
  PAW_PBE Au 04Oct2007                  :
  PAW_PBE Co 02Aug2007                  :
  PAW_PBE H 15Jun2001                   :

 POSCAR: Au-Co-H2
  positions in direct lattice
  velocities in cartesian coordinates
 exchange correlation table for  LEXCH =        8
   RHO(1)=    0.500       N(1)  =     2000
   RHO(2)=  100.500       N(2)  =     4000

 VTST: version 3.2, (02/03/18)

 CHAIN: initializing optimizer

 OPT: Using VASP Conjugate-Gradient optimizer
 CHAIN: Read ICHAIN            0

 POSCAR: Au-Co-H2
  positions in direct lattice
  velocities in cartesian coordinates

 ion  position               nearest neighbor table
   1  0.000  0.000  0.238-  16 2.94  12 2.94   6 2.94   8 2.94   7 2.94   3 2.94  10 2.94   4 2.94
                             2 2.94
   2  0.333  0.000  0.238-   9 2.94  11 2.94  17 2.94  10 2.94   8 2.94   4 2.94   5 2.94   1 2.94
                             3 2.94
   3  0.667  0.000  0.238-   7 2.94  18 2.94  12 2.94   1 2.94  11 2.94   5 2.94   6 2.94   9 2.94
                             2 2.94
   4  0.000  0.333  0.238-  10 2.94   6 2.94   5 2.94  13 2.94   2 2.94  15 2.94   9 2.94   1 2.94
                             7 2.94
   5  0.333  0.333  0.238-  13 2.94   7 2.94  11 2.94   4 2.94   2 2.94  14 2.94   3 2.94   8 2.94
                             6 2.94
   6  0.667  0.333  0.238-  15 2.94  14 2.94   1 2.94  12 2.94   4 2.94   9 2.94   8 2.94   3 2.94
                             5 2.94
   7  0.000  0.667  0.238-  18 2.94   3 2.94  16 2.94   5 2.94   1 2.94  13 2.94   8 2.94   4 2.94
                             9 2.94
   8  0.333  0.667  0.238-   9 2.94  17 2.94   1 2.94   2 2.94  14 2.94  16 2.94   6 2.94   7 2.94
                             5 2.94
   9  0.667  0.667  0.238-   2 2.94   8 2.94  17 2.94   6 2.94  15 2.94   4 2.94   3 2.94  18 2.94
                             7 2.94
  10  0.111  0.111  0.346-  20 2.92  26 2.93  19 2.93  11 2.94  17 2.94   2 2.94   4 2.94   1 2.94
                            12 2.94  16 2.94  13 2.94  15 2.94
  11  0.444  0.111  0.346-  20 2.91  21 2.91  27 2.93  13 2.94   2 2.94  10 2.94  17 2.94   5 2.94
                             3 2.94  18 2.94  14 2.94  12 2.94
  12  0.778  0.111  0.346-  21 2.92  25 2.93  19 2.93  16 2.94  18 2.94   1 2.94  14 2.94  15 2.94
                             3 2.94   6 2.94  10 2.94  11 2.94
  13  0.111  0.444  0.346-  23 2.91  20 2.91  22 2.93   5 2.94  18 2.94  11 2.94   7 2.94   4 2.94
                            16 2.94  10 2.94  14 2.94  15 2.94
  14  0.444  0.444  0.346-  21 2.91  23 2.91  24 2.93  15 2.94   6 2.94  12 2.94   8 2.94  17 2.94
                             5 2.94  16 2.94  13 2.94  11 2.94
  15  0.778  0.444  0.346-  24 2.92  22 2.92  19 2.93  14 2.94   6 2.94  17 2.94  12 2.94   9 2.94
                             4 2.94  10 2.94  13 2.94  18 2.94
  16  0.111  0.778  0.346-  23 2.92  25 2.93  26 2.93  18 2.94  12 2.94   7 2.94   1 2.94   8 2.94
                            13 2.94  10 2.94  14 2.94  17 2.94
  17  0.444  0.778  0.346-  27 2.92  24 2.92  26 2.93   9 2.94  15 2.94   2 2.94  10 2.94  11 2.94
                             8 2.94  14 2.94  16 2.94  18 2.94
  18  0.778  0.778  0.346-  22 2.92  27 2.92  25 2.93  16 2.94   7 2.94  13 2.94  12 2.94   3 2.94
                            11 2.94   9 2.94  15 2.94  17 2.94
  19  0.889  0.222  0.454-  10 2.93  12 2.93  15 2.93  26 2.94  25 2.94  24 2.94  22 2.94  28 2.94
                            21 2.95  20 2.95  32 2.96  31 2.96
  20  0.223  0.223  0.453-  36 2.69  29 2.91  31 2.91  11 2.91  13 2.91  23 2.91  21 2.91  10 2.92
                            27 2.95  22 2.95  26 2.95  19 2.95
  21  0.554  0.223  0.453-  36 2.69  30 2.91  32 2.91  14 2.91  11 2.91  20 2.91  23 2.91  12 2.92
                            27 2.95  24 2.95  25 2.95  19 2.95
  22  0.887  0.557  0.453-  24 2.91  27 2.91  18 2.92  15 2.92  13 2.93  25 2.94  19 2.94  33 2.94
                            31 2.94  23 2.95  20 2.95  35 2.96
  23  0.223  0.554  0.453-  36 2.69  33 2.91  34 2.91  13 2.91  14 2.91  20 2.91  21 2.91  16 2.92
                            22 2.95  24 2.95  25 2.95  26 2.95
  24  0.557  0.557  0.453-  27 2.91  22 2.91  15 2.92  17 2.92  14 2.93  26 2.94  19 2.94  32 2.94
                            34 2.94  21 2.95  23 2.95  35 2.96
  25  0.889  0.889  0.454-  16 2.93  12 2.93  18 2.93  19 2.94  26 2.94  22 2.94  27 2.94  28 2.94
                            23 2.95  21 2.95  33 2.96  30 2.96
  26  0.222  0.889  0.454-  10 2.93  16 2.93  17 2.93  19 2.94  25 2.94  27 2.94  24 2.94  28 2.94
                            20 2.95  23 2.95  29 2.96  34 2.96
  27  0.557  0.887  0.453-  24 2.91  22 2.91  17 2.92  18 2.92  11 2.93  26 2.94  25 2.94  29 2.94
                            30 2.94  20 2.95  21 2.95  35 2.96
  28  0.000  0.000  0.562-  25 2.94  19 2.94  26 2.94  34 2.98  32 2.98  33 2.98  30 2.98  31 2.98
                            29 2.98
  29  0.334  0.008  0.561-  30 2.86  31 2.87  36 2.88  20 2.91  27 2.94  26 2.96  35 2.98  28 2.98
                            34 3.09
  30  0.658  0.008  0.561-  29 2.86  32 2.87  36 2.88  21 2.91  27 2.94  25 2.96  35 2.98  28 2.98
                            33 3.09
  31  0.008  0.334  0.561-  33 2.86  29 2.87  36 2.88  20 2.91  22 2.94  19 2.96  35 2.98  28 2.98
                            32 3.09
  32  0.658  0.334  0.561-  34 2.86  30 2.87  36 2.88  21 2.91  24 2.94  19 2.96  35 2.98  28 2.98
                            31 3.09
  33  0.008  0.658  0.561-  31 2.86  34 2.87  36 2.88  23 2.91  22 2.94  25 2.96  35 2.98  28 2.98
                            30 3.09
  34  0.334  0.658  0.561-  32 2.86  33 2.87  36 2.88  23 2.91  24 2.94  26 2.96  35 2.98  28 2.98
                            29 3.09
  35  0.667  0.667  0.563-  24 2.96  27 2.96  22 2.96  29 2.98  34 2.98  32 2.98  31 2.98  30 2.98
                            33 2.98
  36  0.333  0.333  0.547-  38 1.58  37 1.58  20 2.69  23 2.69  21 2.69  33 2.88  31 2.88  29 2.88
                            30 2.88  34 2.88  32 2.88
  37  0.283  0.333  0.616-  36 1.58
  38  0.384  0.333  0.616-  36 1.58

  LATTYP: Found a hexagonal cell.
 ALAT       =     8.8135128021
 C/A-ratio  =     2.5184286595

  Lattice vectors:

 A1 = (  -4.4067569092,  -7.6327256898,   0.0000000000)
 A2 = (   8.8135128021,   0.0000000000,   0.0000000000)
 A3 = (   0.0000000000,   0.0000000000,  22.1962032318)

Analysis of symmetry for initial positions (statically):
 Subroutine PRICEL returns:
 Original cell was already a primitive cell.

 Routine SETGRP: Setting up the symmetry group for a
 hexagonal supercell.

 Subroutine GETGRP returns: Found  2 space group operations
 (whereof  2 operations were pure point group operations)
 out of a pool of 24 trial point group operations.

The static configuration has the point symmetry C_1h.

Analysis of symmetry for dynamics (positions and initial velocities):
 Subroutine PRICEL returns:
 Original cell was already a primitive cell.

[...]

The dynamic configuration has the point symmetry C_1h.

Analysis of constrained symmetry for selective dynamics:
 Subroutine PRICEL returns:
 Original cell was already a primitive cell.

 Routine SETGRP: Setting up the symmetry group for a
 hexagonal supercell.

 Subroutine GETGRP returns: Found  2 space group operations
[...]
     33      -4.6593      2.00000
     34      -4.6399      2.00000
     35      -4.5298      2.00000
     36      -4.4640      2.00000
     37      -4.4566      2.00000
     38      -4.4523      2.00000
     39      -4.4296      2.00000
     40      -4.3836      2.00000
     41      -4.3118      2.00000
     42      -4.2817      2.00000
     43      -4.2221      2.00000
     44      -4.1989      2.00000
     45      -4.1952      2.00000
     46      -4.1898      2.00000
     47      -4.0799      2.00000
     48      -4.0693      2.00000
     49      -4.0320      2.00000
     50      -4.0219      2.00000
     51      -4.0121      2.00000
     52      -4.0076      2.00000
     53      -3.9889      2.00000
     54      -3.9533      2.00000
     55      -3.9143      2.00000
     56      -3.8809      2.00000
     57      -3.8670      2.00000
     58      -3.8585      2.00000
     59      -3.8385      2.00000
     60      -3.8328      2.00000
[...]
    238       6.6054      0.00000
    239       6.6616      0.00000
    240       6.7385      0.00000
    241       6.8753      0.00000
    242       6.8914      0.00000
    243       7.0962      0.00000
    244       7.1834      0.00000
    245       7.2949      0.00000
    246       7.5085      0.00000
    247       7.5201      0.00000
    248       7.5872      0.00000
    249       7.6608      0.00000
    250       7.7633      0.00000
    251       7.7916      0.00000
    252       7.9173      0.00000

 soft charge-density along one line, spin component           1
         0         1         2         3         4         5         6         7         8         9
 total charge-density along one line

------------------------ aborting loop because EDIFF is reached ----------------------------------------

 total charge

# of ion       s       p       d       tot
    1        0.544   0.239   8.769   9.552
    2        0.545   0.241   8.765   9.551
    3        0.545   0.241   8.765   9.551
    4        0.546   0.240   8.765   9.551
    5        0.543   0.242   8.761   9.546
    6        0.546   0.240   8.765   9.551
    7        0.545   0.240   8.765   9.551
    8        0.545   0.240   8.765   9.551
    9        0.542   0.239   8.771   9.552
   10        0.520   0.308   8.770   9.598
   11        0.524   0.307   8.780   9.610
   12        0.520   0.308   8.770   9.598
   13        0.523   0.307   8.779   9.609
   14        0.523   0.307   8.779   9.609
   15        0.515   0.310   8.775   9.600
   16        0.519   0.309   8.770   9.598
   17        0.515   0.310   8.775   9.600
   18        0.515   0.310   8.775   9.600
   19        0.518   0.302   8.775   9.596
   20        0.543   0.328   8.756   9.626
   21        0.543   0.328   8.756   9.626
   22        0.511   0.312   8.774   9.597
   23        0.542   0.329   8.756   9.627
   24        0.511   0.312   8.774   9.597
   25        0.518   0.302   8.776   9.596
   26        0.518   0.302   8.776   9.596
   27        0.511   0.312   8.774   9.597
   28        0.541   0.225   8.769   9.535
   29        0.549   0.237   8.766   9.552
   30        0.549   0.237   8.766   9.552
   31        0.546   0.241   8.763   9.551
   32        0.546   0.241   8.763   9.551
   33        0.549   0.237   8.767   9.552
   34        0.549   0.237   8.767   9.552
   35        0.538   0.224   8.772   9.533
   36        0.353   0.395   7.361   8.110
   37        0.540   0.033   0.000   0.573
   38        0.540   0.033   0.000   0.573
tot         20.089  10.104 314.278 344.472

  FORCE on cell =-STRESS in cart. coord.  units (eV):
  Direction    XX          YY          ZZ          XY          YZ          ZX
  Alpha Z   996.68240   996.68240   996.68240
  Ewald  120565.18820120539.84185************    -0.00032    -0.02699    -0.00015
  Hartree129293.48407129286.92956************     0.00000     0.03491    -0.00004
  E(xc)   -1779.62800 -1779.86890 -1786.39817    -0.00002    -0.00434    -0.00000
  Local  ************************262361.03857     0.00193    -0.15012     0.00010
  n-local   -70.14943   -69.58322   -48.53880     4.15214     0.05403     0.17076
  augment  2525.51390  2525.85666  2532.19985    -0.00140     0.07593     0.00003
  Kinetic  5442.68085  5447.70884  5485.47624     1.08247     0.05945     0.14346
  Fock        0.00000     0.00000     0.00000     0.00000     0.00000     0.00000
  Total     -21.73978   -21.52022     1.34174    -0.00000     0.04287     0.00000
  in kB     -23.32697   -23.09138     1.43970    -0.00000     0.04600     0.00000

 VOLUME and BASIS-vectors are now :
  energy-cutoff  :      500.00
  volume of cell :     1493.16
      direct lattice vectors                 reciprocal lattice vectors
     8.813512802  0.000000000  0.000000000     0.113462137 -0.065507406  0.000000000
     4.406756909  7.632725690  0.000000000     0.000000000  0.131014796  0.000000000
     0.000000000  0.000000000 22.196203232     0.000000000  0.000000000  0.045052750

  length of vectors
     8.813512802  8.813512802 22.196203232     0.131014796  0.131014796  0.045052750

 FORCES acting on ions
    electron-ion (+dipol)            ewald-force                    non-local-force                 convergence-correction
   -.199E-04 -.755E-02 0.249E+04   0.519E-04 -.267E-02 -.249E+04   0.142E-09 0.214E-02 -.994E+00   -.174E-03 0.784E-02 -.400E+00
   0.528E+00 0.357E+00 0.249E+04   -.615E+00 -.441E+00 -.249E+04   0.442E-01 0.564E-01 -.329E+00   0.438E-01 0.433E-01 -.468E+00
   -.528E+00 0.357E+00 0.249E+04   0.615E+00 -.441E+00 -.249E+04   -.442E-01 0.564E-01 -.329E+00   -.436E-01 0.453E-01 -.467E+00
   0.565E+00 0.257E+00 0.249E+04   -.687E+00 -.313E+00 -.249E+04   0.755E-01 0.104E-01 -.335E+00   0.570E-01 0.361E-01 -.460E+00
   0.733E-05 -.166E-01 0.249E+04   0.951E-04 0.178E-03 -.249E+04   0.240E-10 0.360E-03 -.197E+00   0.427E-02 0.167E-01 -.446E+00
   -.565E+00 0.257E+00 0.249E+04   0.687E+00 -.313E+00 -.249E+04   -.755E-01 0.104E-01 -.335E+00   -.586E-01 0.370E-01 -.459E+00
   0.594E-01 -.611E+00 0.249E+04   -.723E-01 0.754E+00 -.249E+04   0.238E-01 -.702E-01 -.335E+00   0.554E-02 -.794E-01 -.469E+00
   -.595E-01 -.611E+00 0.249E+04   0.722E-01 0.754E+00 -.249E+04   -.238E-01 -.702E-01 -.335E+00   -.365E-02 -.804E-01 -.469E+00
   0.196E-04 0.280E-01 0.249E+04   0.166E-03 0.253E-02 -.249E+04   -.441E-09 -.663E-02 -.627E+00   -.464E-02 -.242E-01 -.488E+00
   0.476E+01 0.273E+01 0.832E+03   -.448E+01 -.261E+01 -.832E+03   -.277E+00 -.150E+00 -.668E+00   0.299E-01 0.430E-01 0.233E-01
   0.153E-04 0.594E+01 0.841E+03   0.147E-03 -.600E+01 -.841E+03   0.274E-08 0.411E-01 -.352E+00   0.364E-02 -.168E-01 0.525E-01
   -.476E+01 0.273E+01 0.832E+03   0.448E+01 -.261E+01 -.832E+03   0.277E+00 -.150E+00 -.668E+00   -.311E-01 0.443E-01 0.223E-01
   0.516E+01 -.297E+01 0.842E+03   -.518E+01 0.300E+01 -.841E+03   0.387E-01 -.325E-01 -.345E+00   -.419E-01 0.162E-01 0.355E-01
   -.516E+01 -.297E+01 0.842E+03   0.518E+01 0.300E+01 -.841E+03   -.387E-01 -.325E-01 -.345E+00   0.496E-01 0.160E-01 0.353E-01
   0.310E-04 0.295E+01 0.835E+03   0.236E-03 -.297E+01 -.834E+03   0.317E-10 0.476E-03 -.545E+00   -.216E-02 -.107E-01 -.731E-02
   -.218E-04 -.550E+01 0.832E+03   0.163E-03 0.518E+01 -.832E+03   0.217E-07 0.326E+00 -.670E+00   0.340E-03 -.463E-01 0.117E-01
   0.257E+01 -.147E+01 0.835E+03   -.259E+01 0.150E+01 -.834E+03   -.756E-02 0.424E-03 -.534E+00   -.699E-02 -.184E-01 -.637E-02
   -.257E+01 -.147E+01 0.835E+03   0.258E+01 0.150E+01 -.834E+03   0.756E-02 0.424E-03 -.534E+00   0.691E-02 -.167E-01 -.669E-02
   -.396E-04 0.204E+01 -.857E+03   0.539E-04 -.216E+01 0.856E+03   0.368E-08 0.553E-01 0.653E+00   0.348E-02 0.660E-01 0.461E+00
   0.312E+02 0.182E+02 -.811E+03   -.307E+02 -.179E+02 0.811E+03   -.918E+00 -.565E+00 -.974E+00   0.380E+00 0.197E+00 0.101E+01
   -.312E+02 0.182E+02 -.811E+03   0.307E+02 -.179E+02 0.811E+03   0.918E+00 -.565E+00 -.974E+00   -.380E+00 0.199E+00 0.101E+01
   0.707E+01 -.421E+01 -.843E+03   -.752E+01 0.448E+01 0.842E+03   0.300E+00 -.171E+00 0.548E+00   0.174E+00 -.119E+00 0.479E+00
   -.109E-04 -.363E+02 -.812E+03   0.143E-03 0.356E+02 0.811E+03   0.704E-07 0.106E+01 -.940E+00   0.164E-02 -.447E+00 0.103E+01
   -.707E+01 -.421E+01 -.843E+03   0.752E+01 0.448E+01 0.842E+03   -.300E+00 -.171E+00 0.548E+00   -.181E+00 -.118E+00 0.479E+00
   -.173E+01 -.934E+00 -.857E+03   0.181E+01 0.979E+00 0.856E+03   -.381E-01 -.313E-01 0.658E+00   -.439E-01 -.150E-01 0.481E+00
   0.173E+01 -.934E+00 -.857E+03   -.181E+01 0.979E+00 0.856E+03   0.381E-01 -.313E-01 0.658E+00   0.458E-01 -.156E-01 0.481E+00
   0.111E-04 0.811E+01 -.844E+03   0.197E-03 -.868E+01 0.843E+03   0.251E-07 0.377E+00 0.554E+00   -.451E-02 0.230E+00 0.511E+00
   -.111E-04 0.457E+00 -.250E+04   0.287E-04 -.433E+00 0.250E+04   -.217E-08 -.326E-01 0.610E+00   0.402E-03 0.134E-02 0.643E+00
   0.215E+02 0.361E+02 -.249E+04   -.213E+02 -.361E+02 0.249E+04   -.522E+00 -.689E+00 0.563E+00   0.285E+00 0.490E+00 0.569E+00
   -.215E+02 0.361E+02 -.249E+04   0.213E+02 -.361E+02 0.249E+04   0.522E+00 -.689E+00 0.563E+00   -.285E+00 0.492E+00 0.570E+00
   0.435E+02 0.127E+01 -.249E+04   -.434E+02 -.118E+01 0.249E+04   -.804E+00 -.503E-01 0.564E+00   0.553E+00 -.161E-01 0.574E+00
   -.435E+02 0.127E+01 -.249E+04   0.434E+02 -.118E+01 0.249E+04   0.804E+00 -.503E-01 0.564E+00   -.554E+00 -.147E-01 0.574E+00
   0.193E+02 -.373E+02 -.249E+04   -.192E+02 0.372E+02 0.249E+04   -.437E+00 0.742E+00 0.572E+00   0.280E+00 -.471E+00 0.584E+00
   -.193E+02 -.373E+02 -.249E+04   0.192E+02 0.372E+02 0.249E+04   0.437E+00 0.742E+00 0.572E+00   -.278E+00 -.472E+00 0.583E+00
   0.338E-04 -.465E+00 -.250E+04   0.143E-03 0.413E+00 0.250E+04   0.310E-08 0.465E-01 0.602E+00   -.468E-02 0.103E-01 0.651E+00
   -.357E-04 -.124E+00 -.186E+04   0.951E-04 0.152E+00 0.186E+04   0.157E-08 0.236E-01 0.133E+01   0.586E-02 -.224E-01 0.487E+00
   0.193E+02 0.136E-01 -.294E+03   -.224E+02 -.180E-01 0.295E+03   0.312E+01 0.117E-02 -.146E+01   0.604E-01 -.119E-02 -.129E+00
   -.193E+02 0.136E-01 -.294E+03   0.224E+02 -.180E-01 0.295E+03   -.312E+01 0.117E-02 -.146E+01   -.602E-01 -.118E-02 -.130E+00
   -.776E-03 0.216E-01 -.174E+01   -.711E-14 -.366E-13 -.227E-12   -.392E-09 -.589E-02 -.471E+01   0.607E-02 -.158E-01 0.695E+01

 POSITION                                       TOTAL-FORCE (eV/Angst)
      0.00000      0.00000      5.28038        -0.000000     -0.000248     -0.085987
      2.93784      0.00000      5.28038         0.001086      0.016579     -0.040367
      5.87568      0.00000      5.28038        -0.001086      0.016579     -0.040367
      1.46892      2.54424      5.28038         0.011711     -0.009102     -0.043215
      4.40676      2.54424      5.28038         0.000000      0.000679     -0.062543
      7.34459      2.54424      5.28038        -0.011711     -0.009102     -0.043215
      2.93784      5.08848      5.28038         0.015612     -0.007391     -0.041079
      5.87568      5.08848      5.28038        -0.015612     -0.007391     -0.041079
      8.81351      5.08848      5.28038        -0.000000     -0.000340     -0.050978
      1.46892      0.84808      7.67911         0.030801      0.017386      0.113405
      4.40676      0.84808      7.67911        -0.000000     -0.034579      0.016271
      7.34459      0.84808      7.67911        -0.030801      0.017386      0.113405
      2.93784      3.39232      7.67911        -0.026775      0.015702      0.022571
      5.87568      3.39232      7.67911         0.026775      0.015702      0.022571
      8.81351      3.39232      7.67911        -0.000000     -0.030520      0.079850
      4.40676      5.93656      7.67911        -0.000000     -0.037830      0.115479
      7.34459      5.93656      7.67911        -0.028251      0.016956      0.081909
     10.28243      5.93656      7.67911         0.028251      0.016956      0.081909
      8.81351      1.69524     10.07173         0.000000      0.002045      0.012970
      2.95099      1.70376     10.05075         0.025844      0.012363     -0.118010
      5.86252      1.70376     10.05075        -0.025844      0.012363     -0.118010
     10.26977      4.24772     10.05674         0.028626     -0.016593     -0.003603
      4.40676      4.22522     10.05075        -0.000000     -0.040744     -0.111654
      7.35726      4.24772     10.05674        -0.028626     -0.016593     -0.003603
     11.75215      6.78511     10.07173        -0.000738     -0.001996      0.001179
      5.87488      6.78511     10.07173         0.000738     -0.001996      0.001179
      8.81351      6.77002     10.05674         0.000000      0.031562     -0.000171
      0.00000      0.00000     12.47665        -0.000000     -0.007893     -0.025836
      2.97645      0.06424     12.45579        -0.064127     -0.161629     -0.075975
      5.83706      0.06424     12.45579         0.064127     -0.161629     -0.075975
      1.54386      2.54556     12.45579        -0.132128      0.020298     -0.039656
      7.26966      2.54556     12.45579         0.132128      0.020298     -0.039656
      2.97417      5.02293     12.45579        -0.098261      0.143403     -0.071468
      5.83935      5.02293     12.45579         0.098261      0.143403     -0.071468
      8.81351      5.08848     12.49078         0.000000      0.005286     -0.024193
      4.40676      2.54424     12.15093         0.000000      0.029574      0.544181
      3.95796      2.54186     13.66619         0.016594     -0.004473      0.010613
      4.85555      2.54186     13.66619        -0.016594     -0.004473      0.010613
    total drift:                                0.005289     -0.000079      0.499453

  FREE ENERGIE OF THE ION-ELECTRON SYSTEM (eV)
  free  energy   TOTEN  =      -119.53090944 eV

  energy  without entropy=     -119.53090944  energy(sigma->0) =     -119.53090944

 stress matrix after NEB project (eV)
    -21.73978     -0.00000      0.00000
     -0.00000    -21.52022      0.04287
      0.00000      0.04287      1.34174
  FORCES: max atom, RMS     0.020199    0.004634
  FORCE total and by dimension    0.028566    0.016594
  Stress total and by dimension   30.619307   21.739784
|           W    W    AA    RRRRR   N    N  II  N    N   GGGG   !!!           |
|           W    W   A  A   R    R  NN   N  II  NN   N  G    G  !!!           |
|           W    W  A    A  R    R  N N  N  II  N N  N  G       !!!           |
|           W WW W  AAAAAA  RRRRR   N  N N  II  N  N N  G  GGG   !            |
|           WW  WW  A    A  R   R   N   NN  II  N   NN  G    G                |
|           W    W  A    A  R    R  N    N  II  N    N   GGGG   !!!           |
|     Tetrahedron method does not include variations of the Fermi             |
|     occupations, so forces and stress will be inaccurate. We suggest        |
|     using a different smearing scheme ISMEAR = 1 or 2 for metals in         |
|     relaxations.                                                            |

 total charge

# of ion       s       p       d       tot
    1        0.544   0.239   8.769   9.552
    2        0.545   0.241   8.765   9.551
    3        0.545   0.241   8.765   9.551
    4        0.546   0.240   8.765   9.551
    5        0.543   0.242   8.761   9.546
    6        0.546   0.240   8.765   9.551
    7        0.545   0.240   8.765   9.551
    8        0.545   0.240   8.765   9.551
    9        0.542   0.239   8.771   9.552
   10        0.520   0.308   8.770   9.598
   11        0.524   0.307   8.780   9.610
   12        0.520   0.308   8.770   9.598
   13        0.523   0.307   8.779   9.609
   14        0.523   0.307   8.779   9.609
   15        0.515   0.310   8.775   9.600
   16        0.519   0.309   8.770   9.598
   17        0.515   0.310   8.775   9.600
   18        0.515   0.310   8.775   9.600
   19        0.518   0.302   8.775   9.596
   20        0.543   0.328   8.756   9.626
   21        0.543   0.328   8.756   9.626
   22        0.511   0.312   8.774   9.597
   23        0.542   0.329   8.756   9.627
   24        0.511   0.312   8.774   9.597
   25        0.518   0.302   8.776   9.596
   26        0.518   0.302   8.776   9.596
   27        0.511   0.312   8.774   9.597
   28        0.541   0.225   8.769   9.535
   29        0.549   0.237   8.766   9.552
   30        0.549   0.237   8.766   9.552
   31        0.546   0.241   8.763   9.551
   32        0.546   0.241   8.763   9.551
   33        0.549   0.237   8.767   9.552
   34        0.549   0.237   8.767   9.552
   35        0.538   0.224   8.772   9.533
   36        0.353   0.395   7.361   8.110
   37        0.540   0.033   0.000   0.573
   38        0.540   0.033   0.000   0.573
tot         20.089  10.104 314.278 344.472

 BZINTS: Fermi energy:    0.755541;  396.000000 electrons
         Band energy:-0.115411E+04;  BLOECHL correction:   -0.064452