 vasp.6.2.0 18Jan21 (build Jun 12 2021 23:27:24) complex

 executed on             LinuxIFC date 2022.05.28  02:01:02

 INCAR:
   ISMEAR = -5
   SIGMA = 0.1
   ISPIN = 1
   EDIFF = 1.d-5
   EDIFFG = -0.01
   NSW = 0
   NELM = 150
   ENCUT = 500
   ISIF = 2
   IBRION = 2
   LREAL = Auto
   ALGO = Fast
   ICHARG = 11
   LORBIT = 10
   LCHARG = .F.
   LWAVE = .F.

 POTCAR:    PAW_PBE Ag 02Apr2005
 POTCAR:    PAW_PBE W 08Apr2002
 POTCAR:    PAW_PBE C 08Apr2002
 POTCAR:    PAW_PBE O 08Apr2002
|           W    W    AA    RRRRR   N    N  II  N    N   GGGG   !!!           |
|           W    W   A  A   R    R  NN   N  II  NN   N  G    G  !!!           |
|           W    W  A    A  R    R  N N  N  II  N N  N  G       !!!           |
|           W WW W  AAAAAA  RRRRR   N  N N  II  N  N N  G  GGG   !            |
|           WW  WW  A    A  R   R   N   NN  II  N   NN  G    G                |
|           W    W  A    A  R    R  N    N  II  N    N   GGGG   !!!           |
|     For optimal performance we recommend to set                             |
|       NCORE = 2 up to number-of-cores-per-socket                            |
|     This setting can greatly improve the performance of VASP for DFT.       |
|     The default, NCORE=1 might be grossly inefficient on modern             |
|     multi-core architectures or massively parallel machines. Do your        |
|     Unfortunately you need to use the default for GW and RPA                |
|     calculations (for HF NCORE is supported but not extensively tested      |
|     yet).                                                                   |

 POTCAR:    PAW_PBE Ag 02Apr2005
   VRHFIN =Ag : s1 d10

   TITEL  = PAW_PBE Ag 02Apr2005
   POMASS =  107.868; ZVAL   =   11.000    mass and valenz
   ENMAX  =  249.844; ENMIN  =  187.383 eV

 POTCAR:    PAW_PBE W 08Apr2002
   VRHFIN =W : 6s5d

[...]

 POTCAR:    PAW_PBE C 08Apr2002
   VRHFIN =C: s2p2

[...]

 POTCAR:    PAW_PBE O 08Apr2002
   VRHFIN =O: s2p4

   TITEL  = PAW_PBE O 08Apr2002
   POMASS =   16.000; ZVAL   =    6.000    mass and valenz
   ENMAX  =  400.000; ENMIN  =  300.000 eV

 Optimization of the real space projectors (new method)

 maximal supplied QI-value         = 15.12
 optimisation between [QCUT,QGAM] = [ 11.34, 22.83] = [ 36.00,145.93] Ry
 Optimized for a Real-space Cutoff    1.43 Angstroem

   l    n(q)    QCUT    max X(q) W(low)/X(q) W(high)/X(q)  e(spline)
   2      9    11.338    53.897    0.16E-03    0.20E-03    0.28E-06
   2      9    11.338    52.416    0.16E-03    0.20E-03    0.29E-06
   0     10    11.338   122.045    0.31E-04    0.76E-04    0.15E-06
   0     10    11.338    73.629    0.30E-04    0.72E-04    0.15E-06
   1      9    11.338    15.255    0.20E-03    0.19E-04    0.17E-06
   1      9    11.338     9.562    0.16E-03    0.15E-04    0.14E-06
 Optimization of the real space projectors (new method)

[...]

   l    n(q)    QCUT    max X(q) W(low)/X(q) W(high)/X(q)  e(spline)
   0      7    11.310   115.676    0.43E-03    0.13E-02    0.19E-06
   0      7    11.310    87.132    0.43E-03    0.13E-02    0.18E-06
   1      6    11.310     4.429    0.42E-03    0.74E-03    0.11E-06
   1      6    11.310     2.733    0.34E-03    0.55E-03    0.92E-07
 Optimization of the real space projectors (new method)

 maximal supplied QI-value         = 24.76
 optimisation between [QCUT,QGAM] = [ 11.39, 22.77] = [ 36.31,145.25] Ry
 Optimized for a Real-space Cutoff    1.00 Angstroem

   l    n(q)    QCUT    max X(q) W(low)/X(q) W(high)/X(q)  e(spline)
   0      7    11.387    20.381    0.39E-03    0.13E-02    0.15E-06
   0      7    11.387    15.268    0.42E-03    0.14E-02    0.17E-06
   1      6    11.387     5.964    0.41E-03    0.11E-02    0.17E-06
   1      6    11.387     5.382    0.39E-03    0.87E-03    0.15E-06
  PAW_PBE Ag 02Apr2005                  :
  PAW_PBE W 08Apr2002                   :
  PAW_PBE C 08Apr2002                   :
  PAW_PBE O 08Apr2002                   :

 POSCAR: Ag-W-CO2
  positions in direct lattice
  velocities in cartesian coordinates
 exchange correlation table for  LEXCH =        8
   RHO(1)=    0.500       N(1)  =     2000
   RHO(2)=  100.500       N(2)  =     4000

 VTST: version 3.2, (02/03/18)

 CHAIN: initializing optimizer

 OPT: Using VASP Conjugate-Gradient optimizer
 CHAIN: Read ICHAIN            0

 POSCAR: Ag-W-CO2
  positions in direct lattice
  velocities in cartesian coordinates

 ion  position               nearest neighbor table
   1  0.000  0.000  0.217-   2 2.93   8 2.93   7 2.93   6 2.93   4 2.93  12 2.93  16 2.93  10 2.93
                             3 2.93
   2  0.333  0.000  0.217-   1 2.93   8 2.93   9 2.93   3 2.93   4 2.93   5 2.93  10 2.93  17 2.93
                            11 2.93
   3  0.667  0.000  0.217-   9 2.93   2 2.93   5 2.93  11 2.93   7 2.93  18 2.93   1 2.93   6 2.93
                            12 2.93
   4  0.000  0.333  0.217-   5 2.93   6 2.93   2 2.93   1 2.93   7 2.93  13 2.93  15 2.93   9 2.93
                            10 2.93
   5  0.333  0.333  0.217-   4 2.93   3 2.93   7 2.93   2 2.93   8 2.93  14 2.93  13 2.93  11 2.93
                             6 2.93
   6  0.667  0.333  0.217-   4 2.93   9 2.93   1 2.93  15 2.93   8 2.93  12 2.93   3 2.93   5 2.93
                            14 2.93
   7  0.000  0.667  0.217-   8 2.93   1 2.93   5 2.93   3 2.93   4 2.93  16 2.93  18 2.93  13 2.93
                             9 2.93
   8  0.333  0.667  0.217-   7 2.93   1 2.93   2 2.93   9 2.93   5 2.93  16 2.93   6 2.93  17 2.93
                            14 2.93
   9  0.667  0.667  0.217-   3 2.93   2 2.93   8 2.93   6 2.93  17 2.93   4 2.93  15 2.93   7 2.93
                            18 2.93
  10  0.111  0.111  0.315-  20 2.89  12 2.93  16 2.93  15 2.93  17 2.93  13 2.93  11 2.93   2 2.93
                             1 2.93   4 2.93  19 2.93  26 2.93
  11  0.444  0.111  0.315-  21 2.90  20 2.90  14 2.93  17 2.93  18 2.93   3 2.93  12 2.93  13 2.93
                            10 2.93   5 2.93   2 2.93  27 2.93
  12  0.778  0.111  0.315-  21 2.89  10 2.93  16 2.93  18 2.93  15 2.93  11 2.93   1 2.93  14 2.93
                             6 2.93   3 2.93  25 2.93  19 2.93
  13  0.111  0.444  0.315-  20 2.90  23 2.90  15 2.93  14 2.93  18 2.93  10 2.93  11 2.93  16 2.93
                             4 2.93   5 2.93   7 2.93  22 2.93
  14  0.444  0.444  0.315-  23 2.90  21 2.90  13 2.93  11 2.93  16 2.93   5 2.93  12 2.93  17 2.93
                             8 2.93  15 2.93   6 2.93  24 2.93
  15  0.778  0.444  0.315-  24 2.93  22 2.93  13 2.93  10 2.93  12 2.93  17 2.93  18 2.93   4 2.93
                             6 2.93   9 2.93  14 2.93  19 2.93
  16  0.111  0.778  0.315-  23 2.89  18 2.93  12 2.93  10 2.93  14 2.93  17 2.93  13 2.93   7 2.93
                             8 2.93   1 2.93  26 2.93  25 2.93
  17  0.444  0.778  0.315-  27 2.93  24 2.93  11 2.93  10 2.93   9 2.93  18 2.93  15 2.93  16 2.93
                             2 2.93  14 2.93   8 2.93  26 2.93
  18  0.778  0.778  0.315-  22 2.93  27 2.93  16 2.93  12 2.93  13 2.93  11 2.93  17 2.93  15 2.93
                             7 2.93   3 2.93   9 2.93  25 2.93
  19  0.889  0.223  0.414-  28 2.92  20 2.93  21 2.93  24 2.93  22 2.93  15 2.93  10 2.93  12 2.93
                            26 2.94  25 2.94  32 2.98  31 2.98
  20  0.222  0.222  0.412-  36 2.76  10 2.89  13 2.90  11 2.90  19 2.93  26 2.93  27 2.94  22 2.94
                            21 2.94  23 2.94  31 2.96  29 2.96
  21  0.556  0.222  0.412-  36 2.76  12 2.89  11 2.90  14 2.90  25 2.93  19 2.93  27 2.94  24 2.94
                            20 2.94  23 2.94  30 2.96  32 2.96
  22  0.888  0.556  0.413-  35 2.92  24 2.92  27 2.92  18 2.93  15 2.93  25 2.93  19 2.93  13 2.93
                            23 2.94  20 2.94  33 2.96  31 2.96
  23  0.222  0.556  0.412-  36 2.76  16 2.89  14 2.90  13 2.90  26 2.93  25 2.93  22 2.94  24 2.94
                            21 2.94  20 2.94  34 2.96  33 2.96
  24  0.556  0.556  0.413-  35 2.92  27 2.92  22 2.92  15 2.93  17 2.93  19 2.93  26 2.93  14 2.93
                            23 2.94  21 2.94  32 2.96  34 2.96
  25  0.889  0.889  0.414-  28 2.92  23 2.93  21 2.93  22 2.93  27 2.93  18 2.93  16 2.93  12 2.93
                            26 2.94  19 2.94  33 2.98  30 2.98
  26  0.223  0.889  0.414-  28 2.92  23 2.93  20 2.93  27 2.93  24 2.93  17 2.93  16 2.93  10 2.93
                            25 2.94  19 2.94  34 2.98  29 2.98
  27  0.556  0.888  0.413-  35 2.92  24 2.92  22 2.92  17 2.93  18 2.93  26 2.93  25 2.93  11 2.93
                            20 2.94  21 2.94  29 2.96  30 2.96
  28  0.000  0.000  0.511-  26 2.92  25 2.92  19 2.92  29 2.96  34 2.96  33 2.96  32 2.96  31 2.96
                            30 2.96
  29  0.333  0.007  0.513-  37 2.70  31 2.86  30 2.87  36 2.88  20 2.96  27 2.96  28 2.96  35 2.96
                            26 2.98  34 3.06
  30  0.659  0.007  0.513-  32 2.86  29 2.87  36 2.88  21 2.96  27 2.96  28 2.96  35 2.96  25 2.98
                            33 3.06
  31  0.007  0.333  0.513-  37 2.68  29 2.86  33 2.87  36 2.88  20 2.96  22 2.96  28 2.96  35 2.96
                            19 2.98  32 3.06
  32  0.659  0.333  0.513-  30 2.86  34 2.87  36 2.88  21 2.96  24 2.96  28 2.96  35 2.96  19 2.98
                            31 3.06
  33  0.007  0.659  0.513-  34 2.86  31 2.87  36 2.88  23 2.96  22 2.96  28 2.96  35 2.96  25 2.98
                            30 3.06
  34  0.333  0.659  0.513-  33 2.86  32 2.87  36 2.88  23 2.96  24 2.96  28 2.96  35 2.96  26 2.98
                            29 3.06
  35  0.667  0.667  0.511-  24 2.92  27 2.92  22 2.92  30 2.96  32 2.96  29 2.96  34 2.96  31 2.96
                            33 2.96
  36  0.333  0.333  0.501-  39 2.05  37 2.09  21 2.76  20 2.76  23 2.76  31 2.88  30 2.88  33 2.88
                            29 2.88  34 2.88  32 2.88
  37  0.274  0.278  0.579-  38 1.22  39 1.35  36 2.09  31 2.68  29 2.70
  38  0.214  0.227  0.615-  37 1.22
  39  0.367  0.362  0.583-  37 1.35  36 2.05

  LATTYP: Found a hexagonal cell.
 ALAT       =     8.7913665772
 C/A-ratio  =     2.7703738524

  Lattice vectors:

 A1 = (  -4.3956832886,  -7.6135467898,   0.0000000000)
 A2 = (   8.7913665771,   0.0000000000,   0.0000000000)
 A3 = (   0.0000000000,   0.0000000000,  24.3553720923)

Analysis of symmetry for initial positions (statically):
 Subroutine PRICEL returns:
 Original cell was already a primitive cell.

 Routine SETGRP: Setting up the symmetry group for a
 hexagonal supercell.

 Subroutine GETGRP returns: Found  1 space group operations
 (whereof  1 operations were pure point group operations)
 out of a pool of 24 trial point group operations.

The static configuration has the point symmetry C_1 .

Analysis of symmetry for dynamics (positions and initial velocities):
 Subroutine PRICEL returns:
 Original cell was already a primitive cell.

[...]

The dynamic configuration has the point symmetry C_1 .

Analysis of constrained symmetry for selective dynamics:
 Subroutine PRICEL returns:
 Original cell was already a primitive cell.

 Routine SETGRP: Setting up the symmetry group for a
 hexagonal supercell.

 Subroutine GETGRP returns: Found  1 space group operations
[...]
     41      -4.9936      2.00000
     42      -4.9890      2.00000
     43      -4.9426      2.00000
     44      -4.9282      2.00000
     45      -4.9197      2.00000
     46      -4.9026      2.00000
     47      -4.8890      2.00000
     48      -4.8789      2.00000
     49      -4.8028      2.00000
     50      -4.7772      2.00000
     51      -4.7607      2.00000
     52      -4.7527      2.00000
     53      -4.7457      2.00000
     54      -4.7445      2.00000
     55      -4.7358      2.00000
     56      -4.7320      2.00000
     57      -4.7177      2.00000
     58      -4.7099      2.00000
     59      -4.6522      2.00000
     60      -4.6377      2.00000
[...]
    238       5.3611      0.00000
    239       5.4811      0.00000
    240       5.6858      0.00000
    241       5.7235      0.00000
    242       5.7813      0.00000
    243       5.8327      0.00000
    244       5.8560      0.00000
    245       5.9345      0.00000
    246       6.0946      0.00000
    247       6.6153      0.00000
    248       6.6384      0.00000
    249       6.6967      0.00000
    250       6.7280      0.00000
    251       6.7447      0.00000
    252       6.7973      0.00000

 soft charge-density along one line, spin component           1
         0         1         2         3         4         5         6         7         8         9
 total charge-density along one line

------------------------ aborting loop because EDIFF is reached ----------------------------------------

 total charge

# of ion       s       p       d       tot
    1        0.420   0.199   9.179   9.798
    2        0.417   0.203   9.177   9.796
    3        0.415   0.204   9.176   9.795
    4        0.417   0.203   9.177   9.797
    5        0.418   0.202   9.176   9.796
    6        0.416   0.203   9.177   9.796
    7        0.415   0.204   9.176   9.795
    8        0.416   0.203   9.177   9.796
    9        0.412   0.203   9.178   9.793
   10        0.409   0.268   9.164   9.841
   11        0.406   0.269   9.168   9.843
   12        0.410   0.269   9.162   9.840
   13        0.406   0.269   9.168   9.843
   14        0.403   0.271   9.168   9.842
   15        0.401   0.269   9.165   9.835
   16        0.410   0.269   9.162   9.840
   17        0.401   0.269   9.165   9.835
   18        0.401   0.269   9.165   9.835
   19        0.398   0.264   9.167   9.829
   20        0.440   0.317   9.128   9.884
   21        0.446   0.310   9.130   9.887
   22        0.390   0.273   9.167   9.830
   23        0.447   0.310   9.130   9.887
   24        0.392   0.274   9.165   9.830
   25        0.403   0.260   9.169   9.832
   26        0.399   0.264   9.167   9.830
   27        0.390   0.273   9.167   9.830
   28        0.416   0.192   9.179   9.786
   29        0.406   0.230   9.172   9.808
   30        0.430   0.218   9.165   9.813
   31        0.404   0.230   9.174   9.808
   32        0.427   0.216   9.166   9.809
   33        0.430   0.219   9.165   9.813
   34        0.427   0.217   9.165   9.809
   35        0.405   0.199   9.179   9.782
   36        0.601   0.521   4.044   5.166
   37        0.873   1.647   0.000   2.521
   38        1.597   3.516   0.000   5.113
   39        1.595   3.440   0.000   5.035
tot         19.108  17.633 324.877 361.619

  FORCE on cell =-STRESS in cart. coord.  units (eV):
  Direction    XX          YY          ZZ          XY          YZ          ZX
  Alpha Z   722.70581   722.70581   722.70581
  Ewald  151405.56005151108.66306************   215.96758   -56.55369  -108.22766
  Hartree161438.77694161291.08888************   107.04516   -18.94662   -37.40698
  E(xc)   -2129.89747 -2130.38145 -2135.57908     0.33997     0.13801     0.23718
  Local  ************************323368.59343  -312.24554    68.72343   132.84182
  n-local  -380.61313  -376.94292  -383.00189    -2.69618     1.00959     1.89495
  augment  3236.57496  3236.53753  3248.77897     0.06681    -0.07253    -0.11438
  Kinetic  5160.81662  5172.82160  5189.51487    -8.57502     5.68456    10.73164
  Fock        0.00000     0.00000     0.00000     0.00000     0.00000     0.00000
  Total      -6.25448    -6.18050    -0.69974    -0.09722    -0.01725    -0.04342
  in kB      -6.14700    -6.07429    -0.68771    -0.09555    -0.01695    -0.04267

 VOLUME and BASIS-vectors are now :
  energy-cutoff  :      500.00
  volume of cell :     1630.19
      direct lattice vectors                 reciprocal lattice vectors
     8.791366577  0.000000000  0.000000000     0.113747958 -0.065672414  0.000000000
     4.395683289  7.613546790  0.000000000     0.000000000  0.131344829  0.000000000
     0.000000000  0.000000000 24.355372092     0.000000000  0.000000000  0.041058703

  length of vectors
     8.791366577  8.791366577 24.355372092     0.131344829  0.131344829  0.041058703

 FORCES acting on ions
    electron-ion (+dipol)            ewald-force                    non-local-force                 convergence-correction
   0.247E-01 0.156E-01 0.270E+04   -.931E-01 -.566E-01 -.270E+04   0.488E-01 0.308E-01 -.209E+01   0.882E-02 0.332E-02 -.198E+00
   0.187E+00 0.580E+00 0.270E+04   -.278E+00 -.559E+00 -.270E+04   0.439E-01 0.630E-01 -.169E+01   0.503E-01 -.698E-01 -.207E+00
   -.211E+00 0.388E+00 0.270E+04   0.371E+00 -.493E+00 -.270E+04   -.954E-01 0.163E+00 -.156E+01   -.594E-01 -.529E-01 -.189E+00
   0.608E+00 -.124E+00 0.270E+04   -.620E+00 0.348E-01 -.270E+04   0.631E-01 0.558E-02 -.168E+01   -.352E-01 0.797E-01 -.205E+00
   -.134E+00 -.719E-01 0.270E+04   0.103E+00 0.572E-01 -.270E+04   0.475E-01 0.257E-01 -.142E+01   -.148E-01 -.975E-02 -.111E+00
   -.468E+00 0.734E-01 0.270E+04   0.517E+00 -.146E-01 -.270E+04   -.116E+00 -.832E-01 -.159E+01   0.490E-01 0.240E-01 -.192E+00
   0.228E+00 -.388E+00 0.270E+04   -.239E+00 0.572E+00 -.270E+04   0.944E-01 -.159E+00 -.157E+01   -.772E-01 -.224E-01 -.194E+00
   -.172E+00 -.441E+00 0.270E+04   0.248E+00 0.459E+00 -.270E+04   -.131E+00 -.653E-01 -.159E+01   0.468E-01 0.324E-01 -.196E+00
   -.181E-01 -.885E-02 0.270E+04   -.899E-02 -.647E-04 -.270E+04   0.502E-02 -.224E-02 -.188E+01   0.213E-01 0.116E-01 -.196E+00
   0.561E+01 0.328E+01 0.956E+03   -.517E+01 -.302E+01 -.955E+03   -.449E+00 -.262E+00 -.905E+00   -.904E-04 -.253E-02 -.169E+00
   -.758E+00 0.447E+01 0.959E+03   0.796E+00 -.472E+01 -.958E+03   -.557E-01 0.167E+00 -.355E+00   0.194E-01 0.113E-01 -.152E+00
   -.490E+01 0.318E+01 0.954E+03   0.437E+01 -.280E+01 -.953E+03   0.567E+00 -.326E+00 -.764E+00   -.182E-01 -.585E-01 -.120E+00
   0.345E+01 -.289E+01 0.959E+03   -.366E+01 0.304E+01 -.958E+03   0.123E+00 -.128E+00 -.373E+00   0.238E-01 0.986E-02 -.152E+00
   -.388E+01 -.225E+01 0.958E+03   0.422E+01 0.244E+01 -.957E+03   -.215E+00 -.130E+00 -.284E+00   -.560E-01 -.328E-01 -.188E+00
   0.513E+00 0.111E+00 0.954E+03   -.557E+00 -.277E+00 -.953E+03   0.347E-03 0.564E-01 -.711E+00   0.363E-01 0.823E-01 -.170E+00
   0.283E+00 -.585E+01 0.954E+03   -.205E+00 0.519E+01 -.953E+03   -.675E-02 0.659E+00 -.759E+00   -.600E-01 0.160E-01 -.121E+00
   0.353E+00 0.351E+00 0.954E+03   -.526E+00 -.312E+00 -.953E+03   0.555E-01 -.269E-01 -.707E+00   0.910E-01 -.609E-02 -.174E+00
   -.673E+00 -.411E+00 0.953E+03   0.730E+00 0.448E+00 -.952E+03   -.233E-01 -.179E-01 -.662E+00   -.177E-01 -.917E-02 -.133E+00
   0.576E+01 -.129E+01 -.818E+03   -.571E+01 0.129E+01 0.817E+03   0.103E-01 0.586E-01 0.915E+00   -.333E-01 -.556E-01 0.429E-01
   -.421E+01 -.217E+01 -.778E+03   0.540E+01 0.283E+01 0.779E+03   -.129E+01 -.726E+00 -.120E+01   0.208E-01 0.101E-01 -.383E-01
   -.160E+01 -.142E+01 -.791E+03   0.387E-01 0.216E+01 0.792E+03   0.165E+01 -.759E+00 -.129E+01   -.106E-01 -.696E-01 -.131E-01
   -.732E+00 -.358E+01 -.809E+03   0.376E+00 0.374E+01 0.808E+03   0.382E+00 -.265E+00 0.609E+00   0.444E-01 0.738E-01 -.495E-01
   -.223E+01 -.786E+00 -.791E+03   0.210E+01 -.944E+00 0.792E+03   0.169E+00 0.182E+01 -.132E+01   -.619E-01 0.233E-01 -.263E-02
   0.263E+01 0.133E+01 -.813E+03   -.259E+01 -.130E+01 0.812E+03   -.138E+00 -.862E-01 0.677E+00   0.525E-01 0.298E-01 -.478E-01
   0.177E+01 0.100E+01 -.824E+03   -.170E+01 -.971E+00 0.823E+03   -.320E-01 -.146E-01 0.919E+00   -.361E-01 -.190E-01 0.464E-01
   0.156E+01 0.570E+01 -.818E+03   -.153E+01 -.567E+01 0.817E+03   0.476E-01 -.171E-01 0.899E+00   -.671E-01 -.948E-03 0.407E-01
   -.327E+01 0.980E+00 -.809E+03   0.322E+01 -.137E+01 0.809E+03   -.316E-01 0.466E+00 0.624E+00   0.863E-01 0.340E-02 -.519E-01
   0.238E+02 0.144E+02 -.254E+04   -.238E+02 -.145E+02 0.254E+04   0.454E-01 0.421E-01 0.193E+01   -.897E-01 -.456E-01 0.181E+00
   0.203E+02 0.103E+03 -.246E+04   -.192E+02 -.103E+03 0.246E+04   -.120E+01 -.692E+00 0.266E+01   0.478E-01 -.660E-01 0.211E+00
   -.447E+02 0.511E+02 -.253E+04   0.438E+02 -.503E+02 0.253E+04   0.101E+01 -.118E+01 0.178E+01   0.360E-01 -.202E-01 0.252E+00
   0.101E+03 -.329E+02 -.246E+04   -.100E+03 0.336E+02 0.246E+04   -.115E+01 -.656E+00 0.278E+01   -.352E-01 0.811E-01 0.208E+00
   -.506E+02 0.746E+00 -.253E+04   0.496E+02 -.346E+00 0.252E+04   0.124E+01 -.284E+00 0.237E+01   0.552E-01 -.115E+00 0.231E+00
   0.206E+02 -.657E+02 -.253E+04   -.202E+02 0.645E+02 0.253E+04   -.571E+00 0.150E+01 0.175E+01   -.133E-01 0.218E-01 0.252E+00
   -.244E+02 -.445E+02 -.253E+04   0.242E+02 0.435E+02 0.253E+04   0.381E+00 0.121E+01 0.232E+01   -.744E-01 0.986E-01 0.230E+00
   0.145E+01 -.478E+00 -.255E+04   -.161E+01 0.396E+00 0.255E+04   0.598E-01 0.336E-01 0.206E+01   0.861E-01 0.448E-01 0.238E+00
   -.217E+02 -.124E+02 -.114E+04   0.209E+02 0.120E+02 0.114E+04   0.818E+00 0.443E+00 0.699E+00   -.961E-02 -.324E-02 0.124E+00
   0.267E+01 0.316E+01 -.965E+03   -.635E+01 -.518E+01 0.959E+03   0.363E+01 0.199E+01 0.691E+01   0.606E-01 0.331E-01 0.180E-01
   0.158E+03 0.829E+02 -.172E+04   -.191E+03 -.100E+03 0.176E+04   0.333E+02 0.174E+02 -.392E+02   0.305E-01 0.159E-01 0.187E-01
   -.188E+03 -.101E+03 -.165E+04   0.224E+03 0.120E+03 0.167E+04   -.358E+02 -.192E+02 -.205E+02   -.314E-01 -.207E-01 0.329E-01
   -.244E+01 -.108E+01 0.552E+02   0.000E+00 0.156E-12 0.227E-11   0.241E+01 0.105E+01 -.542E+02   0.660E-01 0.262E-01 -.114E+01

 POSITION                                       TOTAL-FORCE (eV/Angst)
      0.00000      0.00000      5.28219        -0.011590     -0.006991     -0.050046
      2.93046      0.00000      5.28219         0.002577      0.014377      0.025699
      5.86091      0.00000      5.28219         0.004238      0.004477      0.038684
      1.46523      2.53785      5.28219         0.014772     -0.004111      0.024929
      4.39568      2.53785      5.28219         0.001061      0.001218     -0.001043
      7.32614      2.53785      5.28219        -0.019084     -0.000436      0.025380
      2.93046      5.07570      5.28219         0.005376      0.001915      0.037604
      5.86091      5.07570      5.28219        -0.009034     -0.014476      0.026475
      8.79137      5.07570      5.28219        -0.001570      0.000341      0.013412
      1.46523      0.84595      7.67490        -0.012600     -0.005979     -0.029101
      4.39568      0.84595      7.67490         0.000417     -0.071368     -0.071372
      7.32614      0.84595      7.67490         0.017702      0.001907     -0.009583
      2.93046      3.38380      7.67490        -0.061861      0.036596     -0.072131
      5.86091      3.38380      7.67490         0.061352      0.035926     -0.048203
      8.79137      3.38380      7.67490        -0.007506     -0.027279      0.038732
      4.39568      5.92165      7.67490         0.010517      0.015307     -0.009944
      7.32614      5.92165      7.67490        -0.027425      0.006336      0.040232
     10.25659      5.92165      7.67490         0.015418      0.009490      0.048041
      8.79137      1.69504     10.07204         0.019778      0.000188      0.059357
      2.92602      1.68934     10.02478        -0.088725     -0.047045     -0.100794
      5.86534      1.68934     10.02478         0.080759     -0.083377     -0.170463
     10.25093      4.23302     10.06482         0.069612     -0.036472      0.039476
      4.39568      4.23487     10.02478        -0.025561      0.112433     -0.167167
      7.33181      4.23302     10.06482        -0.043503     -0.023969      0.046590
     11.71910      6.76603     10.07204        -0.002598     -0.000871      0.009777
      5.86363      6.76603     10.07204         0.009167      0.017002      0.056353
      8.79137      6.76105     10.06482         0.003241      0.077791      0.036742
      0.00000      0.00000     12.45341        -0.042174     -0.028546     -0.040511
      2.96185      0.05622     12.48740        -0.086253     -0.425134     -0.257832
      5.82952      0.05622     12.48740         0.164303     -0.298876     -0.256391
      1.52961      2.53693     12.48740        -0.437680      0.140184     -0.263739
      7.26176      2.53693     12.48740         0.371637      0.000789     -0.261927
      2.96344      5.02040     12.48740        -0.171185      0.286898     -0.256425
      5.82792      5.02040     12.48740         0.180639      0.317153     -0.256157
      8.79137      5.07570     12.44798        -0.019181     -0.004002      0.011463
      4.39568      2.53785     12.20252         0.007558     -0.011377      1.767719
      3.63041      2.11926     14.10235        -0.000556      0.005070     -0.004138
      2.87455      1.72486     14.98037         0.004436     -0.000765     -0.008330
      4.81357      2.75275     14.19376         0.023524      0.005676     -0.011365
    total drift:                                0.033515      0.003389     -0.121481

  FREE ENERGIE OF THE ION-ELECTRON SYSTEM (eV)
  free  energy   TOTEN  =      -121.35660641 eV

  energy  without entropy=     -121.35660641  energy(sigma->0) =     -121.35660641

 stress matrix after NEB project (eV)
     -6.25448     -0.09722     -0.04342
     -0.09722     -6.18050     -0.01725
     -0.04342     -0.01725     -0.69974
  FORCES: max atom, RMS     0.026734    0.004662
  FORCE total and by dimension    0.029112    0.023524
  Stress total and by dimension    8.822128    6.254479
|           W    W    AA    RRRRR   N    N  II  N    N   GGGG   !!!           |
|           W    W   A  A   R    R  NN   N  II  NN   N  G    G  !!!           |
|           W    W  A    A  R    R  N N  N  II  N N  N  G       !!!           |
|           W WW W  AAAAAA  RRRRR   N  N N  II  N  N N  G  GGG   !            |
|           WW  WW  A    A  R   R   N   NN  II  N   NN  G    G                |
|           W    W  A    A  R    R  N    N  II  N    N   GGGG   !!!           |
|     Tetrahedron method does not include variations of the Fermi             |
|     occupations, so forces and stress will be inaccurate. We suggest        |
|     using a different smearing scheme ISMEAR = 1 or 2 for metals in         |
|     relaxations.                                                            |

 total charge

# of ion       s       p       d       tot
    1        0.420   0.199   9.179   9.798
    2        0.417   0.203   9.177   9.796
    3        0.415   0.204   9.176   9.795
    4        0.417   0.203   9.177   9.797
    5        0.418   0.202   9.176   9.796
    6        0.416   0.203   9.177   9.796
    7        0.415   0.204   9.176   9.795
    8        0.416   0.203   9.177   9.796
    9        0.412   0.203   9.178   9.793
   10        0.409   0.268   9.164   9.841
   11        0.406   0.269   9.168   9.843
   12        0.410   0.269   9.162   9.840
   13        0.406   0.269   9.168   9.843
   14        0.403   0.271   9.168   9.842
   15        0.401   0.269   9.165   9.835
   16        0.410   0.269   9.162   9.840
   17        0.401   0.269   9.165   9.835
   18        0.401   0.269   9.165   9.835
   19        0.398   0.264   9.167   9.829
   20        0.440   0.317   9.128   9.884
   21        0.446   0.310   9.130   9.887
   22        0.390   0.273   9.167   9.830
   23        0.447   0.310   9.130   9.887
   24        0.392   0.274   9.165   9.830
   25        0.403   0.260   9.169   9.832
   26        0.399   0.264   9.167   9.830
   27        0.390   0.273   9.167   9.830
   28        0.416   0.192   9.179   9.786
   29        0.406   0.230   9.172   9.808
   30        0.430   0.218   9.165   9.813
   31        0.404   0.230   9.174   9.808
   32        0.427   0.216   9.166   9.809
   33        0.430   0.219   9.165   9.813
   34        0.427   0.217   9.165   9.809
   35        0.405   0.199   9.179   9.782
   36        0.601   0.521   4.044   5.166
   37        0.873   1.647   0.000   2.521
   38        1.597   3.516   0.000   5.113
   39        1.595   3.440   0.000   5.035
tot         19.108  17.633 324.877 361.619

 BZINTS: Fermi energy:    0.234735;  407.000000 electrons
         Band energy:-0.165165E+04;  BLOECHL correction:   -0.022230