 vasp.6.2.0 18Jan21 (build Jun 12 2021 23:27:24) complex

 executed on             LinuxIFC date 2022.05.30  18:28:43

 INCAR:
   ISMEAR = -5
   SIGMA = 0.1
   ISPIN = 1
   EDIFF = 1.d-5
   EDIFFG = -0.01
   NSW = 0
   NELM = 150
   ENCUT = 500
   ISIF = 2
   IBRION = 2
   LREAL = Auto
   ALGO = Fast
   ICHARG = 11
   LORBIT = 10
   LCHARG = .F.
   LWAVE = .F.

 POTCAR:    PAW_PBE Cu 22Jun2005
 POTCAR:    PAW_PBE Pd 04Jan2005
 POTCAR:    PAW_PBE C 08Apr2002
|           W    W    AA    RRRRR   N    N  II  N    N   GGGG   !!!           |
|           W    W   A  A   R    R  NN   N  II  NN   N  G    G  !!!           |
|           W    W  A    A  R    R  N N  N  II  N N  N  G       !!!           |
|           W WW W  AAAAAA  RRRRR   N  N N  II  N  N N  G  GGG   !            |
|           WW  WW  A    A  R   R   N   NN  II  N   NN  G    G                |
|           W    W  A    A  R    R  N    N  II  N    N   GGGG   !!!           |
|     For optimal performance we recommend to set                             |
|       NCORE = 2 up to number-of-cores-per-socket                            |
|     This setting can greatly improve the performance of VASP for DFT.       |
|     The default, NCORE=1 might be grossly inefficient on modern             |
|     multi-core architectures or massively parallel machines. Do your        |
|     Unfortunately you need to use the default for GW and RPA                |
|     calculations (for HF NCORE is supported but not extensively tested      |
|     yet).                                                                   |

 POTCAR:    PAW_PBE Cu 22Jun2005
   VRHFIN =Cu: d10 p1

   TITEL  = PAW_PBE Cu 22Jun2005
   POMASS =   63.546; ZVAL   =   11.000    mass and valenz
   ENMAX  =  295.446; ENMIN  =  221.585 eV

 POTCAR:    PAW_PBE Pd 04Jan2005
   VRHFIN =Pd : s1 d9

   TITEL  = PAW_PBE Pd 04Jan2005
   POMASS =  106.420; ZVAL   =   10.000    mass and valenz
   ENMAX  =  250.925; ENMIN  =  188.194 eV

 POTCAR:    PAW_PBE C 08Apr2002
   VRHFIN =C: s2p2

   TITEL  = PAW_PBE C 08Apr2002
   POMASS =   12.011; ZVAL   =    4.000    mass and valenz
   ENMAX  =  400.000; ENMIN  =  300.000 eV

 Optimization of the real space projectors (new method)

 maximal supplied QI-value         = 16.25
 optimisation between [QCUT,QGAM] = [ 11.38, 22.75] = [ 36.24,144.96] Ry
 Optimized for a Real-space Cutoff    1.52 Angstroem

   l    n(q)    QCUT    max X(q) W(low)/X(q) W(high)/X(q)  e(spline)
   2      9    11.376     4.610    0.21E-03    0.10E-03    0.26E-06
   2      9    11.376     8.522    0.33E-03    0.16E-03    0.37E-06
   0     10    11.376    51.609    0.62E-04    0.20E-04    0.13E-06
   0     10    11.376    27.747    0.54E-04    0.20E-04    0.13E-06
   1     10    11.376    20.408    0.13E-04    0.99E-04    0.19E-06
   1     10    11.376    13.425    0.12E-04    0.87E-04    0.17E-06
 Optimization of the real space projectors (new method)

[...]

   l    n(q)    QCUT    max X(q) W(low)/X(q) W(high)/X(q)  e(spline)
   2      9    11.346    59.108    0.74E-04    0.81E-04    0.26E-06
   2      9    11.346    58.101    0.74E-04    0.83E-04    0.27E-06
   0     10    11.346   102.235    0.26E-04    0.31E-04    0.16E-06
   0     10    11.346    58.388    0.23E-04    0.29E-04    0.15E-06
   1     10    11.346    22.191    0.23E-03    0.26E-03    0.14E-06
   1     10    11.346    15.590    0.19E-03    0.22E-03    0.12E-06
 Optimization of the real space projectors (new method)

 maximal supplied QI-value         = 25.13
 optimisation between [QCUT,QGAM] = [ 11.31, 22.87] = [ 35.82,146.48] Ry
 Optimized for a Real-space Cutoff    1.00 Angstroem

   l    n(q)    QCUT    max X(q) W(low)/X(q) W(high)/X(q)  e(spline)
   0      7    11.310   115.676    0.43E-03    0.13E-02    0.19E-06
   0      7    11.310    87.132    0.43E-03    0.13E-02    0.18E-06
   1      6    11.310     4.429    0.42E-03    0.74E-03    0.11E-06
   1      6    11.310     2.733    0.34E-03    0.55E-03    0.92E-07
  PAW_PBE Cu 22Jun2005                  :
  PAW_PBE Pd 04Jan2005                  :
  PAW_PBE C 08Apr2002                   :

 POSCAR: Cu-Pd-C
  positions in direct lattice
  velocities in cartesian coordinates
 exchange correlation table for  LEXCH =        8
   RHO(1)=    0.500       N(1)  =     2000
   RHO(2)=  100.500       N(2)  =     4000

 VTST: version 3.2, (02/03/18)

 CHAIN: initializing optimizer

 OPT: Using VASP Conjugate-Gradient optimizer
 CHAIN: Read ICHAIN            0

 POSCAR: Cu-Pd-C
  positions in direct lattice
  velocities in cartesian coordinates

 ion  position               nearest neighbor table
   1  0.000  0.000  0.226-   7 2.57   3 2.57   4 2.57   2 2.57   6 2.57   8 2.57  12 2.57  10 2.57
                            16 2.57
   2  0.333  0.000  0.226-   8 2.57   9 2.57   5 2.57   1 2.57   3 2.57  11 2.57   4 2.57  10 2.57
                            17 2.57
   3  0.667  0.000  0.226-   1 2.57   7 2.57   6 2.57   9 2.57   2 2.57  12 2.57   5 2.57  18 2.57
                            11 2.57
   4  0.000  0.333  0.226-   5 2.57   6 2.57   1 2.57   7 2.57   2 2.57  13 2.57   9 2.57  10 2.57
                            15 2.57
   5  0.333  0.333  0.226-   4 2.57   2 2.57   7 2.57  13 2.57   8 2.57   6 2.57   3 2.57  11 2.57
                            14 2.57
   6  0.667  0.333  0.226-   4 2.57   9 2.57  15 2.57   3 2.57   1 2.57   8 2.57  14 2.57   5 2.57
                            12 2.57
   7  0.000  0.667  0.226-   1 2.57   3 2.57  16 2.57  18 2.57   4 2.57   5 2.57   8 2.57   9 2.57
                            13 2.57
   8  0.333  0.667  0.226-   9 2.57   2 2.57  17 2.57   6 2.57   1 2.57   7 2.57   5 2.57  14 2.57
                            16 2.57
   9  0.667  0.667  0.226-   8 2.57   6 2.57   2 2.57  17 2.57   3 2.57   7 2.57   4 2.57  15 2.57
                            18 2.57
  10  0.111  0.111  0.314-  20 2.54  26 2.55  19 2.55  11 2.57  12 2.57  13 2.57   1 2.57   2 2.57
                             4 2.57  15 2.57  16 2.57  17 2.57
  11  0.444  0.111  0.314-  20 2.55  21 2.55  27 2.55  10 2.57  13 2.57   2 2.57  17 2.57  14 2.57
                            12 2.57   5 2.57   3 2.57  18 2.57
  12  0.778  0.111  0.314-  21 2.54  19 2.55  25 2.55  15 2.57  10 2.57  14 2.57  18 2.57   3 2.57
                             1 2.57  16 2.57  11 2.57   6 2.57
  13  0.111  0.444  0.314-  23 2.55  20 2.55  22 2.55  16 2.57  18 2.57  10 2.57  11 2.57  14 2.57
                             5 2.57   4 2.57   7 2.57  15 2.57
  14  0.444  0.444  0.314-  21 2.55  23 2.55  24 2.55  15 2.57  17 2.57  12 2.57  16 2.57  13 2.57
                            11 2.57   6 2.57   8 2.57   5 2.57
  15  0.778  0.444  0.314-  19 2.55  24 2.55  22 2.55  14 2.57  17 2.57  12 2.57   6 2.57  18 2.57
                            10 2.57   9 2.57  13 2.57   4 2.57
  16  0.111  0.778  0.314-  23 2.54  25 2.55  26 2.55  18 2.57  13 2.57   7 2.57  14 2.57  17 2.57
                            12 2.57  10 2.57   8 2.57   1 2.57
  17  0.444  0.778  0.314-  26 2.55  27 2.55  24 2.55  14 2.57  15 2.57   8 2.57   9 2.57  11 2.57
                            16 2.57  18 2.57  10 2.57   2 2.57
  18  0.778  0.778  0.314-  25 2.55  22 2.55  27 2.55  16 2.57  13 2.57   7 2.57  15 2.57  12 2.57
                            17 2.57   9 2.57   3 2.57  11 2.57
  19  0.889  0.222  0.401-  32 2.54  31 2.54  28 2.55  15 2.55  12 2.55  10 2.55  21 2.56  20 2.56
                            22 2.56  24 2.56  25 2.57  26 2.57
  20  0.222  0.222  0.401-  10 2.54  11 2.55  13 2.55  26 2.56  19 2.56  27 2.56  22 2.56  29 2.57
                            31 2.57  23 2.58  21 2.58  36 2.62
  21  0.557  0.222  0.401-  12 2.54  14 2.55  11 2.55  19 2.56  25 2.56  24 2.56  27 2.56  32 2.57
                            30 2.57  20 2.58  23 2.58  36 2.62
  22  0.889  0.555  0.401-  35 2.54  31 2.55  33 2.55  13 2.55  18 2.55  15 2.55  23 2.56  20 2.56
                            19 2.56  25 2.56  24 2.57  27 2.57
  23  0.222  0.557  0.401-  16 2.54  13 2.55  14 2.55  25 2.56  26 2.56  22 2.56  24 2.56  33 2.57
                            34 2.57  20 2.58  21 2.58  36 2.62
  24  0.555  0.555  0.401-  35 2.54  32 2.55  34 2.55  14 2.55  15 2.55  17 2.55  21 2.56  23 2.56
                            19 2.56  26 2.56  22 2.57  27 2.57
  25  0.889  0.889  0.401-  33 2.54  30 2.54  28 2.55  18 2.55  16 2.55  12 2.55  21 2.56  23 2.56
                            22 2.56  27 2.56  19 2.57  26 2.57
  26  0.222  0.889  0.401-  29 2.54  34 2.54  28 2.55  17 2.55  10 2.55  16 2.55  20 2.56  23 2.56
                            27 2.56  24 2.56  25 2.57  19 2.57
  27  0.555  0.889  0.401-  35 2.54  29 2.55  30 2.55  11 2.55  17 2.55  18 2.55  20 2.56  21 2.56
                            26 2.56  25 2.56  24 2.57  22 2.57
  28  0.000  0.000  0.488-  25 2.55  19 2.55  26 2.55  33 2.55  30 2.55  31 2.55  29 2.55  32 2.55
                            34 2.55
  29  0.333  0.996  0.489-  34 2.51  26 2.54  28 2.55  27 2.55  35 2.55  20 2.57  31 2.59  36 2.60
                            30 2.60
  30  0.671  0.996  0.489-  33 2.51  25 2.54  28 2.55  27 2.55  35 2.55  21 2.57  32 2.59  36 2.60
                            29 2.60
  31  0.996  0.333  0.489-  32 2.51  19 2.54  28 2.55  22 2.55  35 2.55  20 2.57  29 2.59  36 2.60
                            33 2.60
  32  0.671  0.333  0.489-  31 2.51  19 2.54  28 2.55  24 2.55  35 2.55  21 2.57  30 2.59  36 2.60
                            34 2.60
  33  0.996  0.671  0.489-  30 2.51  25 2.54  28 2.55  22 2.55  35 2.55  23 2.57  34 2.59  36 2.60
                            31 2.60
  34  0.333  0.671  0.489-  29 2.51  26 2.54  28 2.55  24 2.55  35 2.55  23 2.57  33 2.59  36 2.60
                            32 2.60
  35  0.667  0.667  0.488-  24 2.54  27 2.54  22 2.54  34 2.55  32 2.55  29 2.55  30 2.55  33 2.55
                            31 2.55
  36  0.333  0.333  0.492-  37 1.76  31 2.60  29 2.60  33 2.60  34 2.60  32 2.60  30 2.60  23 2.62
                            20 2.62  21 2.62
  37  0.333  0.333  0.566-  36 1.76

  LATTYP: Found a hexagonal cell.
 ALAT       =     7.6967864036
 C/A-ratio  =     3.0908716217

  Lattice vectors:

 A1 = (  -3.8483927580,  -6.6656128093,   0.0000000000)
 A2 = (   7.6967864037,   0.0000000000,   0.0000000000)
 A3 = (   0.0000000000,   0.0000000000,  23.7897786731)

Analysis of symmetry for initial positions (statically):
 Subroutine PRICEL returns:
 Original cell was already a primitive cell.

 Routine SETGRP: Setting up the symmetry group for a
 hexagonal supercell.

 Subroutine GETGRP returns: Found  6 space group operations
 (whereof  6 operations were pure point group operations)
 out of a pool of 24 trial point group operations.

The static configuration has the point symmetry C_3v.

Analysis of symmetry for dynamics (positions and initial velocities):
 Subroutine PRICEL returns:
 Original cell was already a primitive cell.

[...]

The dynamic configuration has the point symmetry C_3v.

Analysis of constrained symmetry for selective dynamics:
 Subroutine PRICEL returns:
 Original cell was already a primitive cell.

 Routine SETGRP: Setting up the symmetry group for a
 hexagonal supercell.

 Subroutine GETGRP returns: Found  6 space group operations
[...]
     24      -4.8288      2.00000
     25      -4.8033      2.00000
     26      -4.7930      2.00000
     27      -4.7369      2.00000
     28      -4.7028      2.00000
     29      -4.6447      2.00000
     30      -4.5708      2.00000
     31      -4.5235      2.00000
     32      -4.5095      2.00000
     33      -4.5031      2.00000
     34      -4.4909      2.00000
     35      -4.4826      2.00000
     36      -4.4226      2.00000
     37      -4.3827      2.00000
     38      -4.3480      2.00000
     39      -4.3212      2.00000
     40      -4.2863      2.00000
     41      -4.1885      2.00000
     42      -4.1762      2.00000
     43      -4.1342      2.00000
     44      -4.1067      2.00000
     45      -4.0877      2.00000
     46      -4.0789      2.00000
     47      -4.0265      2.00000
     48      -4.0076      2.00000
     49      -3.9870      2.00000
     50      -3.9487      2.00000
     51      -3.8661      2.00000
     52      -3.8467      2.00000
     53      -3.8179      2.00000
     54      -3.7878      2.00000
     55      -3.7749      2.00000
     56      -3.7605      2.00000
     57      -3.7539      2.00000
     58      -3.7323      2.00000
     59      -3.7242      2.00000
     60      -3.6910      2.00000
[...]
    238       5.7532      0.00000
    239       5.9020      0.00000
    240       5.9892      0.00000
    241       6.0543      0.00000
    242       6.1295      0.00000
    243       6.3285      0.00000
    244       6.3453      0.00000
    245       6.5469      0.00000
    246       6.7266      0.00000
    247       6.8015      0.00000
    248       6.8491      0.00000
    249       7.0322      0.00000
    250       7.2275      0.00000
    251       7.3591      0.00000
    252       7.5403      0.00000

 soft charge-density along one line, spin component           1
         0         1         2         3         4         5         6         7         8         9
 total charge-density along one line

------------------------ aborting loop because EDIFF is reached ----------------------------------------

 total charge

# of ion       s       p       d       tot
    1        0.449   0.283   9.189   9.921
    2        0.448   0.284   9.188   9.920
    3        0.448   0.284   9.188   9.920
    4        0.448   0.284   9.188   9.920
    5        0.448   0.285   9.187   9.921
    6        0.448   0.284   9.188   9.920
    7        0.448   0.284   9.188   9.920
    8        0.448   0.284   9.188   9.920
    9        0.448   0.285   9.187   9.920
   10        0.442   0.371   9.180   9.994
   11        0.440   0.372   9.180   9.992
   12        0.442   0.371   9.180   9.994
   13        0.440   0.372   9.180   9.992
   14        0.440   0.372   9.180   9.992
   15        0.441   0.369   9.182   9.992
   16        0.442   0.371   9.180   9.994
   17        0.441   0.369   9.182   9.992
   18        0.441   0.369   9.182   9.992
   19        0.445   0.378   9.179  10.001
   20        0.448   0.376   9.181  10.006
   21        0.448   0.376   9.181  10.006
   22        0.440   0.374   9.181   9.995
   23        0.448   0.376   9.181  10.006
   24        0.440   0.374   9.181   9.995
   25        0.445   0.378   9.179  10.001
   26        0.445   0.378   9.179  10.001
   27        0.440   0.374   9.181   9.995
   28        0.458   0.289   9.195   9.942
   29        0.442   0.300   9.193   9.935
   30        0.442   0.300   9.193   9.935
   31        0.442   0.300   9.193   9.935
   32        0.442   0.300   9.193   9.935
   33        0.442   0.300   9.193   9.935
   34        0.442   0.300   9.193   9.935
   35        0.457   0.291   9.193   9.941
   36        0.672   0.779   8.492   9.944
   37        1.033   1.104   0.000   2.137
tot         17.281  13.547 329.974 360.802

  FORCE on cell =-STRESS in cart. coord.  units (eV):
  Direction    XX          YY          ZZ          XY          YZ          ZX
  Alpha Z   788.73290   788.73290   788.73290
  Ewald  225586.55278225586.55235************     0.00039     0.00012     0.00019
  Hartree238359.78250238359.78247************     0.00004     0.00005     0.00008
  E(xc)   -2313.66978 -2313.66930 -2317.74104    -0.00041    -0.00004    -0.00006
  Local  ************************477483.72261     0.01856    -0.00055    -0.00093
  n-local  -754.67589  -740.98298  -756.42303     7.68048    -0.08627     0.32394
  augment  3383.51558  3383.53572  3391.22636    -0.01745     0.00031     0.00056
  Kinetic  3322.57140  3322.90553  3331.25842     1.89570     2.08333    -1.33468
  Fock        0.00000     0.00000     0.00000     0.00000     0.00000     0.00000
  Total      -2.80138    -2.80138     1.22340     0.00000     0.00000    -0.00000
  in kB      -3.67742    -3.67742     1.60597     0.00000     0.00000    -0.00000

 VOLUME and BASIS-vectors are now :
  energy-cutoff  :      500.00
  volume of cell :     1220.51
      direct lattice vectors                 reciprocal lattice vectors
     7.696786404  0.000000000  0.000000000     0.129924354 -0.075011849  0.000000000
     3.848392758  6.665612809  0.000000000     0.000000000  0.150023716  0.000000000
     0.000000000  0.000000000 23.789778673     0.000000000  0.000000000  0.042034859

  length of vectors
     7.696786404  7.696786404 23.789778673     0.150023716  0.150023716  0.042034859

 FORCES acting on ions
    electron-ion (+dipol)            ewald-force                    non-local-force                 convergence-correction
   -.421E-04 -.111E-06 0.374E+04   0.579E-04 -.442E-05 -.374E+04   -.241E-17 -.341E-17 -.228E+01   -.259E-03 -.117E-03 -.182E+00
   -.413E+00 -.936E-01 0.374E+04   0.366E+00 0.229E+00 -.374E+04   0.428E-01 -.236E-01 -.201E+01   0.527E-02 -.987E-01 -.216E+00
   0.413E+00 -.936E-01 0.374E+04   -.366E+00 0.229E+00 -.374E+04   -.428E-01 -.236E-01 -.201E+01   -.451E-02 -.961E-01 -.215E+00
   -.287E+00 -.311E+00 0.374E+04   0.382E+00 0.203E+00 -.374E+04   0.101E-02 0.489E-01 -.201E+01   -.828E-01 0.539E-01 -.216E+00
   -.637E-04 -.450E-05 0.374E+04   0.116E-03 -.101E-04 -.374E+04   -.109E-16 0.188E-17 -.210E+01   0.122E-01 0.746E-02 -.181E+00
   0.288E+00 -.311E+00 0.374E+04   -.382E+00 0.202E+00 -.374E+04   -.101E-02 0.489E-01 -.201E+01   0.811E-01 0.552E-01 -.215E+00
   0.125E+00 0.404E+00 0.374E+04   0.154E-01 -.432E+00 -.374E+04   -.418E-01 -.253E-01 -.201E+01   -.855E-01 0.441E-01 -.215E+00
   -.125E+00 0.404E+00 0.374E+04   -.157E-01 -.432E+00 -.374E+04   0.418E-01 -.253E-01 -.201E+01   0.890E-01 0.427E-01 -.215E+00
   -.144E-03 -.333E-04 0.374E+04   0.263E-03 0.205E-04 -.374E+04   -.288E-17 -.720E-18 -.202E+01   -.133E-01 -.687E-02 -.143E+00
   -.196E+01 -.113E+01 0.128E+04   0.213E+01 0.123E+01 -.128E+04   -.112E+00 -.647E-01 -.957E+00   -.567E-01 -.328E-01 0.101E+00
   -.894E-04 -.284E+01 0.127E+04   0.191E-03 0.279E+01 -.127E+04   -.568E-08 0.853E-01 -.583E+00   0.113E-01 -.582E-01 0.167E+00
   0.197E+01 -.113E+01 0.128E+04   -.213E+01 0.123E+01 -.128E+04   0.112E+00 -.647E-01 -.957E+00   0.552E-01 -.308E-01 0.100E+00
   -.246E+01 0.142E+01 0.127E+04   0.242E+01 -.140E+01 -.127E+04   0.739E-01 -.427E-01 -.583E+00   -.443E-01 0.397E-01 0.167E+00
   0.246E+01 0.142E+01 0.127E+04   -.242E+01 -.140E+01 -.127E+04   -.739E-01 -.427E-01 -.583E+00   0.685E-01 0.392E-01 0.167E+00
   -.140E-03 -.141E+01 0.128E+04   0.298E-03 0.147E+01 -.128E+04   0.203E-08 -.305E-01 -.692E+00   -.380E-02 -.218E-01 0.147E+00
   -.894E-04 0.227E+01 0.128E+04   0.186E-03 -.246E+01 -.128E+04   -.861E-08 0.129E+00 -.957E+00   -.156E-04 0.620E-01 0.100E+00
   -.122E+01 0.704E+00 0.128E+04   0.128E+01 -.736E+00 -.128E+04   -.264E-01 0.153E-01 -.692E+00   -.201E-01 0.759E-02 0.147E+00
   0.122E+01 0.704E+00 0.128E+04   -.128E+01 -.736E+00 -.128E+04   0.264E-01 0.153E-01 -.692E+00   0.204E-01 0.101E-01 0.147E+00
   -.605E-04 -.120E+01 -.120E+04   0.681E-04 0.122E+01 0.120E+04   0.327E-08 -.491E-01 0.473E+00   0.954E-02 0.262E-01 0.221E+00
   -.235E+02 -.136E+02 -.123E+04   0.239E+02 0.138E+02 0.123E+04   -.322E+00 -.186E+00 0.800E+00   -.737E-01 -.427E-01 0.221E+00
   0.235E+02 -.136E+02 -.123E+04   -.239E+02 0.138E+02 0.123E+04   0.322E+00 -.186E+00 0.800E+00   0.958E-01 -.402E-01 0.221E+00
   -.101E+02 0.584E+01 -.121E+04   0.100E+02 -.578E+01 0.121E+04   0.106E+00 -.614E-01 0.960E+00   -.808E-02 0.147E-02 0.235E+00
   -.758E-04 0.271E+02 -.123E+04   0.148E-03 -.275E+02 0.123E+04   -.248E-07 0.372E+00 0.800E+00   0.119E-01 0.102E+00 0.221E+00
   0.101E+02 0.584E+01 -.121E+04   -.100E+02 -.578E+01 0.121E+04   -.106E+00 -.614E-01 0.960E+00   0.521E-02 0.213E-02 0.235E+00
   0.104E+01 0.602E+00 -.120E+04   -.106E+01 -.609E+00 0.120E+04   0.426E-01 0.246E-01 0.473E+00   -.479E-02 -.275E-02 0.220E+00
   -.104E+01 0.602E+00 -.120E+04   0.106E+01 -.609E+00 0.120E+04   -.426E-01 0.246E-01 0.473E+00   0.278E-01 -.464E-02 0.221E+00
   -.131E-03 -.117E+02 -.121E+04   0.246E-03 0.116E+02 0.121E+04   -.818E-08 0.123E+00 0.960E+00   -.282E-02 -.780E-02 0.236E+00
   -.214E-04 0.257E-04 -.368E+04   0.398E-04 -.334E-04 0.368E+04   0.618E-17 -.288E-17 0.225E+01   0.910E-04 0.105E-03 0.359E+00
   -.106E+02 -.165E+02 -.367E+04   0.100E+02 0.154E+02 0.367E+04   0.553E+00 0.105E+01 0.234E+01   -.981E-01 -.138E+00 0.235E+00
   0.106E+02 -.165E+02 -.367E+04   -.100E+02 0.154E+02 0.367E+04   -.553E+00 0.105E+01 0.234E+01   0.986E-01 -.135E+00 0.236E+00
   -.195E+02 -.908E+00 -.367E+04   0.184E+02 0.975E+00 0.367E+04   0.119E+01 -.465E-01 0.234E+01   -.168E+00 -.161E-01 0.235E+00
   0.195E+02 -.908E+00 -.367E+04   -.184E+02 0.975E+00 0.367E+04   -.119E+01 -.465E-01 0.234E+01   0.167E+00 -.146E-01 0.235E+00
   -.899E+01 0.174E+02 -.367E+04   0.834E+01 -.164E+02 0.367E+04   0.634E+00 -.100E+01 0.234E+01   -.679E-01 0.153E+00 0.236E+00
   0.899E+01 0.174E+02 -.367E+04   -.834E+01 -.164E+02 0.367E+04   -.634E+00 -.100E+01 0.234E+01   0.716E-01 0.152E+00 0.235E+00
   -.151E-03 -.249E-04 -.369E+04   0.257E-03 0.242E-05 0.368E+04   -.327E-17 -.395E-17 0.226E+01   -.135E-01 -.699E-02 0.193E+00
   -.534E-04 -.491E-04 -.322E+04   0.120E-03 0.255E-04 0.322E+04   -.432E-17 -.394E-17 -.332E+01   0.420E-02 0.254E-02 -.416E-03
   0.542E-04 -.214E-04 -.163E+04   0.102E-04 0.483E-05 0.164E+04   -.160E-18 -.755E-18 -.124E+02   0.719E-03 0.432E-03 -.503E-02
   -.174E-03 -.367E-04 0.122E+02   -.886E-13 -.373E-12 -.318E-11   0.658E-15 -.675E-15 -.156E+02   0.868E-01 0.471E-01 0.344E+01

 POSITION                                       TOTAL-FORCE (eV/Angst)
      0.00000      0.00000      5.37156        -0.000000      0.000000      0.024479
      2.56560      0.00000      5.37156         0.001943      0.014613      0.061273
      5.13119      0.00000      5.37156        -0.001943      0.014613      0.061273
      1.28280      2.22187      5.37156         0.013627     -0.005623      0.061273
      3.84839      2.22187      5.37156        -0.000000      0.000000      0.064357
      6.41399      2.22187      5.37156        -0.013627     -0.005623      0.061273
      2.56560      4.44374      5.37156         0.011683     -0.008989      0.061273
      5.13119      4.44374      5.37156        -0.011683     -0.008989      0.061273
      7.69679      4.44374      5.37156        -0.000000      0.000000      0.075673
      1.28280      0.74062      7.46636         0.000290      0.000168     -0.094674
      3.84839      0.74062      7.46636         0.000000     -0.022004     -0.065858
      6.41399      0.74062      7.46636        -0.000290      0.000168     -0.094674
      2.56560      2.96249      7.46636        -0.019056      0.011002     -0.065858
      5.13119      2.96249      7.46636         0.019056      0.011002     -0.065858
      7.69679      2.96249      7.46636        -0.000000      0.012669     -0.079326
      3.84839      5.18437      7.46636         0.000000     -0.000335     -0.094674
      6.41399      5.18437      7.46636         0.010971     -0.006334     -0.079326
      8.97958      5.18437      7.46636        -0.010971     -0.006334     -0.079326
      7.69679      1.48223      9.53996         0.000000     -0.014372      0.000701
      2.55948      1.47772      9.53985        -0.032097     -0.018531     -0.210633
      5.13731      1.47772      9.53985         0.032097     -0.018531     -0.210633
      8.98047      3.70261      9.54732        -0.004031      0.002327     -0.002420
      3.84839      3.71018      9.53985        -0.000000      0.037062     -0.210633
      6.41310      3.70261      9.54732         0.004031      0.002327     -0.002420
     10.26153      5.92450      9.53996         0.012447      0.007186      0.000701
      5.13204      5.92450      9.53996        -0.012447      0.007186      0.000701
      7.69679      5.92601      9.54732         0.000000     -0.004655     -0.002420
      0.00000      0.00000     11.61018        -0.000000      0.000000     -0.011709
      6.39795      6.64100     11.62214        -0.073846     -0.136520      0.024576
      8.99562      6.64100     11.62214         0.073846     -0.136520      0.024576
      8.95025      2.22029     11.62214        -0.155152      0.004308      0.024576
      6.44333      2.22029     11.62214         0.155152      0.004308      0.024576
     10.24908      4.46994     11.62214        -0.081307      0.132212      0.024576
      5.14449      4.46994     11.62214         0.081307      0.132212      0.024576
      7.69679      4.44374     11.61116        -0.000000      0.000000      0.007264
      3.84839      2.22187     11.69545        -0.000000      0.000000      0.689722
      3.84839      2.22187     13.45842        -0.000000      0.000000     -0.008249
    total drift:                                0.086656      0.047096     -0.002132

  FREE ENERGIE OF THE ION-ELECTRON SYSTEM (eV)
  free  energy   TOTEN  =      -132.76363211 eV

  energy  without entropy=     -132.76363211  energy(sigma->0) =     -132.76363211

 stress matrix after NEB project (eV)
     -2.80138      0.00000     -0.00000
      0.00000     -2.80138      0.00000
     -0.00000      0.00000      1.22340
  FORCES: max atom, RMS     0.008249    0.001356
  FORCE total and by dimension    0.008249    0.008249
  Stress total and by dimension    4.146345    2.801382
|           W    W    AA    RRRRR   N    N  II  N    N   GGGG   !!!           |
|           W    W   A  A   R    R  NN   N  II  NN   N  G    G  !!!           |
|           W    W  A    A  R    R  N N  N  II  N N  N  G       !!!           |
|           W WW W  AAAAAA  RRRRR   N  N N  II  N  N N  G  GGG   !            |
|           WW  WW  A    A  R   R   N   NN  II  N   NN  G    G                |
|           W    W  A    A  R    R  N    N  II  N    N   GGGG   !!!           |
|     Tetrahedron method does not include variations of the Fermi             |
|     occupations, so forces and stress will be inaccurate. We suggest        |
|     using a different smearing scheme ISMEAR = 1 or 2 for metals in         |
|     relaxations.                                                            |

 total charge

# of ion       s       p       d       tot
    1        0.449   0.283   9.189   9.921
    2        0.448   0.284   9.188   9.920
    3        0.448   0.284   9.188   9.920
    4        0.448   0.284   9.188   9.920
    5        0.448   0.285   9.187   9.921
    6        0.448   0.284   9.188   9.920
    7        0.448   0.284   9.188   9.920
    8        0.448   0.284   9.188   9.920
    9        0.448   0.285   9.187   9.920
   10        0.442   0.371   9.180   9.994
   11        0.440   0.372   9.180   9.992
   12        0.442   0.371   9.180   9.994
   13        0.440   0.372   9.180   9.992
   14        0.440   0.372   9.180   9.992
   15        0.441   0.369   9.182   9.992
   16        0.442   0.371   9.180   9.994
   17        0.441   0.369   9.182   9.992
   18        0.441   0.369   9.182   9.992
   19        0.445   0.378   9.179  10.001
   20        0.448   0.376   9.181  10.006
   21        0.448   0.376   9.181  10.006
   22        0.440   0.374   9.181   9.995
   23        0.448   0.376   9.181  10.006
   24        0.440   0.374   9.181   9.995
   25        0.445   0.378   9.179  10.001
   26        0.445   0.378   9.179  10.001
   27        0.440   0.374   9.181   9.995
   28        0.458   0.289   9.195   9.942
   29        0.442   0.300   9.193   9.935
   30        0.442   0.300   9.193   9.935
   31        0.442   0.300   9.193   9.935
   32        0.442   0.300   9.193   9.935
   33        0.442   0.300   9.193   9.935
   34        0.442   0.300   9.193   9.935
   35        0.457   0.291   9.193   9.941
   36        0.672   0.779   8.492   9.944
   37        1.033   1.104   0.000   2.137
tot         17.281  13.547 329.974 360.802

 BZINTS: Fermi energy:   -0.397451;  399.000000 electrons
         Band energy:-0.130713E+04;  BLOECHL correction:   -0.073973