 vasp.6.2.0 18Jan21 (build Jun 12 2021 23:27:24) complex

 executed on             LinuxIFC date 2022.05.30  16:47:34

 INCAR:
   ISMEAR = -5
   SIGMA = 0.1
   ISPIN = 1
   EDIFF = 1.d-5
   EDIFFG = -0.01
   NSW = 0
   NELM = 150
   ENCUT = 500
   ISIF = 2
   IBRION = 2
   LREAL = Auto
   ALGO = Fast
   ICHARG = 11
   LORBIT = 10
   LCHARG = .F.
   LWAVE = .F.

 POTCAR:    PAW_PBE Ag 02Apr2005
 POTCAR:    PAW_PBE Ti 08Apr2002
 POTCAR:    PAW_PBE C 08Apr2002
|           W    W    AA    RRRRR   N    N  II  N    N   GGGG   !!!           |
|           W    W   A  A   R    R  NN   N  II  NN   N  G    G  !!!           |
|           W    W  A    A  R    R  N N  N  II  N N  N  G       !!!           |
|           W WW W  AAAAAA  RRRRR   N  N N  II  N  N N  G  GGG   !            |
|           WW  WW  A    A  R   R   N   NN  II  N   NN  G    G                |
|           W    W  A    A  R    R  N    N  II  N    N   GGGG   !!!           |
|     For optimal performance we recommend to set                             |
|       NCORE = 2 up to number-of-cores-per-socket                            |
|     This setting can greatly improve the performance of VASP for DFT.       |
|     The default, NCORE=1 might be grossly inefficient on modern             |
|     multi-core architectures or massively parallel machines. Do your        |
|     Unfortunately you need to use the default for GW and RPA                |
|     calculations (for HF NCORE is supported but not extensively tested      |
|     yet).                                                                   |

 POTCAR:    PAW_PBE Ag 02Apr2005
   VRHFIN =Ag : s1 d10

   TITEL  = PAW_PBE Ag 02Apr2005
   POMASS =  107.868; ZVAL   =   11.000    mass and valenz
   ENMAX  =  249.844; ENMIN  =  187.383 eV

 POTCAR:    PAW_PBE Ti 08Apr2002
   VRHFIN =Ti: d3 s1

[...]

 POTCAR:    PAW_PBE C 08Apr2002
   VRHFIN =C: s2p2

   TITEL  = PAW_PBE C 08Apr2002
   POMASS =   12.011; ZVAL   =    4.000    mass and valenz
   ENMAX  =  400.000; ENMIN  =  300.000 eV

 Optimization of the real space projectors (new method)

 maximal supplied QI-value         = 15.12
 optimisation between [QCUT,QGAM] = [ 11.34, 22.83] = [ 36.00,145.93] Ry
 Optimized for a Real-space Cutoff    1.43 Angstroem

   l    n(q)    QCUT    max X(q) W(low)/X(q) W(high)/X(q)  e(spline)
   2      9    11.338    53.897    0.16E-03    0.20E-03    0.28E-06
   2      9    11.338    52.416    0.16E-03    0.20E-03    0.29E-06
   0     10    11.338   122.045    0.31E-04    0.76E-04    0.15E-06
   0     10    11.338    73.629    0.30E-04    0.72E-04    0.15E-06
   1      9    11.338    15.255    0.20E-03    0.19E-04    0.17E-06
   1      9    11.338     9.562    0.16E-03    0.15E-04    0.14E-06
 Optimization of the real space projectors (new method)

[...]

   l    n(q)    QCUT    max X(q) W(low)/X(q) W(high)/X(q)  e(spline)
   2     10    11.404    49.363    0.27E-03    0.67E-03    0.76E-06
   2     10    11.404    47.669    0.26E-03    0.65E-03    0.73E-06
   0     11    11.404    26.374    0.17E-03    0.20E-03    0.34E-06
   0     11    11.404    11.549    0.14E-03    0.16E-03    0.29E-06
   1     10    11.404     9.492    0.33E-04    0.56E-04    0.16E-06
 Optimization of the real space projectors (new method)

 maximal supplied QI-value         = 25.13
 optimisation between [QCUT,QGAM] = [ 11.31, 22.87] = [ 35.82,146.48] Ry
 Optimized for a Real-space Cutoff    1.00 Angstroem

   l    n(q)    QCUT    max X(q) W(low)/X(q) W(high)/X(q)  e(spline)
   0      7    11.310   115.676    0.43E-03    0.13E-02    0.19E-06
   0      7    11.310    87.132    0.43E-03    0.13E-02    0.18E-06
   1      6    11.310     4.429    0.42E-03    0.74E-03    0.11E-06
   1      6    11.310     2.733    0.34E-03    0.55E-03    0.92E-07
  PAW_PBE Ag 02Apr2005                  :
  PAW_PBE Ti 08Apr2002                  :
  PAW_PBE C 08Apr2002                   :

 POSCAR: Ag-Ti-C
  positions in direct lattice
  velocities in cartesian coordinates
 exchange correlation table for  LEXCH =        8
   RHO(1)=    0.500       N(1)  =     2000
   RHO(2)=  100.500       N(2)  =     4000

 VTST: version 3.2, (02/03/18)

 CHAIN: initializing optimizer

 OPT: Using VASP Conjugate-Gradient optimizer
 CHAIN: Read ICHAIN            0

 POSCAR: Ag-Ti-C
  positions in direct lattice
  velocities in cartesian coordinates

 ion  position               nearest neighbor table
   1  0.000  0.000  0.217-   2 2.93   8 2.93   7 2.93   6 2.93   4 2.93  12 2.93  16 2.93  10 2.93
                             3 2.93
   2  0.333  0.000  0.217-   1 2.93   8 2.93   9 2.93   3 2.93   4 2.93   5 2.93  10 2.93  17 2.93
                            11 2.93
   3  0.667  0.000  0.217-   9 2.93   2 2.93   5 2.93  11 2.93   7 2.93  18 2.93   1 2.93   6 2.93
                            12 2.93
   4  0.000  0.333  0.217-   5 2.93   6 2.93   2 2.93   1 2.93   7 2.93  13 2.93  15 2.93   9 2.93
                            10 2.93
   5  0.333  0.333  0.217-   4 2.93   3 2.93   7 2.93   2 2.93   8 2.93  14 2.93  13 2.93  11 2.93
                             6 2.93
   6  0.667  0.333  0.217-   4 2.93   9 2.93   1 2.93  15 2.93   8 2.93  12 2.93   3 2.93   5 2.93
                            14 2.93
   7  0.000  0.667  0.217-   8 2.93   1 2.93   5 2.93   3 2.93   4 2.93  16 2.93  18 2.93  13 2.93
                             9 2.93
   8  0.333  0.667  0.217-   7 2.93   1 2.93   2 2.93   9 2.93   5 2.93  16 2.93   6 2.93  17 2.93
                            14 2.93
   9  0.667  0.667  0.217-   3 2.93   2 2.93   8 2.93   6 2.93  17 2.93   4 2.93  15 2.93   7 2.93
                            18 2.93
  10  0.111  0.111  0.315-  20 2.91  19 2.92  26 2.92  12 2.93  16 2.93  15 2.93  17 2.93  13 2.93
                            11 2.93   2 2.93   1 2.93   4 2.93
  11  0.444  0.111  0.315-  21 2.91  20 2.91  27 2.92  14 2.93  17 2.93  18 2.93   3 2.93  12 2.93
                            13 2.93  10 2.93   5 2.93   2 2.93
  12  0.778  0.111  0.315-  21 2.91  25 2.92  19 2.92  10 2.93  16 2.93  18 2.93  15 2.93  11 2.93
                             1 2.93  14 2.93   6 2.93   3 2.93
  13  0.111  0.444  0.315-  20 2.91  23 2.91  22 2.92  15 2.93  14 2.93  18 2.93  10 2.93  11 2.93
                            16 2.93   4 2.93   5 2.93   7 2.93
  14  0.444  0.444  0.315-  23 2.91  21 2.91  24 2.92  13 2.93  11 2.93  16 2.93   5 2.93  12 2.93
                            17 2.93   8 2.93  15 2.93   6 2.93
  15  0.778  0.444  0.315-  19 2.92  24 2.92  22 2.92  13 2.93  10 2.93  12 2.93  17 2.93  18 2.93
                             4 2.93   6 2.93   9 2.93  14 2.93
  16  0.111  0.778  0.315-  23 2.91  26 2.92  25 2.92  18 2.93  12 2.93  10 2.93  14 2.93  17 2.93
                            13 2.93   7 2.93   8 2.93   1 2.93
  17  0.444  0.778  0.315-  26 2.92  27 2.92  24 2.92  11 2.93  10 2.93   9 2.93  18 2.93  15 2.93
                            16 2.93   2 2.93  14 2.93   8 2.93
  18  0.778  0.778  0.315-  25 2.92  22 2.92  27 2.92  16 2.93  12 2.93  13 2.93  11 2.93  17 2.93
                            15 2.93   7 2.93   3 2.93   9 2.93
  19  0.889  0.222  0.413-  10 2.92  12 2.92  15 2.92  28 2.92  26 2.93  25 2.93  24 2.93  22 2.93
                            20 2.94  21 2.94  32 2.96  31 2.96
  20  0.223  0.223  0.412-  36 2.82  13 2.91  11 2.91  10 2.91  21 2.92  23 2.92  27 2.93  22 2.93
                            19 2.94  26 2.94  31 2.94  29 2.94
  21  0.555  0.223  0.412-  36 2.82  11 2.91  14 2.91  12 2.91  20 2.92  23 2.92  27 2.93  24 2.93
                            25 2.94  19 2.94  30 2.94  32 2.94
  22  0.889  0.556  0.413-  18 2.92  15 2.92  13 2.92  24 2.93  27 2.93  25 2.93  19 2.93  35 2.93
                            23 2.93  20 2.93  33 2.94  31 2.94
  23  0.223  0.555  0.412-  36 2.82  14 2.91  13 2.91  16 2.91  21 2.92  20 2.92  22 2.93  24 2.93
                            26 2.94  25 2.94  34 2.94  33 2.94
  24  0.556  0.556  0.413-  15 2.92  17 2.92  14 2.92  27 2.93  22 2.93  19 2.93  26 2.93  35 2.93
                            23 2.93  21 2.93  32 2.94  34 2.94
  25  0.889  0.889  0.413-  16 2.92  12 2.92  18 2.92  28 2.92  26 2.93  19 2.93  22 2.93  27 2.93
                            23 2.94  21 2.94  33 2.96  30 2.96
  26  0.222  0.889  0.413-  16 2.92  10 2.92  17 2.92  28 2.92  25 2.93  19 2.93  27 2.93  24 2.93
                            23 2.94  20 2.94  34 2.96  29 2.96
  27  0.556  0.889  0.413-  17 2.92  18 2.92  11 2.92  24 2.93  22 2.93  26 2.93  25 2.93  35 2.93
                            20 2.93  21 2.93  29 2.94  30 2.94
  28  0.000  0.000  0.510-  26 2.92  25 2.92  19 2.92  29 2.95  34 2.95  33 2.95  32 2.95  31 2.95
                            30 2.95
  29  0.334  0.004  0.511-  30 2.89  31 2.90  36 2.90  20 2.94  27 2.94  35 2.95  28 2.95  26 2.96
                            34 3.00
  30  0.662  0.004  0.511-  29 2.89  32 2.90  36 2.90  21 2.94  27 2.94  35 2.95  28 2.95  25 2.96
                            33 3.00
  31  0.004  0.334  0.511-  33 2.89  29 2.90  36 2.90  20 2.94  22 2.94  35 2.95  28 2.95  19 2.96
                            32 3.00
  32  0.662  0.334  0.511-  34 2.89  30 2.90  36 2.90  21 2.94  24 2.94  35 2.95  28 2.95  19 2.96
                            31 3.00
  33  0.004  0.662  0.511-  31 2.89  34 2.90  36 2.90  23 2.94  22 2.94  35 2.95  28 2.95  25 2.96
                            30 3.00
  34  0.334  0.662  0.511-  32 2.89  33 2.90  36 2.90  23 2.94  24 2.94  35 2.95  28 2.95  26 2.96
                            29 3.00
  35  0.667  0.667  0.511-  24 2.93  27 2.93  22 2.93  30 2.95  32 2.95  29 2.95  34 2.95  31 2.95
                            33 2.95
  36  0.333  0.333  0.505-  37 1.79  21 2.82  20 2.82  23 2.82  31 2.90  33 2.90  30 2.90  29 2.90
                            34 2.90  32 2.90
  37  0.333  0.333  0.578-  36 1.79

  LATTYP: Found a hexagonal cell.
 ALAT       =     8.7913665772
 C/A-ratio  =     2.7711238095

  Lattice vectors:

 A1 = (  -4.3956832886,  -7.6135467898,   0.0000000000)
 A2 = (   8.7913665771,   0.0000000000,   0.0000000000)
 A3 = (   0.0000000000,   0.0000000000,  24.3619652401)

Analysis of symmetry for initial positions (statically):
 Subroutine PRICEL returns:
 Original cell was already a primitive cell.

 Routine SETGRP: Setting up the symmetry group for a
 hexagonal supercell.

 Subroutine GETGRP returns: Found  6 space group operations
 (whereof  6 operations were pure point group operations)
 out of a pool of 24 trial point group operations.

The static configuration has the point symmetry C_3v.

Analysis of symmetry for dynamics (positions and initial velocities):
 Subroutine PRICEL returns:
 Original cell was already a primitive cell.

[...]

The dynamic configuration has the point symmetry C_3v.

Analysis of constrained symmetry for selective dynamics:
 Subroutine PRICEL returns:
 Original cell was already a primitive cell.

 Routine SETGRP: Setting up the symmetry group for a
 hexagonal supercell.

 Subroutine GETGRP returns: Found  6 space group operations
 (whereof  6 operations were pure point group operations)
 out of a pool of 24 trial point group operations.

The constrained configuration has the point symmetry C_3v.

[...]
     24      -5.3173      2.00000
     25      -5.2907      2.00000
     26      -5.2743      2.00000
     27      -5.2629      2.00000
     28      -5.2402      2.00000
     29      -5.2386      2.00000
     30      -5.2197      2.00000
     31      -5.2047      2.00000
     32      -5.2020      2.00000
     33      -5.1751      2.00000
     34      -5.1217      2.00000
     35      -5.1111      2.00000
     36      -5.0879      2.00000
     37      -5.0720      2.00000
     38      -5.0434      2.00000
     39      -5.0103      2.00000
     40      -5.0065      2.00000
     41      -5.0001      2.00000
     42      -4.9947      2.00000
     43      -4.9800      2.00000
     44      -4.8834      2.00000
     45      -4.8620      2.00000
     46      -4.8502      2.00000
     47      -4.8465      2.00000
     48      -4.8427      2.00000
     49      -4.8393      2.00000
     50      -4.8266      2.00000
     51      -4.8207      2.00000
     52      -4.8117      2.00000
     53      -4.7952      2.00000
     54      -4.7371      2.00000
     55      -4.7265      2.00000
     56      -4.7210      2.00000
     57      -4.7123      2.00000
     58      -4.6983      2.00000
     59      -4.6839      2.00000
     60      -4.6495      2.00000
[...]
    238       5.7542      0.00000
    239       5.8012      0.00000
    240       6.0078      0.00000
    241       6.4664      0.00000
    242       6.4817      0.00000
    243       6.5588      0.00000
    244       6.5855      0.00000
    245       6.6063      0.00000
    246       6.6476      0.00000
    247       6.6934      0.00000
    248       6.8257      0.00000
    249       6.8927      0.00000
    250       6.9449      0.00000
    251       7.0435      0.00000
    252       7.1472      0.00000

 soft charge-density along one line, spin component           1
         0         1         2         3         4         5         6         7         8         9
 total charge-density along one line

------------------------ aborting loop because EDIFF is reached ----------------------------------------

 total charge

# of ion       s       p       d       tot
    1        0.417   0.203   9.177   9.797
    2        0.415   0.203   9.177   9.795
    3        0.415   0.203   9.177   9.795
    4        0.415   0.203   9.177   9.795
    5        0.421   0.200   9.176   9.797
    6        0.415   0.203   9.177   9.795
    7        0.415   0.203   9.177   9.795
    8        0.415   0.203   9.177   9.795
    9        0.415   0.203   9.177   9.796
   10        0.405   0.271   9.163   9.839
   11        0.407   0.268   9.166   9.841
   12        0.405   0.271   9.163   9.839
   13        0.407   0.268   9.166   9.841
   14        0.407   0.268   9.166   9.841
   15        0.404   0.270   9.163   9.837
   16        0.405   0.271   9.163   9.839
   17        0.404   0.270   9.163   9.837
   18        0.404   0.270   9.163   9.837
   19        0.400   0.268   9.165   9.833
   20        0.425   0.289   9.148   9.862
   21        0.425   0.289   9.148   9.862
   22        0.396   0.273   9.165   9.834
   23        0.425   0.289   9.148   9.862
   24        0.396   0.273   9.165   9.834
   25        0.400   0.268   9.165   9.833
   26        0.400   0.268   9.165   9.833
   27        0.396   0.273   9.165   9.834
   28        0.413   0.197   9.180   9.790
   29        0.425   0.207   9.166   9.798
   30        0.425   0.207   9.166   9.798
   31        0.425   0.207   9.166   9.798
   32        0.425   0.207   9.166   9.798
   33        0.425   0.207   9.166   9.798
   34        0.425   0.207   9.166   9.798
   35        0.414   0.196   9.180   9.789
   36        0.488   0.573   2.771   3.832
   37        0.998   1.195   0.000   2.193
tot         15.922  10.145 323.626 349.693

  FORCE on cell =-STRESS in cart. coord.  units (eV):
  Direction    XX          YY          ZZ          XY          YZ          ZX
  Alpha Z   678.45256   678.45256   678.45256
  Ewald  150235.98046150235.98035************    -0.00001    -0.00001     0.00001
  Hartree159972.98799159972.98794************    -0.00001    -0.00000    -0.00000
  E(xc)   -2057.09970 -2057.09970 -2065.81380    -0.00000     0.00000     0.00000
  Local  ************************321417.57936     0.00032    -0.00003    -0.00009
  n-local  -325.14319  -309.77178  -327.99289     9.67535    -0.38703     0.51000
  augment  3223.75427  3223.75446  3238.49435    -0.00016     0.00000     0.00001
  Kinetic  4841.98358  4843.53856  4876.41368     3.95307     0.61278    -0.22196
  Fock        0.00000     0.00000     0.00000     0.00000     0.00000     0.00000
  Total      -7.78440    -7.78440    -1.01319    -0.00000    -0.00000     0.00000
  in kB      -7.64856    -7.64856    -0.99551    -0.00000    -0.00000     0.00000

 VOLUME and BASIS-vectors are now :
  energy-cutoff  :      500.00
  volume of cell :     1630.63
      direct lattice vectors                 reciprocal lattice vectors
     8.791366577  0.000000000  0.000000000     0.113747958 -0.065672414  0.000000000
     4.395683289  7.613546790  0.000000000     0.000000000  0.131344829  0.000000000
     0.000000000  0.000000000 24.361965240     0.000000000  0.000000000  0.041047592

  length of vectors
     8.791366577  8.791366577 24.361965240     0.131344829  0.131344829  0.041047592

 FORCES acting on ions
    electron-ion (+dipol)            ewald-force                    non-local-force                 convergence-correction
   0.464E-04 -.280E-04 0.265E+04   -.953E-04 0.593E-04 -.265E+04   0.197E-17 -.164E-17 -.194E+01   -.834E-04 -.155E-03 -.849E-02
   -.438E+00 -.468E+00 0.265E+04   0.239E+00 0.242E+00 -.265E+04   0.841E-01 0.143E+00 -.169E+01   0.105E+00 0.693E-01 0.249E-01
   0.438E+00 -.468E+00 0.265E+04   -.239E+00 0.242E+00 -.265E+04   -.841E-01 0.143E+00 -.169E+01   -.106E+00 0.712E-01 0.255E-01
   -.624E+00 -.146E+00 0.265E+04   0.329E+00 0.859E-01 -.265E+04   0.166E+00 0.156E-02 -.169E+01   0.113E+00 0.567E-01 0.249E-01
   -.709E-05 -.196E-04 0.265E+04   0.981E-04 -.200E-05 -.265E+04   -.104E-17 -.312E-18 -.137E+01   0.618E-02 0.378E-02 0.582E-01
   0.624E+00 -.145E+00 0.265E+04   -.329E+00 0.858E-01 -.265E+04   -.166E+00 0.156E-02 -.169E+01   -.114E+00 0.576E-01 0.256E-01
   -.186E+00 0.613E+00 0.265E+04   0.900E-01 -.328E+00 -.265E+04   0.815E-01 -.144E+00 -.169E+01   0.917E-02 -.127E+00 0.255E-01
   0.186E+00 0.613E+00 0.265E+04   -.901E-01 -.328E+00 -.265E+04   -.815E-01 -.144E+00 -.169E+01   -.757E-02 -.128E+00 0.256E-01
   0.364E-04 -.131E-04 0.265E+04   0.791E-04 -.642E-04 -.265E+04   0.232E-17 0.438E-18 -.183E+01   -.663E-02 -.341E-02 0.594E-01
   -.197E+01 -.114E+01 0.864E+03   0.202E+01 0.117E+01 -.863E+03   -.145E+00 -.835E-01 -.639E+00   0.710E-01 0.410E-01 -.102E+00
   -.282E-04 -.202E+01 0.859E+03   0.406E-04 0.202E+01 -.858E+03   -.470E-13 -.716E-02 -.512E+00   0.612E-02 -.412E-02 -.180E+00
   0.197E+01 -.114E+01 0.864E+03   -.202E+01 0.117E+01 -.863E+03   0.145E+00 -.835E-01 -.639E+00   -.724E-01 0.417E-01 -.103E+00
   -.175E+01 0.101E+01 0.859E+03   0.175E+01 -.101E+01 -.858E+03   -.620E-02 0.358E-02 -.512E+00   -.628E-03 0.738E-02 -.180E+00
   0.175E+01 0.101E+01 0.859E+03   -.175E+01 -.101E+01 -.858E+03   0.620E-02 0.358E-02 -.512E+00   0.108E-01 0.650E-02 -.182E+00
   0.154E-04 -.649E-01 0.864E+03   -.107E-03 -.299E-01 -.863E+03   0.311E-12 0.473E-01 -.763E+00   -.132E-02 0.424E-01 -.127E+00
   -.803E-05 0.228E+01 0.864E+03   0.207E-04 -.234E+01 -.863E+03   0.110E-11 0.167E+00 -.639E+00   -.142E-03 -.836E-01 -.103E+00
   -.562E-01 0.324E-01 0.864E+03   -.260E-01 0.149E-01 -.863E+03   0.410E-01 -.237E-01 -.763E+00   0.360E-01 -.223E-01 -.127E+00
   0.561E-01 0.324E-01 0.864E+03   0.259E-01 0.150E-01 -.863E+03   -.410E-01 -.237E-01 -.763E+00   -.360E-01 -.208E-01 -.126E+00
   0.382E-04 -.587E+01 -.927E+03   -.125E-03 0.578E+01 0.927E+03   0.637E-12 0.970E-01 0.895E+00   0.565E-02 0.432E-01 -.377E+00
   -.334E+02 -.193E+02 -.964E+03   0.339E+02 0.196E+02 0.965E+03   -.518E+00 -.299E+00 -.464E+00   -.754E-01 -.435E-01 -.479E+00
   0.334E+02 -.193E+02 -.964E+03   -.339E+02 0.196E+02 0.965E+03   0.518E+00 -.299E+00 -.464E+00   0.736E-01 -.440E-01 -.479E+00
   -.149E+02 0.862E+01 -.931E+03   0.149E+02 -.859E+01 0.931E+03   0.108E+00 -.624E-01 0.438E+00   -.207E-01 0.176E-01 -.383E+00
   -.507E-04 0.386E+02 -.964E+03   0.353E-04 -.391E+02 0.965E+03   0.393E-11 0.598E+00 -.464E+00   -.987E-03 0.864E-01 -.479E+00
   0.149E+02 0.862E+01 -.931E+03   -.149E+02 -.859E+01 0.931E+03   -.108E+00 -.624E-01 0.438E+00   0.315E-01 0.183E-01 -.383E+00
   0.509E+01 0.294E+01 -.927E+03   -.500E+01 -.289E+01 0.927E+03   -.840E-01 -.485E-01 0.895E+00   -.306E-01 -.178E-01 -.378E+00
   -.509E+01 0.294E+01 -.927E+03   0.500E+01 -.289E+01 0.927E+03   0.840E-01 -.485E-01 0.895E+00   0.399E-01 -.168E-01 -.377E+00
   0.192E-04 -.172E+02 -.931E+03   0.110E-03 0.172E+02 0.931E+03   0.819E-12 0.125E+00 0.438E+00   0.424E-02 -.268E-01 -.383E+00
   0.537E-04 -.364E-04 -.264E+04   -.114E-03 0.767E-04 0.264E+04   0.117E-17 0.282E-17 0.201E+01   0.234E-03 0.578E-06 -.263E+00
   -.184E+02 -.379E+02 -.264E+04   0.190E+02 0.390E+02 0.264E+04   -.527E+00 -.858E+00 0.206E+01   -.661E-01 -.232E+00 -.411E+00
   0.184E+02 -.379E+02 -.264E+04   -.190E+02 0.390E+02 0.264E+04   0.527E+00 -.858E+00 0.206E+01   0.652E-01 -.231E+00 -.411E+00
   -.420E+02 0.298E+01 -.264E+04   0.432E+02 -.304E+01 0.264E+04   -.101E+01 -.270E-01 0.206E+01   -.234E+00 0.590E-01 -.411E+00
   0.420E+02 0.298E+01 -.264E+04   -.432E+02 -.304E+01 0.264E+04   0.101E+01 -.270E-01 0.206E+01   0.234E+00 0.599E-01 -.410E+00
   -.236E+02 0.349E+02 -.264E+04   0.242E+02 -.359E+02 0.264E+04   -.480E+00 0.885E+00 0.206E+01   -.167E+00 0.173E+00 -.411E+00
   0.236E+02 0.349E+02 -.264E+04   -.242E+02 -.359E+02 0.264E+04   0.480E+00 0.885E+00 0.206E+01   0.169E+00 0.173E+00 -.410E+00
   0.260E-04 -.135E-04 -.265E+04   0.103E-03 -.652E-04 0.265E+04   -.181E-17 -.243E-17 0.203E+01   -.635E-02 -.324E-02 -.279E+00
   -.140E-04 0.143E-05 -.879E+03   0.380E-04 0.429E-05 0.878E+03   0.600E-18 -.229E-18 0.809E+00   0.280E-03 0.174E-03 -.318E+00
   0.448E-04 -.250E-04 -.111E+04   0.173E-04 0.229E-06 0.112E+04   0.467E-18 -.103E-17 -.277E+01   0.545E-03 0.335E-03 -.145E+00
   0.362E-03 -.721E-03 0.121E+02   -.673E-13 0.204E-12 -.409E-11   0.166E-15 0.218E-15 -.399E+01   0.348E-01 0.233E-01 -.816E+01

 POSITION                                       TOTAL-FORCE (eV/Angst)
      0.00000      0.00000      5.28219        -0.000000      0.000000     -0.000281
      2.93046      0.00000      5.28219        -0.009002     -0.012664      0.018270
      5.86091      0.00000      5.28219         0.009002     -0.012664      0.018270
      1.46523      2.53785      5.28219        -0.015469     -0.001464      0.018270
      4.39568      2.53785      5.28219         0.000000      0.000000     -0.008469
      7.32614      2.53785      5.28219         0.015469     -0.001464      0.018270
      2.93046      5.07570      5.28219        -0.006467      0.014128      0.018270
      5.86091      5.07570      5.28219         0.006467      0.014128      0.018270
      8.79137      5.07570      5.28219        -0.000000      0.000000      0.014983
      1.46523      0.84595      7.67490        -0.020746     -0.011978     -0.033514
      4.39568      0.84595      7.67490        -0.000000     -0.009511     -0.067398
      7.32614      0.84595      7.67490         0.020746     -0.011978     -0.033514
      2.93046      3.38380      7.67490        -0.008236      0.004755     -0.067398
      5.86091      3.38380      7.67490         0.008236      0.004755     -0.067398
      8.79137      3.38380      7.67490        -0.000000     -0.005345     -0.003299
      4.39568      5.92165      7.67490         0.000000      0.023955     -0.033514
      7.32614      5.92165      7.67490        -0.004629      0.002673     -0.003299
     10.25659      5.92165      7.67490         0.004629      0.002673     -0.003299
      8.79137      1.69074     10.05145         0.000000      0.039538      0.104950
      2.93556      1.69484     10.04095        -0.123846     -0.071502     -0.097007
      5.85581      1.69484     10.04095         0.123846     -0.071502     -0.097007
     10.25435      4.23104     10.05745         0.018471     -0.010664      0.065604
      4.39568      4.22386     10.04095         0.000000      0.143005     -0.097007
      7.32838      4.23104     10.05745        -0.018471     -0.010664      0.065604
     11.72283      6.76818     10.05145        -0.034241     -0.019769      0.104950
      5.85990      6.76818     10.05145         0.034241     -0.019769      0.104950
      8.79137      6.76501     10.05745         0.000000      0.021328      0.065604
      0.00000      0.00000     12.43413        -0.000000      0.000000     -0.057335
      2.95009      0.02948     12.45917        -0.031828     -0.009390      0.085789
      5.84128      0.02948     12.45917         0.031828     -0.009390      0.085789
      1.50057      2.54011     12.45917        -0.024046     -0.022869      0.085789
      7.29079      2.54011     12.45917         0.024046     -0.022869      0.085789
      2.94617      5.04396     12.45917         0.007782      0.032259      0.085789
      5.84520      5.04396     12.45917        -0.007782      0.032259      0.085789
      8.79137      5.07570     12.45428        -0.000000      0.000000     -0.084719
      4.39568      2.53785     12.30230        -0.000000      0.000000     -0.353189
      4.39568      2.53785     14.09277        -0.000000      0.000000     -0.043355
    total drift:                                0.035160      0.022577     -0.052817

  FREE ENERGIE OF THE ION-ELECTRON SYSTEM (eV)
  free  energy   TOTEN  =      -101.32338036 eV

  energy  without entropy=     -101.32338036  energy(sigma->0) =     -101.32338036

 stress matrix after NEB project (eV)
     -7.78440     -0.00000      0.00000
     -0.00000     -7.78440     -0.00000
      0.00000     -0.00000     -1.01319
  FORCES: max atom, RMS     0.043355    0.007128
  FORCE total and by dimension    0.043355    0.043355
  Stress total and by dimension   11.055328    7.784398
|           W    W    AA    RRRRR   N    N  II  N    N   GGGG   !!!           |
|           W    W   A  A   R    R  NN   N  II  NN   N  G    G  !!!           |
|           W    W  A    A  R    R  N N  N  II  N N  N  G       !!!           |
|           W WW W  AAAAAA  RRRRR   N  N N  II  N  N N  G  GGG   !            |
|           WW  WW  A    A  R   R   N   NN  II  N   NN  G    G                |
|           W    W  A    A  R    R  N    N  II  N    N   GGGG   !!!           |
|     Tetrahedron method does not include variations of the Fermi             |
|     occupations, so forces and stress will be inaccurate. We suggest        |
|     using a different smearing scheme ISMEAR = 1 or 2 for metals in         |
|     relaxations.                                                            |

 total charge

# of ion       s       p       d       tot
    1        0.417   0.203   9.177   9.797
    2        0.415   0.203   9.177   9.795
    3        0.415   0.203   9.177   9.795
    4        0.415   0.203   9.177   9.795
    5        0.421   0.200   9.176   9.797
    6        0.415   0.203   9.177   9.795
    7        0.415   0.203   9.177   9.795
    8        0.415   0.203   9.177   9.795
    9        0.415   0.203   9.177   9.796
   10        0.405   0.271   9.163   9.839
   11        0.407   0.268   9.166   9.841
   12        0.405   0.271   9.163   9.839
   13        0.407   0.268   9.166   9.841
   14        0.407   0.268   9.166   9.841
   15        0.404   0.270   9.163   9.837
   16        0.405   0.271   9.163   9.839
   17        0.404   0.270   9.163   9.837
   18        0.404   0.270   9.163   9.837
   19        0.400   0.268   9.165   9.833
   20        0.425   0.289   9.148   9.862
   21        0.425   0.289   9.148   9.862
   22        0.396   0.273   9.165   9.834
   23        0.425   0.289   9.148   9.862
   24        0.396   0.273   9.165   9.834
   25        0.400   0.268   9.165   9.833
   26        0.400   0.268   9.165   9.833
   27        0.396   0.273   9.165   9.834
   28        0.413   0.197   9.180   9.790
   29        0.425   0.207   9.166   9.798
   30        0.425   0.207   9.166   9.798
   31        0.425   0.207   9.166   9.798
   32        0.425   0.207   9.166   9.798
   33        0.425   0.207   9.166   9.798
   34        0.425   0.207   9.166   9.798
   35        0.414   0.196   9.180   9.789
   36        0.488   0.573   2.771   3.832
   37        0.998   1.195   0.000   2.193
tot         15.922  10.145 323.626 349.693

 BZINTS: Fermi energy:    0.190174;  393.000000 electrons
         Band energy:-0.154494E+04;  BLOECHL correction:   -0.043894