 vasp.6.2.0 18Jan21 (build Jun 12 2021 23:27:24) complex

 executed on             LinuxIFC date 2022.05.28  02:39:56

 INCAR:
   ISMEAR = -5
   SIGMA = 0.1
   ISPIN = 1
   EDIFF = 1.d-5
   EDIFFG = -0.01
   NSW = 0
   NELM = 150
   ENCUT = 500
   ISIF = 2
   IBRION = 2
   LREAL = Auto
   ALGO = Fast
   ICHARG = 11
   LORBIT = 10
   LCHARG = .F.
   LWAVE = .F.

 POTCAR:    PAW_PBE Cu 22Jun2005
 POTCAR:    PAW_PBE Pd 04Jan2005
 POTCAR:    PAW_PBE C 08Apr2002
 POTCAR:    PAW_PBE O 08Apr2002
|           W    W    AA    RRRRR   N    N  II  N    N   GGGG   !!!           |
|           W    W   A  A   R    R  NN   N  II  NN   N  G    G  !!!           |
|           W    W  A    A  R    R  N N  N  II  N N  N  G       !!!           |
|           W WW W  AAAAAA  RRRRR   N  N N  II  N  N N  G  GGG   !            |
|           WW  WW  A    A  R   R   N   NN  II  N   NN  G    G                |
|           W    W  A    A  R    R  N    N  II  N    N   GGGG   !!!           |
|     For optimal performance we recommend to set                             |
|       NCORE = 2 up to number-of-cores-per-socket                            |
|     This setting can greatly improve the performance of VASP for DFT.       |
|     The default, NCORE=1 might be grossly inefficient on modern             |
|     multi-core architectures or massively parallel machines. Do your        |
|     Unfortunately you need to use the default for GW and RPA                |
|     calculations (for HF NCORE is supported but not extensively tested      |
|     yet).                                                                   |

 POTCAR:    PAW_PBE Cu 22Jun2005
   VRHFIN =Cu: d10 p1

   TITEL  = PAW_PBE Cu 22Jun2005
   POMASS =   63.546; ZVAL   =   11.000    mass and valenz
   ENMAX  =  295.446; ENMIN  =  221.585 eV

 POTCAR:    PAW_PBE Pd 04Jan2005
   VRHFIN =Pd : s1 d9

   TITEL  = PAW_PBE Pd 04Jan2005
   POMASS =  106.420; ZVAL   =   10.000    mass and valenz
   ENMAX  =  250.925; ENMIN  =  188.194 eV

 POTCAR:    PAW_PBE C 08Apr2002
   VRHFIN =C: s2p2

   TITEL  = PAW_PBE C 08Apr2002
   POMASS =   12.011; ZVAL   =    4.000    mass and valenz
   ENMAX  =  400.000; ENMIN  =  300.000 eV

 POTCAR:    PAW_PBE O 08Apr2002
   VRHFIN =O: s2p4

   TITEL  = PAW_PBE O 08Apr2002
   POMASS =   16.000; ZVAL   =    6.000    mass and valenz
   ENMAX  =  400.000; ENMIN  =  300.000 eV

 Optimization of the real space projectors (new method)

 maximal supplied QI-value         = 16.25
 optimisation between [QCUT,QGAM] = [ 11.38, 22.75] = [ 36.24,144.96] Ry
 Optimized for a Real-space Cutoff    1.52 Angstroem

   l    n(q)    QCUT    max X(q) W(low)/X(q) W(high)/X(q)  e(spline)
   2      9    11.376     4.610    0.21E-03    0.10E-03    0.26E-06
   2      9    11.376     8.522    0.33E-03    0.16E-03    0.37E-06
   0     10    11.376    51.609    0.62E-04    0.20E-04    0.13E-06
   0     10    11.376    27.747    0.54E-04    0.20E-04    0.13E-06
   1     10    11.376    20.408    0.13E-04    0.99E-04    0.19E-06
   1     10    11.376    13.425    0.12E-04    0.87E-04    0.17E-06
 Optimization of the real space projectors (new method)

[...]

   l    n(q)    QCUT    max X(q) W(low)/X(q) W(high)/X(q)  e(spline)
   0      7    11.310   115.676    0.43E-03    0.13E-02    0.19E-06
   0      7    11.310    87.132    0.43E-03    0.13E-02    0.18E-06
   1      6    11.310     4.429    0.42E-03    0.74E-03    0.11E-06
   1      6    11.310     2.733    0.34E-03    0.55E-03    0.92E-07
 Optimization of the real space projectors (new method)

 maximal supplied QI-value         = 24.76
 optimisation between [QCUT,QGAM] = [ 11.39, 22.77] = [ 36.31,145.25] Ry
 Optimized for a Real-space Cutoff    1.00 Angstroem

   l    n(q)    QCUT    max X(q) W(low)/X(q) W(high)/X(q)  e(spline)
   0      7    11.387    20.381    0.39E-03    0.13E-02    0.15E-06
   0      7    11.387    15.268    0.42E-03    0.14E-02    0.17E-06
   1      6    11.387     5.964    0.41E-03    0.11E-02    0.17E-06
   1      6    11.387     5.382    0.39E-03    0.87E-03    0.15E-06
  PAW_PBE Cu 22Jun2005                  :
  PAW_PBE Pd 04Jan2005                  :
  PAW_PBE C 08Apr2002                   :
  PAW_PBE O 08Apr2002                   :

 POSCAR: Cu-Pd-CO2
  positions in direct lattice
  velocities in cartesian coordinates
 exchange correlation table for  LEXCH =        8
   RHO(1)=    0.500       N(1)  =     2000
   RHO(2)=  100.500       N(2)  =     4000

 VTST: version 3.2, (02/03/18)

 CHAIN: initializing optimizer

 OPT: Using VASP Conjugate-Gradient optimizer
 CHAIN: Read ICHAIN            0

 POSCAR: Cu-Pd-CO2
  positions in direct lattice
  velocities in cartesian coordinates

 ion  position               nearest neighbor table
   1  0.000  0.000  0.229-   7 2.57   3 2.57   4 2.57   2 2.57   6 2.57   8 2.57  12 2.57  10 2.57
                            16 2.57
   2  0.333  0.000  0.229-   8 2.57   9 2.57   5 2.57   1 2.57   3 2.57  11 2.57   4 2.57  10 2.57
                            17 2.57
   3  0.667  0.000  0.229-   1 2.57   7 2.57   6 2.57   9 2.57   2 2.57  12 2.57   5 2.57  18 2.57
                            11 2.57
   4  0.000  0.333  0.229-   5 2.57   6 2.57   1 2.57   7 2.57   2 2.57  13 2.57   9 2.57  10 2.57
                            15 2.57
   5  0.333  0.333  0.229-   4 2.57   2 2.57   7 2.57  13 2.57   8 2.57   6 2.57   3 2.57  11 2.57
                            14 2.57
   6  0.667  0.333  0.229-   4 2.57   9 2.57  15 2.57   3 2.57   1 2.57   8 2.57  14 2.57   5 2.57
                            12 2.57
   7  0.000  0.667  0.229-   1 2.57   3 2.57  16 2.57  18 2.57   4 2.57   5 2.57   8 2.57   9 2.57
                            13 2.57
   8  0.333  0.667  0.229-   9 2.57   2 2.57  17 2.57   6 2.57   1 2.57   7 2.57   5 2.57  14 2.57
                            16 2.57
   9  0.667  0.667  0.229-   8 2.57   6 2.57   2 2.57  17 2.57   3 2.57   7 2.57   4 2.57  15 2.57
                            18 2.57
  10  0.111  0.111  0.318-  20 2.54  26 2.55  19 2.55  11 2.57  12 2.57  13 2.57   1 2.57   2 2.57
                             4 2.57  15 2.57  16 2.57  17 2.57
  11  0.444  0.111  0.318-  20 2.55  21 2.55  27 2.55  10 2.57  13 2.57   2 2.57  17 2.57  14 2.57
                            12 2.57   5 2.57   3 2.57  18 2.57
  12  0.778  0.111  0.318-  21 2.54  19 2.55  25 2.55  15 2.57  10 2.57  14 2.57  18 2.57   3 2.57
                             1 2.57  16 2.57  11 2.57   6 2.57
  13  0.111  0.444  0.318-  23 2.55  20 2.55  22 2.55  16 2.57  18 2.57  10 2.57  11 2.57  14 2.57
                             5 2.57   4 2.57   7 2.57  15 2.57
  14  0.444  0.444  0.318-  21 2.55  23 2.55  24 2.55  15 2.57  17 2.57  12 2.57  16 2.57  13 2.57
                            11 2.57   6 2.57   8 2.57   5 2.57
  15  0.778  0.444  0.318-  19 2.55  24 2.55  22 2.55  14 2.57  17 2.57  12 2.57   6 2.57  18 2.57
                            10 2.57   9 2.57  13 2.57   4 2.57
  16  0.111  0.778  0.318-  23 2.54  25 2.55  26 2.55  18 2.57  13 2.57   7 2.57  14 2.57  17 2.57
                            12 2.57  10 2.57   8 2.57   1 2.57
  17  0.444  0.778  0.318-  26 2.55  27 2.55  24 2.55  14 2.57  15 2.57   8 2.57   9 2.57  11 2.57
                            16 2.57  18 2.57  10 2.57   2 2.57
  18  0.778  0.778  0.318-  25 2.55  22 2.55  27 2.55  16 2.57  13 2.57   7 2.57  15 2.57  12 2.57
                            17 2.57   9 2.57   3 2.57  11 2.57
  19  0.889  0.222  0.407-  32 2.54  31 2.54  28 2.55  15 2.55  12 2.55  10 2.55  21 2.56  20 2.56
                            22 2.56  24 2.56  25 2.57  26 2.57
  20  0.222  0.222  0.407-  10 2.54  11 2.55  13 2.55  26 2.56  19 2.56  27 2.56  22 2.56  29 2.57
                            31 2.57  23 2.58  21 2.58  36 2.62
  21  0.557  0.222  0.407-  12 2.54  14 2.55  11 2.55  19 2.56  25 2.56  24 2.56  27 2.56  32 2.57
                            30 2.57  20 2.58  23 2.58  36 2.62
  22  0.889  0.555  0.407-  35 2.54  31 2.55  33 2.55  13 2.55  18 2.55  15 2.55  23 2.56  20 2.56
                            19 2.56  25 2.56  24 2.57  27 2.57
  23  0.222  0.557  0.407-  16 2.54  13 2.55  14 2.55  25 2.56  26 2.56  22 2.56  24 2.56  33 2.57
                            34 2.57  20 2.58  21 2.58  36 2.62
  24  0.555  0.555  0.407-  35 2.54  32 2.55  34 2.55  14 2.55  15 2.55  17 2.55  21 2.56  23 2.56
                            19 2.56  26 2.56  22 2.57  27 2.57
  25  0.889  0.889  0.407-  33 2.54  30 2.54  28 2.55  18 2.55  16 2.55  12 2.55  21 2.56  23 2.56
                            22 2.56  27 2.56  19 2.57  26 2.57
  26  0.222  0.889  0.407-  29 2.54  34 2.54  28 2.55  17 2.55  10 2.55  16 2.55  20 2.56  23 2.56
                            27 2.56  24 2.56  25 2.57  19 2.57
  27  0.555  0.889  0.407-  35 2.54  29 2.55  30 2.55  11 2.55  17 2.55  18 2.55  20 2.56  21 2.56
                            26 2.56  25 2.56  24 2.57  22 2.57
  28  0.000  0.000  0.495-  25 2.55  19 2.55  26 2.55  33 2.55  30 2.55  31 2.55  29 2.55  32 2.55
                            34 2.55
  29  0.333  0.996  0.495-  34 2.51  26 2.54  28 2.55  27 2.55  35 2.55  20 2.57  31 2.59  36 2.60
                            30 2.60
  30  0.671  0.996  0.495-  33 2.51  25 2.54  28 2.55  27 2.55  35 2.55  21 2.57  32 2.59  36 2.60
                            29 2.60
  31  0.996  0.333  0.495-  32 2.51  19 2.54  28 2.55  22 2.55  35 2.55  20 2.57  29 2.59  36 2.60
                            33 2.60
  32  0.671  0.333  0.495-  31 2.51  19 2.54  28 2.55  24 2.55  35 2.55  21 2.57  30 2.59  36 2.60
                            34 2.60
  33  0.996  0.671  0.495-  30 2.51  25 2.54  28 2.55  22 2.55  35 2.55  23 2.57  34 2.59  36 2.60
                            31 2.60
  34  0.333  0.671  0.495-  29 2.51  26 2.54  28 2.55  24 2.55  35 2.55  23 2.57  33 2.59  36 2.60
                            32 2.60
  35  0.667  0.667  0.495-  24 2.54  27 2.54  22 2.54  34 2.55  32 2.55  29 2.55  30 2.55  33 2.55
                            31 2.55
  36  0.333  0.333  0.498-  31 2.60  29 2.60  33 2.60  34 2.60  32 2.60  30 2.60  23 2.62  20 2.62
                            21 2.62
  37  0.334  0.333  0.651-  39 1.18  38 1.18
  38  0.181  0.333  0.651-  37 1.18
  39  0.486  0.333  0.651-  37 1.18

  LATTYP: Found a hexagonal cell.
 ALAT       =     7.6967864036
 C/A-ratio  =     3.0484540560

  Lattice vectors:

 A1 = (  -3.8483927580,  -6.6656128093,   0.0000000000)
 A2 = (   7.6967864037,   0.0000000000,   0.0000000000)
 A3 = (   0.0000000000,   0.0000000000,  23.4632997305)

Analysis of symmetry for initial positions (statically):
 Subroutine PRICEL returns:
 Original cell was already a primitive cell.

 Routine SETGRP: Setting up the symmetry group for a
 hexagonal supercell.

 Subroutine GETGRP returns: Found  2 space group operations
 (whereof  2 operations were pure point group operations)
 out of a pool of 24 trial point group operations.

The static configuration has the point symmetry C_1h.

Analysis of symmetry for dynamics (positions and initial velocities):
 Subroutine PRICEL returns:
 Original cell was already a primitive cell.

[...]

The dynamic configuration has the point symmetry C_1h.

Analysis of constrained symmetry for selective dynamics:
[...]
     41      -4.1909      2.00000
     42      -4.1290      2.00000
     43      -4.0956      2.00000
     44      -4.0292      2.00000
     45      -3.9274      2.00000
     46      -3.9234      2.00000
     47      -3.8673      2.00000
     48      -3.8490      2.00000
     49      -3.8385      2.00000
     50      -3.8208      2.00000
     51      -3.8070      2.00000
     52      -3.7998      2.00000
     53      -3.7966      2.00000
     54      -3.6020      2.00000
     55      -3.5994      2.00000
     56      -3.5857      2.00000
     57      -3.5763      2.00000
     58      -3.5224      2.00000
     59      -3.5136      2.00000
     60      -3.4986      2.00000
[...]
    238       5.2830      0.00000
    239       5.2947      0.00000
    240       5.4773      0.00000
    241       5.5834      0.00000
    242       5.5967      0.00000
    243       5.8847      0.00000
    244       5.8946      0.00000
    245       6.0616      0.00000
    246       6.1555      0.00000
    247       6.2047      0.00000
    248       6.2632      0.00000
    249       6.3258      0.00000
    250       6.3648      0.00000
    251       6.4233      0.00000
    252       6.5657      0.00000

 soft charge-density along one line, spin component           1
         0         1         2         3         4         5         6         7         8         9
 total charge-density along one line

------------------------ aborting loop because EDIFF is reached ----------------------------------------

 total charge

# of ion       s       p       d       tot
    1        0.447   0.287   9.188   9.922
    2        0.450   0.284   9.189   9.922
    3        0.450   0.284   9.189   9.922
    4        0.450   0.284   9.189   9.923
    5        0.445   0.287   9.186   9.918
    6        0.450   0.284   9.189   9.923
    7        0.450   0.284   9.189   9.923
    8        0.450   0.284   9.189   9.923
    9        0.449   0.283   9.187   9.919
   10        0.441   0.374   9.177   9.993
   11        0.443   0.369   9.181   9.993
   12        0.441   0.374   9.177   9.993
   13        0.443   0.369   9.181   9.993
   14        0.443   0.369   9.181   9.993
   15        0.439   0.371   9.181   9.991
   16        0.441   0.374   9.177   9.993
   17        0.439   0.371   9.181   9.991
   18        0.439   0.371   9.181   9.991
   19        0.444   0.377   9.184  10.004
   20        0.439   0.371   9.184   9.994
   21        0.439   0.371   9.184   9.994
   22        0.441   0.375   9.179   9.994
   23        0.439   0.371   9.184   9.994
   24        0.441   0.375   9.179   9.994
   25        0.445   0.376   9.184  10.005
   26        0.445   0.376   9.184  10.005
   27        0.441   0.375   9.179   9.994
   28        0.454   0.291   9.194   9.939
   29        0.452   0.293   9.192   9.938
   30        0.452   0.293   9.192   9.938
   31        0.452   0.292   9.193   9.936
   32        0.452   0.292   9.193   9.936
   33        0.453   0.293   9.192   9.938
   34        0.453   0.293   9.192   9.938
   35        0.451   0.294   9.193   9.938
   36        0.505   0.378   8.579   9.461
   37        0.932   1.798   0.000   2.730
   38        1.607   3.529   0.000   5.136
   39        1.607   3.529   0.000   5.136
tot         20.252  20.848 330.068 371.168

  FORCE on cell =-STRESS in cart. coord.  units (eV):
  Direction    XX          YY          ZZ          XY          YZ          ZX
  Alpha Z   839.57351   839.57351   839.57351
  Ewald  211815.19817211013.10615************     0.00039     0.11817     0.00017
  Hartree224785.11649224404.29133************     0.00004     0.11963     0.00007
  E(xc)   -2372.78649 -2374.89287 -2379.61885    -0.00029    -0.00018    -0.00003
  Local  ************************448884.07707     0.02033    -0.24695    -0.00073
  n-local  -811.17679  -805.25116  -822.93140     1.74954    -0.00521     0.16510
  augment  3392.23682  3394.95265  3412.09814    -0.01834     0.00197     0.00030
  Kinetic  3545.08004  3610.34132  3635.84358     0.87827     0.00545    -0.13878
  Fock        0.00000     0.00000     0.00000     0.00000     0.00000     0.00000
  Total       0.48814     0.48778     6.14781    -0.00000    -0.00711     0.00000
  in kB       0.64971     0.64922     8.18262    -0.00000    -0.00947     0.00000

 VOLUME and BASIS-vectors are now :
  energy-cutoff  :      500.00
  volume of cell :     1203.76
      direct lattice vectors                 reciprocal lattice vectors
     7.696786404  0.000000000  0.000000000     0.129924354 -0.075011849  0.000000000
     3.848392758  6.665612809  0.000000000     0.000000000  0.150023716  0.000000000
     0.000000000  0.000000000 23.463299730     0.000000000  0.000000000  0.042619751

  length of vectors
     7.696786404  7.696786404 23.463299730     0.150023716  0.150023716  0.042619751

 FORCES acting on ions
    electron-ion (+dipol)            ewald-force                    non-local-force                 convergence-correction
   -.417E-04 0.316E-01 0.374E+04   0.579E-04 -.157E-01 -.374E+04   0.234E-09 -.351E-02 -.232E+01   -.259E-03 -.122E-01 -.991E+00
   -.468E+00 0.420E-01 0.374E+04   0.395E+00 0.263E+00 -.374E+04   -.133E-01 -.983E-01 -.201E+01   0.845E-01 -.202E+00 -.785E+00
   0.468E+00 0.420E-01 0.374E+04   -.395E+00 0.263E+00 -.374E+04   0.133E-01 -.983E-01 -.201E+01   -.837E-01 -.200E+00 -.784E+00
   -.224E+00 -.413E+00 0.374E+04   0.438E+00 0.203E+00 -.374E+04   -.871E-01 0.387E-01 -.201E+01   -.125E+00 0.166E+00 -.763E+00
   -.630E-04 -.169E-02 0.374E+04   0.116E-03 0.219E-03 -.373E+04   0.183E-09 -.275E-02 -.214E+01   0.122E-01 0.460E-02 -.805E+00
   0.224E+00 -.413E+00 0.374E+04   -.438E+00 0.203E+00 -.374E+04   0.871E-01 0.387E-01 -.201E+01   0.123E+00 0.167E+00 -.762E+00
   0.249E+00 0.368E+00 0.374E+04   0.438E-01 -.465E+00 -.374E+04   -.784E-01 0.593E-01 -.201E+01   -.207E+00 0.376E-01 -.773E+00
   -.249E+00 0.368E+00 0.374E+04   -.441E-01 -.465E+00 -.374E+04   0.784E-01 0.593E-01 -.201E+01   0.210E+00 0.362E-01 -.773E+00
   -.144E-03 -.248E-01 0.374E+04   0.263E-03 0.155E-01 -.374E+04   -.318E-09 0.478E-02 -.220E+01   -.133E-01 0.400E-02 -.763E+00
   -.251E+01 -.130E+01 0.134E+04   0.244E+01 0.129E+01 -.134E+04   -.172E-01 -.110E-01 -.829E+00   0.114E+00 0.444E-01 -.965E-01
   -.910E-04 -.320E+01 0.133E+04   0.191E-03 0.314E+01 -.133E+04   0.328E-08 -.492E-01 -.876E+00   0.113E-01 0.899E-01 0.397E-01
   0.251E+01 -.130E+01 0.134E+04   -.244E+01 0.129E+01 -.134E+04   0.172E-01 -.110E-01 -.829E+00   -.116E+00 0.464E-01 -.969E-01
   -.289E+01 0.157E+01 0.133E+04   0.283E+01 -.155E+01 -.133E+04   -.369E-01 0.174E-01 -.876E+00   0.973E-01 -.288E-01 0.491E-01
   0.289E+01 0.157E+01 0.133E+04   -.283E+01 -.155E+01 -.133E+04   0.369E-01 0.174E-01 -.876E+00   -.731E-01 -.293E-01 0.490E-01
   -.140E-03 -.171E+01 0.133E+04   0.298E-03 0.148E+01 -.133E+04   -.340E-08 0.511E-01 -.719E+00   -.380E-02 0.183E+00 -.146E+00
   -.878E-04 0.285E+01 0.134E+04   0.186E-03 -.278E+01 -.134E+04   -.145E-08 0.217E-01 -.819E+00   -.161E-04 -.125E+00 -.969E-01
   -.139E+01 0.757E+00 0.133E+04   0.121E+01 -.656E+00 -.133E+04   0.456E-01 -.241E-01 -.697E+00   0.144E+00 -.817E-01 -.159E+00
   0.139E+01 0.757E+00 0.133E+04   -.121E+01 -.656E+00 -.133E+04   -.456E-01 -.241E-01 -.697E+00   -.143E+00 -.792E-01 -.160E+00
   -.595E-04 -.122E+01 -.108E+04   0.686E-04 0.105E+01 0.108E+04   0.287E-08 -.432E-01 0.581E+00   0.955E-02 0.202E+00 0.190E-01
   -.276E+02 -.153E+02 -.111E+04   0.271E+02 0.150E+02 0.111E+04   0.820E-01 0.470E-01 0.380E+00   0.401E+00 0.224E+00 0.112E+00
   0.276E+02 -.153E+02 -.111E+04   -.271E+02 0.150E+02 0.111E+04   -.820E-01 0.470E-01 0.380E+00   -.378E+00 0.227E+00 0.112E+00
   -.123E+02 0.625E+01 -.109E+04   0.120E+02 -.604E+01 0.109E+04   0.211E+00 -.133E+00 0.748E+00   0.138E+00 -.688E-01 0.457E-01
   -.801E-04 0.309E+02 -.111E+04   0.149E-03 -.304E+02 0.111E+04   0.691E-08 -.104E+00 0.387E+00   0.119E-01 -.427E+00 0.116E+00
   0.123E+02 0.625E+01 -.109E+04   -.120E+02 -.604E+01 0.109E+04   -.211E+00 -.133E+00 0.748E+00   -.141E+00 -.681E-01 0.457E-01
   0.151E+01 0.120E+01 -.108E+04   -.138E+01 -.112E+01 0.108E+04   0.431E-01 0.214E-01 0.561E+00   -.160E+00 -.993E-01 0.246E-01
   -.151E+01 0.120E+01 -.108E+04   0.138E+01 -.112E+01 0.108E+04   -.431E-01 0.214E-01 0.561E+00   0.183E+00 -.101E+00 0.251E-01
   -.131E-03 -.140E+02 -.109E+04   0.246E-03 0.135E+02 0.109E+04   -.168E-07 0.252E+00 0.753E+00   -.282E-02 0.156E+00 0.510E-01
   -.211E-04 0.500E+01 -.350E+04   0.400E-04 -.498E+01 0.350E+04   0.142E-09 -.213E-02 0.220E+01   0.128E-03 -.186E-01 0.912E+00
   -.174E+02 -.221E+02 -.349E+04   0.174E+02 0.219E+02 0.349E+04   -.570E-01 0.167E+00 0.204E+01   0.448E-01 0.309E-01 0.753E+00
   0.174E+02 -.221E+02 -.349E+04   -.174E+02 0.219E+02 0.349E+04   0.570E-01 0.167E+00 0.204E+01   -.444E-01 0.335E-01 0.754E+00
   -.307E+02 -.920E+00 -.348E+04   0.304E+02 0.102E+01 0.348E+04   0.153E+00 -.120E+00 0.219E+01   0.691E-01 0.214E-01 0.729E+00
   0.307E+02 -.920E+00 -.348E+04   -.304E+02 0.102E+01 0.348E+04   -.153E+00 -.120E+00 0.219E+01   -.704E-01 0.229E-01 0.728E+00
   -.160E+02 0.230E+02 -.349E+04   0.158E+02 -.229E+02 0.349E+04   0.152E+00 -.481E-01 0.204E+01   0.195E-01 -.535E-01 0.746E+00
   0.160E+02 0.230E+02 -.349E+04   -.158E+02 -.229E+02 0.349E+04   -.152E+00 -.481E-01 0.204E+01   -.158E-01 -.545E-01 0.745E+00
   -.149E-03 -.492E+01 -.350E+04   0.257E-03 0.492E+01 0.350E+04   -.428E-09 0.643E-02 0.244E+01   -.135E-01 0.416E-02 0.721E+00
   -.601E-04 -.994E-01 -.315E+04   0.120E-03 0.923E-01 0.315E+04   -.116E-09 0.174E-02 0.279E+01   0.391E-02 0.742E-02 0.611E+00
   -.191E-04 0.412E+00 -.117E+04   0.573E-06 -.412E+00 0.117E+04   -.464E-09 0.696E-02 0.129E-01   0.471E-04 -.102E-02 -.232E-01
   0.257E+03 -.160E+00 -.176E+04   -.321E+03 0.220E+00 0.176E+04   0.637E+02 -.533E-01 -.215E+00   0.319E-01 -.274E-02 -.310E-01
   -.257E+03 -.160E+00 -.176E+04   0.321E+03 0.220E+00 0.176E+04   -.637E+02 -.533E-01 -.215E+00   -.319E-01 -.270E-02 -.311E-01
   0.133E-04 0.991E-01 0.184E+01   0.114E-12 0.760E-13 0.109E-10   0.897E-08 -.135E+00 -.126E+01   0.860E-01 0.517E-01 -.651E+00

 POSITION                                       TOTAL-FORCE (eV/Angst)
      0.00000      0.00000      5.37156         0.000000     -0.000167      0.122196
      2.56560      0.00000      5.37156        -0.002259      0.005145      0.080263
      5.13119      0.00000      5.37156         0.002259      0.005145      0.080263
      1.28280      2.22187      5.37156         0.003298     -0.005282      0.079991
      3.84839      2.22187      5.37156         0.000000     -0.000035      0.072930
      6.41399      2.22187      5.37156        -0.003298     -0.005282      0.079991
      2.56560      4.44374      5.37156         0.005843     -0.001319      0.080144
      5.13119      4.44374      5.37156        -0.005843     -0.001319      0.080144
      7.69679      4.44374      5.37156         0.000000     -0.001007      0.072549
      1.28280      0.74062      7.46636         0.030443      0.018987     -0.107395
      3.84839      0.74062      7.46636         0.000000     -0.017443     -0.117863
      6.41399      0.74062      7.46636        -0.030443      0.018987     -0.107395
      2.56560      2.96249      7.46636        -0.016251      0.008920     -0.117599
      5.13119      2.96249      7.46636         0.016251      0.008920     -0.117599
      7.69679      2.96249      7.46636        -0.000000      0.005289     -0.071769
      3.84839      5.18437      7.46636         0.000000     -0.037135     -0.107211
      6.41399      5.18437      7.46636         0.005641     -0.004825     -0.070594
      8.97958      5.18437      7.46636        -0.005641     -0.004825     -0.070594
      7.69679      1.48223      9.53996         0.000000     -0.004693      0.006021
      2.55948      1.47772      9.53985        -0.016331     -0.010099     -0.002755
      5.13731      1.47772      9.53985         0.016331     -0.010099     -0.002755
      8.98047      3.70261      9.54732        -0.011444      0.005902      0.005605
      3.84839      3.71018      9.53985        -0.000000      0.017712     -0.001840
      6.41310      3.70261      9.54732         0.011444      0.005902      0.005605
     10.26153      5.92450      9.53996         0.003314      0.002858      0.000931
      5.13204      5.92450      9.53996        -0.003314      0.002858      0.000931
      7.69679      5.92601      9.54732         0.000000     -0.013268      0.003948
      0.00000      0.00000     11.61018         0.000000     -0.003684      0.002521
      6.39795      6.64100     11.62214         0.004159     -0.004802      0.019915
      8.99562      6.64100     11.62214        -0.004159     -0.004802      0.019915
      8.95025      2.22029     11.62214        -0.000464      0.002516      0.027956
      6.44333      2.22029     11.62214         0.000464      0.002516      0.027956
     10.24908      4.46994     11.62214         0.000501      0.001033      0.020452
      5.14449      4.46994     11.62214        -0.000501      0.001033      0.020452
      7.69679      4.44374     11.61116        -0.000000      0.002371     -0.000107
      3.84839      2.22187     11.69545        -0.000000      0.001621     -0.009894
      3.84839      2.21793     15.27845        -0.000000      0.005493     -0.000949
      2.67134      2.21892     15.28398         0.005486      0.003440     -0.002180
      5.02545      2.21892     15.28398        -0.005486      0.003440     -0.002180
    total drift:                                0.086033      0.016135     -0.069998

  FREE ENERGIE OF THE ION-ELECTRON SYSTEM (eV)
  free  energy   TOTEN  =      -150.78561598 eV

  energy  without entropy=     -150.78561598  energy(sigma->0) =     -150.78561598

 stress matrix after NEB project (eV)
      0.48814     -0.00000      0.00000
     -0.00000      0.48778     -0.00711
      0.00000     -0.00711      6.14781
  FORCES: max atom, RMS     0.006832    0.001786
  FORCE total and by dimension    0.011155    0.005493
  Stress total and by dimension    6.186424    6.147807
|           W    W    AA    RRRRR   N    N  II  N    N   GGGG   !!!           |
|           W    W   A  A   R    R  NN   N  II  NN   N  G    G  !!!           |
|           W    W  A    A  R    R  N N  N  II  N N  N  G       !!!           |
|           W WW W  AAAAAA  RRRRR   N  N N  II  N  N N  G  GGG   !            |
|           WW  WW  A    A  R   R   N   NN  II  N   NN  G    G                |
|           W    W  A    A  R    R  N    N  II  N    N   GGGG   !!!           |
|     Tetrahedron method does not include variations of the Fermi             |
|     occupations, so forces and stress will be inaccurate. We suggest        |
|     using a different smearing scheme ISMEAR = 1 or 2 for metals in         |
|     relaxations.                                                            |

 total charge

# of ion       s       p       d       tot
    1        0.447   0.287   9.188   9.922
    2        0.450   0.284   9.189   9.922
    3        0.450   0.284   9.189   9.922
    4        0.450   0.284   9.189   9.923
    5        0.445   0.287   9.186   9.918
    6        0.450   0.284   9.189   9.923
    7        0.450   0.284   9.189   9.923
    8        0.450   0.284   9.189   9.923
    9        0.449   0.283   9.187   9.919
   10        0.441   0.374   9.177   9.993
   11        0.443   0.369   9.181   9.993
   12        0.441   0.374   9.177   9.993
   13        0.443   0.369   9.181   9.993
   14        0.443   0.369   9.181   9.993
   15        0.439   0.371   9.181   9.991
   16        0.441   0.374   9.177   9.993
   17        0.439   0.371   9.181   9.991
   18        0.439   0.371   9.181   9.991
   19        0.444   0.377   9.184  10.004
   20        0.439   0.371   9.184   9.994
   21        0.439   0.371   9.184   9.994
   22        0.441   0.375   9.179   9.994
   23        0.439   0.371   9.184   9.994
   24        0.441   0.375   9.179   9.994
   25        0.445   0.376   9.184  10.005
   26        0.445   0.376   9.184  10.005
   27        0.441   0.375   9.179   9.994
   28        0.454   0.291   9.194   9.939
   29        0.452   0.293   9.192   9.938
   30        0.452   0.293   9.192   9.938
   31        0.452   0.292   9.193   9.936
   32        0.452   0.292   9.193   9.936
   33        0.453   0.293   9.192   9.938
   34        0.453   0.293   9.192   9.938
   35        0.451   0.294   9.193   9.938
   36        0.505   0.378   8.579   9.461
   37        0.932   1.798   0.000   2.730
   38        1.607   3.529   0.000   5.136
   39        1.607   3.529   0.000   5.136
tot         20.252  20.848 330.068 371.168

 BZINTS: Fermi energy:   -0.180138;  411.000000 electrons
         Band energy:-0.133726E+04;  BLOECHL correction:   -0.074684