 vasp.6.2.0 18Jan21 (build Jun 12 2021 23:27:24) complex

 executed on             LinuxIFC date 2022.05.27  05:47:51

 INCAR:
   ISMEAR = -5
   SIGMA = 0.1
   ISPIN = 1
   EDIFF = 1.d-5
   EDIFFG = -0.01
   NSW = 0
   NELM = 150
   ENCUT = 500
   ISIF = 2
   IBRION = 2
   LREAL = Auto
   ALGO = Fast
   ICHARG = 11
   LORBIT = 10
   LCHARG = .F.
   LWAVE = .F.

 POTCAR:    PAW_PBE Ag 02Apr2005
 POTCAR:    PAW_PBE Ta 17Jan2003
 POTCAR:    PAW_PBE C 08Apr2002
 POTCAR:    PAW_PBE O 08Apr2002
|           W    W    AA    RRRRR   N    N  II  N    N   GGGG   !!!           |
|           W    W   A  A   R    R  NN   N  II  NN   N  G    G  !!!           |
|           W    W  A    A  R    R  N N  N  II  N N  N  G       !!!           |
|           W WW W  AAAAAA  RRRRR   N  N N  II  N  N N  G  GGG   !            |
|           WW  WW  A    A  R   R   N   NN  II  N   NN  G    G                |
|           W    W  A    A  R    R  N    N  II  N    N   GGGG   !!!           |
|     For optimal performance we recommend to set                             |
|       NCORE = 2 up to number-of-cores-per-socket                            |
|     This setting can greatly improve the performance of VASP for DFT.       |
|     The default, NCORE=1 might be grossly inefficient on modern             |
|     multi-core architectures or massively parallel machines. Do your        |
|     Unfortunately you need to use the default for GW and RPA                |
|     calculations (for HF NCORE is supported but not extensively tested      |
|     yet).                                                                   |

 POTCAR:    PAW_PBE Ag 02Apr2005
   VRHFIN =Ag : s1 d10

   TITEL  = PAW_PBE Ag 02Apr2005
   POMASS =  107.868; ZVAL   =   11.000    mass and valenz
   ENMAX  =  249.844; ENMIN  =  187.383 eV

 POTCAR:    PAW_PBE Ta 17Jan2003
   VRHFIN =Ta:  6s5d

   TITEL  = PAW_PBE Ta 17Jan2003
   POMASS =  180.948; ZVAL   =    5.000    mass and valenz
   ENMAX  =  223.667; ENMIN  =  167.750 eV

 POTCAR:    PAW_PBE C 08Apr2002
   VRHFIN =C: s2p2

[...]

 POTCAR:    PAW_PBE O 08Apr2002
   VRHFIN =O: s2p4

   TITEL  = PAW_PBE O 08Apr2002
   POMASS =   16.000; ZVAL   =    6.000    mass and valenz
   ENMAX  =  400.000; ENMIN  =  300.000 eV

 Optimization of the real space projectors (new method)

 maximal supplied QI-value         = 15.12
 optimisation between [QCUT,QGAM] = [ 11.34, 22.83] = [ 36.00,145.93] Ry
 Optimized for a Real-space Cutoff    1.43 Angstroem

   l    n(q)    QCUT    max X(q) W(low)/X(q) W(high)/X(q)  e(spline)
   2      9    11.338    53.897    0.16E-03    0.20E-03    0.28E-06
   2      9    11.338    52.416    0.16E-03    0.20E-03    0.29E-06
   0     10    11.338   122.045    0.31E-04    0.76E-04    0.15E-06
   0     10    11.338    73.629    0.30E-04    0.72E-04    0.15E-06
   1      9    11.338    15.255    0.20E-03    0.19E-04    0.17E-06
   1      9    11.338     9.562    0.16E-03    0.15E-04    0.14E-06
 Optimization of the real space projectors (new method)

[...]

   l    n(q)    QCUT    max X(q) W(low)/X(q) W(high)/X(q)  e(spline)
   0      7    11.310   115.676    0.43E-03    0.13E-02    0.19E-06
   0      7    11.310    87.132    0.43E-03    0.13E-02    0.18E-06
   1      6    11.310     4.429    0.42E-03    0.74E-03    0.11E-06
   1      6    11.310     2.733    0.34E-03    0.55E-03    0.92E-07
 Optimization of the real space projectors (new method)

 maximal supplied QI-value         = 24.76
 optimisation between [QCUT,QGAM] = [ 11.39, 22.77] = [ 36.31,145.25] Ry
 Optimized for a Real-space Cutoff    1.00 Angstroem

   l    n(q)    QCUT    max X(q) W(low)/X(q) W(high)/X(q)  e(spline)
   0      7    11.387    20.381    0.39E-03    0.13E-02    0.15E-06
   0      7    11.387    15.268    0.42E-03    0.14E-02    0.17E-06
   1      6    11.387     5.964    0.41E-03    0.11E-02    0.17E-06
   1      6    11.387     5.382    0.39E-03    0.87E-03    0.15E-06
  PAW_PBE Ag 02Apr2005                  :
  PAW_PBE Ta 17Jan2003                  :
  PAW_PBE C 08Apr2002                   :
  PAW_PBE O 08Apr2002                   :

 POSCAR: Ag-Ta-CO
  positions in direct lattice
  velocities in cartesian coordinates
 exchange correlation table for  LEXCH =        8
   RHO(1)=    0.500       N(1)  =     2000
   RHO(2)=  100.500       N(2)  =     4000

 VTST: version 3.2, (02/03/18)

 CHAIN: initializing optimizer

 OPT: Using VASP Conjugate-Gradient optimizer
 CHAIN: Read ICHAIN            0

 POSCAR: Ag-Ta-CO
  positions in direct lattice
  velocities in cartesian coordinates

 ion  position               nearest neighbor table
   1  0.000  0.000  0.238-   2 2.93   8 2.93   7 2.93   6 2.93   4 2.93  12 2.93  16 2.93  10 2.93
                             3 2.93
   2  0.333  0.000  0.238-   1 2.93   8 2.93   9 2.93   3 2.93   4 2.93   5 2.93  10 2.93  17 2.93
                            11 2.93
   3  0.667  0.000  0.238-   9 2.93   2 2.93   5 2.93  11 2.93   7 2.93  18 2.93   1 2.93   6 2.93
                            12 2.93
   4  0.000  0.333  0.238-   5 2.93   6 2.93   2 2.93   1 2.93   7 2.93  13 2.93  15 2.93   9 2.93
                            10 2.93
   5  0.333  0.333  0.238-   4 2.93   3 2.93   7 2.93   2 2.93   8 2.93  14 2.93  13 2.93  11 2.93
                             6 2.93
   6  0.667  0.333  0.238-   4 2.93   9 2.93   1 2.93  15 2.93   8 2.93  12 2.93   3 2.93   5 2.93
                            14 2.93
   7  0.000  0.667  0.238-   8 2.93   1 2.93   5 2.93   3 2.93   4 2.93  16 2.93  18 2.93  13 2.93
                             9 2.93
   8  0.333  0.667  0.238-   7 2.93   1 2.93   2 2.93   9 2.93   5 2.93  16 2.93   6 2.93  17 2.93
                            14 2.93
   9  0.667  0.667  0.238-   3 2.93   2 2.93   8 2.93   6 2.93  17 2.93   4 2.93  15 2.93   7 2.93
                            18 2.93
  10  0.111  0.111  0.346-  20 2.89  12 2.93  16 2.93  15 2.93  17 2.93  13 2.93  11 2.93   2 2.93
                             1 2.93   4 2.93  19 2.93  26 2.93
  11  0.444  0.111  0.346-  21 2.90  20 2.90  14 2.93  17 2.93  18 2.93   3 2.93  12 2.93  13 2.93
                            10 2.93   5 2.93   2 2.93  27 2.93
  12  0.778  0.111  0.346-  21 2.89  10 2.93  16 2.93  18 2.93  15 2.93  11 2.93   1 2.93  14 2.93
                             6 2.93   3 2.93  25 2.93  19 2.93
  13  0.111  0.444  0.346-  20 2.90  23 2.90  15 2.93  14 2.93  18 2.93  10 2.93  11 2.93  16 2.93
                             4 2.93   5 2.93   7 2.93  22 2.93
  14  0.444  0.444  0.346-  23 2.90  21 2.90  13 2.93  11 2.93  16 2.93   5 2.93  12 2.93  17 2.93
                             8 2.93  15 2.93   6 2.93  24 2.93
  15  0.778  0.444  0.346-  19 2.93  24 2.93  22 2.93  13 2.93  10 2.93  12 2.93  17 2.93  18 2.93
                             4 2.93   6 2.93   9 2.93  14 2.93
  16  0.111  0.778  0.346-  23 2.89  18 2.93  12 2.93  10 2.93  14 2.93  17 2.93  13 2.93   7 2.93
                             8 2.93   1 2.93  26 2.93  25 2.93
  17  0.444  0.778  0.346-  26 2.93  27 2.93  24 2.93  11 2.93  10 2.93   9 2.93  18 2.93  15 2.93
                            16 2.93   2 2.93  14 2.93   8 2.93
  18  0.778  0.778  0.346-  25 2.93  22 2.93  27 2.93  16 2.93  12 2.93  13 2.93  11 2.93  17 2.93
                            15 2.93   7 2.93   3 2.93   9 2.93
  19  0.889  0.223  0.454-  20 2.92  21 2.92  24 2.93  22 2.93  28 2.93  15 2.93  10 2.93  12 2.93
                            26 2.94  25 2.94  32 2.99  31 2.99
  20  0.222  0.222  0.452-  36 2.78  10 2.89  13 2.90  11 2.90  19 2.92  26 2.92  27 2.93  22 2.93
                            21 2.95  23 2.95  31 2.97  29 2.97
  21  0.557  0.222  0.452-  36 2.78  12 2.89  11 2.90  14 2.90  25 2.92  19 2.92  27 2.93  24 2.93
                            20 2.95  23 2.95  30 2.97  32 2.97
  22  0.888  0.556  0.454-  24 2.92  27 2.92  25 2.93  19 2.93  18 2.93  15 2.93  13 2.93  23 2.93
                            20 2.93  35 2.94  33 2.96  31 2.96
  23  0.222  0.557  0.452-  36 2.78  16 2.89  14 2.90  13 2.90  26 2.92  25 2.92  22 2.93  24 2.93
                            21 2.95  20 2.95  34 2.97  33 2.97
  24  0.556  0.556  0.454-  27 2.92  22 2.92  19 2.93  26 2.93  15 2.93  17 2.93  14 2.93  23 2.93
                            21 2.93  35 2.94  32 2.96  34 2.96
  25  0.889  0.889  0.454-  23 2.92  21 2.92  22 2.93  27 2.93  28 2.93  18 2.93  16 2.93  12 2.93
                            26 2.94  19 2.94  33 2.99  30 2.99
  26  0.223  0.889  0.454-  23 2.92  20 2.92  27 2.93  24 2.93  28 2.93  17 2.93  16 2.93  10 2.93
                            25 2.94  19 2.94  34 2.99  29 2.99
  27  0.556  0.888  0.454-  24 2.92  22 2.92  26 2.93  25 2.93  17 2.93  18 2.93  11 2.93  20 2.93
                            21 2.93  35 2.94  29 2.96  30 2.96
  28  0.000  0.000  0.562-  26 2.93  25 2.93  19 2.93  29 2.96  34 2.96  33 2.96  32 2.96  31 2.96
                            30 2.96
  29  0.334  0.006  0.564-  30 2.88  31 2.88  36 2.89  35 2.96  28 2.96  27 2.96  20 2.97  26 2.99
                            34 3.03
  30  0.661  0.006  0.564-  29 2.88  32 2.88  36 2.89  35 2.96  28 2.96  27 2.96  21 2.97  25 2.99
                            33 3.03
  31  0.006  0.334  0.564-  33 2.88  29 2.88  36 2.89  35 2.96  28 2.96  22 2.96  20 2.97  19 2.99
                            32 3.03
  32  0.661  0.334  0.564-  34 2.88  30 2.88  36 2.89  35 2.96  28 2.96  24 2.96  21 2.97  19 2.99
                            31 3.03
  33  0.006  0.661  0.564-  31 2.88  34 2.88  36 2.89  35 2.96  28 2.96  22 2.96  23 2.97  25 2.99
                            30 3.03
  34  0.334  0.661  0.564-  32 2.88  33 2.88  36 2.89  35 2.96  28 2.96  24 2.96  23 2.97  26 2.99
                            29 3.03
  35  0.667  0.667  0.562-  24 2.94  27 2.94  22 2.94  30 2.96  32 2.96  29 2.96  34 2.96  31 2.96
                            33 2.96
  36  0.333  0.333  0.551-  37 2.06  21 2.78  20 2.78  23 2.78  31 2.89  33 2.89  30 2.89  29 2.89
                            34 2.89  32 2.89
  37  0.333  0.333  0.644-  38 1.17  36 2.06
  38  0.333  0.333  0.697-  37 1.17

  LATTYP: Found a hexagonal cell.
 ALAT       =     8.7913665772
 C/A-ratio  =     2.5227160501

  Lattice vectors:

 A1 = (  -4.3956832886,  -7.6135467898,   0.0000000000)
 A2 = (   8.7913665771,   0.0000000000,   0.0000000000)
 A3 = (   0.0000000000,   0.0000000000,  22.1781215668)

Analysis of symmetry for initial positions (statically):
 Subroutine PRICEL returns:
 Original cell was already a primitive cell.

 Routine SETGRP: Setting up the symmetry group for a
 hexagonal supercell.

 Subroutine GETGRP returns: Found  6 space group operations
 (whereof  6 operations were pure point group operations)
 out of a pool of 24 trial point group operations.

The static configuration has the point symmetry C_3v.

Analysis of symmetry for dynamics (positions and initial velocities):
 Subroutine PRICEL returns:
 Original cell was already a primitive cell.

[...]

The dynamic configuration has the point symmetry C_3v.

Analysis of constrained symmetry for selective dynamics:
 Subroutine PRICEL returns:
 Original cell was already a primitive cell.

 Routine SETGRP: Setting up the symmetry group for a
 hexagonal supercell.

[...]
     33      -4.6343      2.00000
     34      -4.6182      2.00000
     35      -4.5962      2.00000
     36      -4.5640      2.00000
     37      -4.5574      2.00000
     38      -4.5407      2.00000
     39      -4.4999      2.00000
     40      -4.4952      2.00000
     41      -4.4779      2.00000
     42      -4.4286      2.00000
     43      -4.4139      2.00000
     44      -4.3967      2.00000
     45      -4.3888      2.00000
     46      -4.3825      2.00000
     47      -4.3706      2.00000
     48      -4.2783      2.00000
     49      -4.2568      2.00000
     50      -4.2475      2.00000
     51      -4.2350      2.00000
     52      -4.2282      2.00000
     53      -4.2255      2.00000
     54      -4.2225      2.00000
     55      -4.2198      2.00000
     56      -4.2062      2.00000
     57      -4.1990      2.00000
     58      -4.1352      2.00000
     59      -4.1316      2.00000
     60      -4.1198      2.00000
[...]
    238       6.0957      0.00000
    239       6.1384      0.00000
    240       6.1904      0.00000
    241       6.3107      0.00000
    242       6.4024      0.00000
    243       6.4135      0.00000
    244       7.1811      0.00000
    245       7.2462      0.00000
    246       7.2712      0.00000
    247       7.4057      0.00000
    248       7.4194      0.00000
    249       7.4411      0.00000
    250       7.4461      0.00000
    251       7.6243      0.00000
    252       7.6828      0.00000

 soft charge-density along one line, spin component           1
         0         1         2         3         4         5         6         7         8         9
 total charge-density along one line

------------------------ aborting loop because EDIFF is reached ----------------------------------------

 total charge

# of ion       s       p       d       tot
    1        0.420   0.199   9.179   9.797
    2        0.413   0.204   9.178   9.794
    3        0.413   0.204   9.178   9.794
    4        0.413   0.204   9.178   9.794
    5        0.424   0.200   9.174   9.799
    6        0.413   0.204   9.178   9.794
    7        0.413   0.204   9.178   9.794
    8        0.413   0.204   9.178   9.794
    9        0.416   0.201   9.179   9.795
   10        0.411   0.269   9.160   9.840
   11        0.408   0.266   9.169   9.843
   12        0.411   0.269   9.160   9.840
   13        0.408   0.266   9.169   9.843
   14        0.408   0.266   9.169   9.843
   15        0.403   0.268   9.163   9.834
   16        0.411   0.269   9.160   9.840
   17        0.403   0.268   9.163   9.834
   18        0.403   0.268   9.163   9.834
   19        0.401   0.263   9.165   9.829
   20        0.450   0.306   9.131   9.887
   21        0.450   0.306   9.131   9.887
   22        0.392   0.270   9.167   9.829
   23        0.450   0.306   9.131   9.887
   24        0.392   0.270   9.167   9.829
   25        0.401   0.263   9.165   9.829
   26        0.401   0.263   9.165   9.829
   27        0.392   0.270   9.167   9.829
   28        0.404   0.198   9.177   9.779
   29        0.442   0.219   9.151   9.811
   30        0.442   0.219   9.151   9.811
   31        0.442   0.219   9.151   9.811
   32        0.442   0.219   9.151   9.811
   33        0.442   0.219   9.151   9.811
   34        0.442   0.219   9.151   9.811
   35        0.404   0.197   9.179   9.780
   36        0.641   0.631   3.152   4.423
   37        0.963   1.542   0.000   2.505
   38        1.611   3.529   0.000   5.140
tot         17.804  14.159 323.881 355.843

  FORCE on cell =-STRESS in cart. coord.  units (eV):
  Direction    XX          YY          ZZ          XY          YZ          ZX
  Alpha Z   770.91865   770.91865   770.91865
  Ewald  116003.68869116003.68864************     0.00002    -0.00001     0.00003
  Hartree126264.03561126264.03558************     0.00001    -0.00000     0.00001
  E(xc)   -2094.56929 -2094.56935 -2101.23122     0.00005     0.00000    -0.00000
  Local  ************************252986.43396     0.00054    -0.00005    -0.00016
  n-local  -349.67734  -332.01015  -350.44278    10.04399    -0.41940     0.49524
  augment  3226.61119  3226.61133  3241.31353    -0.00015     0.00003    -0.00001
  Kinetic  5010.65675  5012.49206  5027.88787     3.27925     0.46481     0.10203
  Fock        0.00000     0.00000     0.00000     0.00000     0.00000     0.00000
  Total      -9.00281    -9.00281     0.25294    -0.00000     0.00000    -0.00000
  in kB      -9.71674    -9.71674     0.27300    -0.00000     0.00000    -0.00000

 VOLUME and BASIS-vectors are now :
  energy-cutoff  :      500.00
  volume of cell :     1484.46
      direct lattice vectors                 reciprocal lattice vectors
     8.791366577  0.000000000  0.000000000     0.113747958 -0.065672414  0.000000000
     4.395683289  7.613546790  0.000000000     0.000000000  0.131344829  0.000000000
     0.000000000  0.000000000 22.178121567     0.000000000  0.000000000  0.045089481

  length of vectors
     8.791366577  8.791366577 22.178121567     0.131344829  0.131344829  0.045089481

 FORCES acting on ions
    electron-ion (+dipol)            ewald-force                    non-local-force                 convergence-correction
   0.459E-04 -.283E-04 0.249E+04   -.953E-04 0.593E-04 -.249E+04   -.733E-19 0.196E-18 -.197E+01   -.115E-03 -.127E-03 0.186E+00
   -.620E-01 0.983E-01 0.249E+04   -.983E-02 -.241E+00 -.249E+04   0.111E+00 0.234E+00 -.157E+01   -.364E-01 -.929E-01 0.280E+00
   0.621E-01 0.983E-01 0.249E+04   0.995E-02 -.241E+00 -.249E+04   -.111E+00 0.234E+00 -.157E+01   0.359E-01 -.910E-01 0.281E+00
   0.542E-01 -.103E+00 0.249E+04   -.214E+00 0.112E+00 -.249E+04   0.258E+00 -.211E-01 -.157E+01   -.985E-01 0.151E-01 0.280E+00
   -.612E-05 -.192E-04 0.249E+04   0.980E-04 -.197E-05 -.249E+04   0.178E-17 0.148E-17 -.902E+00   0.622E-02 0.379E-02 0.447E+00
   -.542E-01 -.103E+00 0.249E+04   0.214E+00 0.112E+00 -.249E+04   -.258E+00 -.211E-01 -.157E+01   0.972E-01 0.160E-01 0.281E+00
   0.116E+00 0.450E-02 0.249E+04   -.204E+00 0.129E+00 -.249E+04   0.147E+00 -.213E+00 -.157E+01   -.605E-01 0.771E-01 0.281E+00
   -.116E+00 0.456E-02 0.249E+04   0.204E+00 0.129E+00 -.249E+04   -.147E+00 -.213E+00 -.157E+01   0.621E-01 0.761E-01 0.281E+00
   0.368E-04 -.128E-04 0.249E+04   0.792E-04 -.643E-04 -.249E+04   0.375E-18 -.104E-17 -.179E+01   -.664E-02 -.344E-02 0.256E+00
   0.282E+01 0.163E+01 0.838E+03   -.242E+01 -.140E+01 -.837E+03   -.402E+00 -.232E+00 -.740E+00   -.491E-01 -.282E-01 -.754E-01
   -.282E-04 0.182E+01 0.836E+03   0.400E-04 -.181E+01 -.836E+03   0.690E-12 0.105E+00 -.898E-01   0.620E-02 -.142E+00 -.976E-01
   -.282E+01 0.163E+01 0.838E+03   0.242E+01 -.140E+01 -.837E+03   0.402E+00 -.232E+00 -.740E+00   0.475E-01 -.272E-01 -.756E-01
   0.157E+01 -.909E+00 0.836E+03   -.157E+01 0.907E+00 -.836E+03   0.911E-01 -.526E-01 -.898E-01   -.120E+00 0.764E-01 -.972E-01
   -.157E+01 -.909E+00 0.836E+03   0.157E+01 0.907E+00 -.836E+03   -.911E-01 -.526E-01 -.898E-01   0.131E+00 0.754E-01 -.986E-01
   0.154E-04 -.499E+00 0.836E+03   -.108E-03 0.294E+00 -.835E+03   0.684E-12 0.104E+00 -.745E+00   -.156E-02 0.689E-01 -.655E-01
   -.779E-05 -.326E+01 0.838E+03   0.205E-04 0.279E+01 -.837E+03   0.305E-11 0.464E+00 -.740E+00   -.175E-03 0.549E-01 -.763E-01
   -.432E+00 0.249E+00 0.836E+03   0.255E+00 -.147E+00 -.835E+03   0.902E-01 -.521E-01 -.745E+00   0.591E-01 -.358E-01 -.657E-01
   0.432E+00 0.249E+00 0.836E+03   -.255E+00 -.147E+00 -.835E+03   -.902E-01 -.521E-01 -.745E+00   -.590E-01 -.341E-01 -.648E-01
   0.376E-04 -.419E+01 -.830E+03   -.126E-03 0.421E+01 0.830E+03   0.340E-12 0.518E-01 0.903E+00   0.429E-02 -.637E-01 -.237E+00
   -.224E+02 -.129E+02 -.830E+03   0.239E+02 0.138E+02 0.832E+03   -.134E+01 -.774E+00 -.127E+01   -.350E+00 -.202E+00 -.432E+00
   0.224E+02 -.129E+02 -.830E+03   -.239E+02 0.138E+02 0.832E+03   0.134E+01 -.774E+00 -.127E+01   0.359E+00 -.202E+00 -.432E+00
   -.103E+02 0.595E+01 -.827E+03   0.102E+02 -.590E+01 0.827E+03   0.262E+00 -.151E+00 0.357E+00   -.149E+00 0.918E-01 -.336E+00
   -.505E-04 0.258E+02 -.830E+03   0.376E-04 -.276E+02 0.832E+03   0.102E-10 0.155E+01 -.127E+01   -.735E-03 0.403E+00 -.433E+00
   0.103E+02 0.595E+01 -.827E+03   -.102E+02 -.590E+01 0.827E+03   -.262E+00 -.151E+00 0.357E+00   0.160E+00 0.916E-01 -.336E+00
   0.363E+01 0.209E+01 -.830E+03   -.365E+01 -.211E+01 0.830E+03   -.449E-01 -.259E-01 0.903E+00   0.616E-01 0.366E-01 -.238E+00
   -.363E+01 0.209E+01 -.830E+03   0.365E+01 -.211E+01 0.830E+03   0.449E-01 -.259E-01 0.903E+00   -.525E-01 0.367E-01 -.237E+00
   0.196E-04 -.119E+02 -.827E+03   0.109E-03 0.118E+02 0.827E+03   0.199E-11 0.303E+00 0.357E+00   0.432E-02 -.175E+00 -.336E+00
   0.540E-04 -.353E-04 -.241E+04   -.114E-03 0.768E-04 0.241E+04   0.147E-18 0.360E-19 0.188E+01   -.155E-04 0.155E-02 -.221E+00
   0.978E+00 -.349E+01 -.240E+04   0.216E+00 0.534E+01 0.240E+04   -.110E+01 -.171E+01 0.112E+01   -.113E+00 -.190E+00 -.203E+00
   -.978E+00 -.349E+01 -.240E+04   -.215E+00 0.534E+01 0.240E+04   0.110E+01 -.171E+01 0.112E+01   0.113E+00 -.188E+00 -.203E+00
   -.253E+01 0.259E+01 -.240E+04   0.473E+01 -.248E+01 0.240E+04   -.203E+01 -.988E-01 0.112E+01   -.226E+00 -.127E-01 -.203E+00
   0.253E+01 0.259E+01 -.240E+04   -.473E+01 -.248E+01 0.240E+04   0.203E+01 -.988E-01 0.112E+01   0.215E+00 -.120E-01 -.203E+00
   -.351E+01 0.897E+00 -.240E+04   0.452E+01 -.286E+01 0.240E+04   -.931E+00 0.181E+01 0.112E+01   -.107E+00 0.193E+00 -.203E+00
   0.351E+01 0.897E+00 -.240E+04   -.452E+01 -.286E+01 0.240E+04   0.931E+00 0.181E+01 0.112E+01   0.109E+00 0.192E+00 -.202E+00
   0.241E-04 -.125E-04 -.242E+04   0.104E-03 -.654E-04 0.242E+04   -.103E-17 -.350E-17 0.202E+01   -.644E-02 -.200E-02 -.200E+00
   -.145E-04 -.107E-05 -.967E+03   0.479E-04 0.590E-05 0.970E+03   -.204E-18 -.381E-19 -.217E+01   0.757E-03 -.105E-03 -.560E-01
   0.230E-05 -.785E-04 -.772E+03   0.153E-04 0.156E-06 0.754E+03   -.141E-18 -.302E-18 0.172E+02   0.125E-02 0.459E-03 0.363E-01
   0.235E-03 -.939E-04 -.143E+04   0.791E-05 0.538E-08 0.149E+04   0.103E-18 -.489E-18 -.578E+02   0.377E-02 0.212E-02 0.106E+00
   0.578E-03 -.856E-03 0.539E+02   -.158E-13 0.190E-12 -.318E-11   0.554E-15 0.218E-15 -.511E+02   0.381E-01 0.102E-01 -.271E+01

 POSITION                                       TOTAL-FORCE (eV/Angst)
      0.00000      0.00000      5.28219         0.000000     -0.000000     -0.048126
      2.93046      0.00000      5.28219         0.002993     -0.001240      0.021496
      5.86091      0.00000      5.28219        -0.002993     -0.001240      0.021496
      1.46523      2.53785      5.28219         0.000422      0.003212      0.021496
      4.39568      2.53785      5.28219         0.000000     -0.000000     -0.028201
      7.32614      2.53785      5.28219        -0.000422      0.003212      0.021496
      2.93046      5.07570      5.28219        -0.002570     -0.001972      0.021496
      5.86091      5.07570      5.28219         0.002570     -0.001972      0.021496
      8.79137      5.07570      5.28219         0.000000     -0.000000     -0.001567
      1.46523      0.84595      7.67490        -0.045546     -0.026296     -0.045218
      4.39568      0.84595      7.67490        -0.000000     -0.037184     -0.072202
      7.32614      0.84595      7.67490         0.045546     -0.026296     -0.045218
      2.93046      3.38380      7.67490        -0.032202      0.018592     -0.072202
      5.86091      3.38380      7.67490         0.032202      0.018592     -0.072202
      8.79137      3.38380      7.67490        -0.000000     -0.031976      0.014711
      4.39568      5.92165      7.67490         0.000000      0.052592     -0.045218
      7.32614      5.92165      7.67490        -0.027692      0.015988      0.014711
     10.25659      5.92165      7.67490         0.027692      0.015988      0.014711
      8.79137      1.69476     10.06939         0.000000      0.009048      0.047699
      2.92162      1.68680     10.02387        -0.120462     -0.069549     -0.127243
      5.86975      1.68680     10.02387         0.120462     -0.069549     -0.127243
     10.25272      4.23198     10.06895         0.016956     -0.009790      0.036370
      4.39568      4.23995     10.02387         0.000000      0.139097     -0.127243
      7.33001      4.23198     10.06895        -0.016956     -0.009790      0.036370
     11.71935      6.76617     10.06939        -0.007836     -0.004524      0.047699
      5.86339      6.76617     10.06939         0.007836     -0.004524      0.047699
      8.79137      6.76312     10.06895         0.000000      0.019579      0.036370
      0.00000      0.00000     12.45783         0.000000     -0.000000     -0.012411
      2.95723      0.04373     12.49962        -0.023388     -0.047042     -0.009807
      5.83413      0.04373     12.49962         0.023388     -0.047042     -0.009807
      1.51649      2.53918     12.49962        -0.052434      0.003266     -0.009807
      7.27488      2.53918     12.49962         0.052434      0.003266     -0.009807
      2.95494      5.03064     12.49962        -0.029046      0.043776     -0.009807
      5.83643      5.03064     12.49962         0.029046      0.043776     -0.009807
      8.79137      5.07570     12.47105         0.000000     -0.000000     -0.019109
      4.39568      2.53785     12.22632         0.000000     -0.000000      0.545666
      4.39568      2.53785     14.28842         0.000000     -0.000000     -0.088219
      4.39568      2.53785     15.46249         0.000000     -0.000000      0.019481
    total drift:                                0.038656      0.009332      0.089697

  FREE ENERGIE OF THE ION-ELECTRON SYSTEM (eV)
  free  energy   TOTEN  =      -114.79647710 eV

  energy  without entropy=     -114.79647710  energy(sigma->0) =     -114.79647710

 stress matrix after NEB project (eV)
     -9.00281     -0.00000     -0.00000
     -0.00000     -9.00281      0.00000
      0.00000      0.00000      0.25294
  FORCES: max atom, RMS     0.088219    0.014656
  FORCE total and by dimension    0.090344    0.088219
  Stress total and by dimension   12.734410    9.002811
|           W    W    AA    RRRRR   N    N  II  N    N   GGGG   !!!           |
|           W    W   A  A   R    R  NN   N  II  NN   N  G    G  !!!           |
|           W    W  A    A  R    R  N N  N  II  N N  N  G       !!!           |
|           W WW W  AAAAAA  RRRRR   N  N N  II  N  N N  G  GGG   !            |
|           WW  WW  A    A  R   R   N   NN  II  N   NN  G    G                |
|           W    W  A    A  R    R  N    N  II  N    N   GGGG   !!!           |
|     Tetrahedron method does not include variations of the Fermi             |
|     occupations, so forces and stress will be inaccurate. We suggest        |
|     using a different smearing scheme ISMEAR = 1 or 2 for metals in         |
|     relaxations.                                                            |

 total charge

# of ion       s       p       d       tot
    1        0.420   0.199   9.179   9.797
    2        0.413   0.204   9.178   9.794
    3        0.413   0.204   9.178   9.794
    4        0.413   0.204   9.178   9.794
    5        0.424   0.200   9.174   9.799
    6        0.413   0.204   9.178   9.794
    7        0.413   0.204   9.178   9.794
    8        0.413   0.204   9.178   9.794
    9        0.416   0.201   9.179   9.795
   10        0.411   0.269   9.160   9.840
   11        0.408   0.266   9.169   9.843
   12        0.411   0.269   9.160   9.840
   13        0.408   0.266   9.169   9.843
   14        0.408   0.266   9.169   9.843
   15        0.403   0.268   9.163   9.834
   16        0.411   0.269   9.160   9.840
   17        0.403   0.268   9.163   9.834
   18        0.403   0.268   9.163   9.834
   19        0.401   0.263   9.165   9.829
   20        0.450   0.306   9.131   9.887
   21        0.450   0.306   9.131   9.887
   22        0.392   0.270   9.167   9.829
   23        0.450   0.306   9.131   9.887
   24        0.392   0.270   9.167   9.829
   25        0.401   0.263   9.165   9.829
   26        0.401   0.263   9.165   9.829
   27        0.392   0.270   9.167   9.829
   28        0.404   0.198   9.177   9.779
   29        0.442   0.219   9.151   9.811
   30        0.442   0.219   9.151   9.811
   31        0.442   0.219   9.151   9.811
   32        0.442   0.219   9.151   9.811
   33        0.442   0.219   9.151   9.811
   34        0.442   0.219   9.151   9.811
   35        0.404   0.197   9.179   9.780
   36        0.641   0.631   3.152   4.423
   37        0.963   1.542   0.000   2.505
   38        1.611   3.529   0.000   5.140
tot         17.804  14.159 323.881 355.843

 BZINTS: Fermi energy:    0.774812;  400.000000 electrons
         Band energy:-0.138596E+04;  BLOECHL correction:   -0.029596