 vasp.6.2.0 18Jan21 (build Jun 12 2021 23:27:24) complex

 executed on             LinuxIFC date 2022.05.27  06:05:47

 INCAR:
   ISMEAR = -5
   SIGMA = 0.1
   ISPIN = 1
   EDIFF = 1.d-5
   EDIFFG = -0.01
   NSW = 0
   NELM = 150
   ENCUT = 500
   ISIF = 2
   IBRION = 2
   LREAL = Auto
   ALGO = Fast
   ICHARG = 11
   LORBIT = 10
   LCHARG = .F.
   LWAVE = .F.

 POTCAR:    PAW_PBE Cu 22Jun2005
 POTCAR:    PAW_PBE Mo 08Apr2002
 POTCAR:    PAW_PBE H 15Jun2001
|           W    W    AA    RRRRR   N    N  II  N    N   GGGG   !!!           |
|           W    W   A  A   R    R  NN   N  II  NN   N  G    G  !!!           |
|           W    W  A    A  R    R  N N  N  II  N N  N  G       !!!           |
|           W WW W  AAAAAA  RRRRR   N  N N  II  N  N N  G  GGG   !            |
|           WW  WW  A    A  R   R   N   NN  II  N   NN  G    G                |
|           W    W  A    A  R    R  N    N  II  N    N   GGGG   !!!           |
|     For optimal performance we recommend to set                             |
|       NCORE = 2 up to number-of-cores-per-socket                            |
|     This setting can greatly improve the performance of VASP for DFT.       |
|     The default, NCORE=1 might be grossly inefficient on modern             |
|     multi-core architectures or massively parallel machines. Do your        |
|     Unfortunately you need to use the default for GW and RPA                |
|     calculations (for HF NCORE is supported but not extensively tested      |
|     yet).                                                                   |

 POTCAR:    PAW_PBE Cu 22Jun2005
   VRHFIN =Cu: d10 p1

   TITEL  = PAW_PBE Cu 22Jun2005
   POMASS =   63.546; ZVAL   =   11.000    mass and valenz
   ENMAX  =  295.446; ENMIN  =  221.585 eV

 POTCAR:    PAW_PBE Mo 08Apr2002
   VRHFIN =Mo: 4p5s4d

   TITEL  = PAW_PBE Mo 08Apr2002
   POMASS =   95.940; ZVAL   =    6.000    mass and valenz
   ENMAX  =  224.584; ENMIN  =  168.438 eV

 POTCAR:    PAW_PBE H 15Jun2001
   VRHFIN =H: ultrasoft test

   TITEL  = PAW_PBE H 15Jun2001
   POMASS =    1.000; ZVAL   =    1.000    mass and valenz
   ENMAX  =  250.000; ENMIN  =  200.000 eV

 Optimization of the real space projectors (new method)

 maximal supplied QI-value         = 16.25
 optimisation between [QCUT,QGAM] = [ 11.38, 22.75] = [ 36.24,144.96] Ry
 Optimized for a Real-space Cutoff    1.52 Angstroem

   l    n(q)    QCUT    max X(q) W(low)/X(q) W(high)/X(q)  e(spline)
   2      9    11.376     4.610    0.21E-03    0.10E-03    0.26E-06
   2      9    11.376     8.522    0.33E-03    0.16E-03    0.37E-06
   0     10    11.376    51.609    0.62E-04    0.20E-04    0.13E-06
   0     10    11.376    27.747    0.54E-04    0.20E-04    0.13E-06
   1     10    11.376    20.408    0.13E-04    0.99E-04    0.19E-06
   1     10    11.376    13.425    0.12E-04    0.87E-04    0.17E-06
 Optimization of the real space projectors (new method)

[...]

   l    n(q)    QCUT    max X(q) W(low)/X(q) W(high)/X(q)  e(spline)
   2     10    11.429    80.908    0.27E-03    0.78E-03    0.13E-05
   2     10    11.429    79.000    0.27E-03    0.78E-03    0.13E-05
   0     11    11.429    52.066    0.33E-04    0.97E-04    0.72E-06
   0     11    11.429    24.514    0.27E-04    0.80E-04    0.60E-06
   1     10    11.429    16.033    0.31E-04    0.17E-03    0.36E-06
   1     10    11.429    11.179    0.22E-04    0.13E-03    0.29E-06
 Optimization of the real space projectors (new method)

 maximal supplied QI-value         = 34.20
 optimisation between [QCUT,QGAM] = [ 11.29, 22.57] = [ 35.68,142.71] Ry
 Optimized for a Real-space Cutoff    1.16 Angstroem

   l    n(q)    QCUT    max X(q) W(low)/X(q) W(high)/X(q)  e(spline)
   0      8    11.287    19.460    0.40E-03    0.73E-03    0.16E-06
   0      8    11.287    12.209    0.38E-03    0.70E-03    0.15E-06
   1      7    11.287     4.655    0.22E-03    0.25E-04    0.22E-06
  PAW_PBE Cu 22Jun2005                  :
  PAW_PBE Mo 08Apr2002                  :
  PAW_PBE H 15Jun2001                   :

 POSCAR: Cu-Mo-H2
  positions in direct lattice
  velocities in cartesian coordinates
 exchange correlation table for  LEXCH =        8
   RHO(1)=    0.500       N(1)  =     2000
   RHO(2)=  100.500       N(2)  =     4000

 VTST: version 3.2, (02/03/18)

 CHAIN: initializing optimizer

 OPT: Using VASP Conjugate-Gradient optimizer
 CHAIN: Read ICHAIN            0

 POSCAR: Cu-Mo-H2
  positions in direct lattice
  velocities in cartesian coordinates

 ion  position               nearest neighbor table
   1  0.000  0.000  0.252-   7 2.57   3 2.57   4 2.57   2 2.57   6 2.57   8 2.57  12 2.57  10 2.57
                            16 2.57
   2  0.333  0.000  0.252-   8 2.57   9 2.57   5 2.57   1 2.57   3 2.57  11 2.57   4 2.57  10 2.57
                            17 2.57
   3  0.667  0.000  0.252-   1 2.57   7 2.57   6 2.57   9 2.57   2 2.57  12 2.57   5 2.57  18 2.57
                            11 2.57
   4  0.000  0.333  0.252-   5 2.57   6 2.57   1 2.57   7 2.57   2 2.57  13 2.57   9 2.57  10 2.57
                            15 2.57
   5  0.333  0.333  0.252-   4 2.57   2 2.57   7 2.57  13 2.57   8 2.57   6 2.57   3 2.57  11 2.57
                            14 2.57
   6  0.667  0.333  0.252-   4 2.57   9 2.57  15 2.57   3 2.57   1 2.57   8 2.57  14 2.57   5 2.57
                            12 2.57
   7  0.000  0.667  0.252-   1 2.57   3 2.57  16 2.57  18 2.57   4 2.57   5 2.57   8 2.57   9 2.57
                            13 2.57
   8  0.333  0.667  0.252-   9 2.57   2 2.57  17 2.57   6 2.57   1 2.57   7 2.57   5 2.57  14 2.57
                            16 2.57
   9  0.667  0.667  0.252-   8 2.57   6 2.57   2 2.57  17 2.57   3 2.57   7 2.57   4 2.57  15 2.57
                            18 2.57
  10  0.111  0.111  0.351-  20 2.55  26 2.56  19 2.56  11 2.57  12 2.57  13 2.57   1 2.57   2 2.57
                             4 2.57  15 2.57  16 2.57  17 2.57
  11  0.444  0.111  0.351-  20 2.56  21 2.56  10 2.57  13 2.57   2 2.57  17 2.57  14 2.57  12 2.57
                             5 2.57   3 2.57  18 2.57  27 2.57
  12  0.778  0.111  0.351-  21 2.55  19 2.56  25 2.56  15 2.57  10 2.57  14 2.57  18 2.57   3 2.57
                             1 2.57  16 2.57  11 2.57   6 2.57
  13  0.111  0.444  0.351-  23 2.56  20 2.56  16 2.57  18 2.57  10 2.57  11 2.57  14 2.57   5 2.57
                             4 2.57   7 2.57  15 2.57  22 2.57
  14  0.444  0.444  0.351-  21 2.56  23 2.56  15 2.57  17 2.57  12 2.57  16 2.57  13 2.57  11 2.57
                             6 2.57   8 2.57   5 2.57  24 2.57
  15  0.778  0.444  0.351-  19 2.56  14 2.57  17 2.57  12 2.57   6 2.57  18 2.57  10 2.57   9 2.57
                            13 2.57   4 2.57  24 2.57  22 2.57
  16  0.111  0.778  0.351-  23 2.55  25 2.56  26 2.56  18 2.57  13 2.57   7 2.57  14 2.57  17 2.57
                            12 2.57  10 2.57   8 2.57   1 2.57
  17  0.444  0.778  0.351-  26 2.56  14 2.57  15 2.57   8 2.57   9 2.57  11 2.57  16 2.57  18 2.57
                            10 2.57   2 2.57  27 2.57  24 2.57
  18  0.778  0.778  0.351-  25 2.56  16 2.57  13 2.57   7 2.57  15 2.57  12 2.57  17 2.57   9 2.57
                             3 2.57  11 2.57  22 2.57  27 2.57
  19  0.889  0.222  0.449-  15 2.56  12 2.56  10 2.56  21 2.56  20 2.56  22 2.57  24 2.57  25 2.57
                            26 2.57  28 2.57  32 2.58  31 2.58
  20  0.222  0.222  0.449-  10 2.55  11 2.56  13 2.56  26 2.56  19 2.56  27 2.57  22 2.57  23 2.57
                            21 2.57  36 2.58  29 2.60  31 2.60
  21  0.556  0.222  0.449-  12 2.55  14 2.56  11 2.56  19 2.56  25 2.56  24 2.57  27 2.57  20 2.57
                            23 2.57  36 2.58  32 2.60  30 2.60
  22  0.888  0.556  0.450-  24 2.56  27 2.56  35 2.56  19 2.57  25 2.57  23 2.57  20 2.57  18 2.57
                            15 2.57  13 2.57  31 2.58  33 2.58
  23  0.222  0.556  0.449-  16 2.55  13 2.56  14 2.56  25 2.56  26 2.56  22 2.57  24 2.57  20 2.57
                            21 2.57  36 2.58  33 2.60  34 2.60
  24  0.556  0.556  0.450-  22 2.56  27 2.56  35 2.56  19 2.57  26 2.57  21 2.57  23 2.57  15 2.57
                            17 2.57  14 2.57  32 2.58  34 2.58
  25  0.889  0.889  0.449-  18 2.56  12 2.56  16 2.56  21 2.56  23 2.56  22 2.57  27 2.57  19 2.57
                            26 2.57  28 2.57  33 2.58  30 2.58
  26  0.222  0.889  0.449-  17 2.56  10 2.56  16 2.56  20 2.56  23 2.56  27 2.57  24 2.57  25 2.57
                            19 2.57  28 2.57  29 2.58  34 2.58
  27  0.556  0.888  0.450-  24 2.56  22 2.56  35 2.56  26 2.57  25 2.57  20 2.57  21 2.57  17 2.57
                            18 2.57  11 2.57  29 2.58  30 2.58
  28  0.000  0.000  0.547-  33 2.56  30 2.56  31 2.56  29 2.56  32 2.56  34 2.56  25 2.57  19 2.57
                            26 2.57
  29  0.333  0.998  0.548-  34 2.54  28 2.56  35 2.56  27 2.58  31 2.58  26 2.58  36 2.58  30 2.58
                            20 2.60
  30  0.669  0.998  0.548-  33 2.54  28 2.56  35 2.56  27 2.58  32 2.58  25 2.58  36 2.58  29 2.58
                            21 2.60
  31  0.998  0.333  0.548-  32 2.54  28 2.56  35 2.56  22 2.58  29 2.58  19 2.58  36 2.58  33 2.58
                            20 2.60
  32  0.669  0.333  0.548-  31 2.54  28 2.56  35 2.56  24 2.58  30 2.58  19 2.58  36 2.58  34 2.58
                            21 2.60
  33  0.998  0.669  0.548-  30 2.54  28 2.56  35 2.56  22 2.58  34 2.58  25 2.58  36 2.58  31 2.58
                            23 2.60
  34  0.333  0.669  0.548-  29 2.54  28 2.56  35 2.56  24 2.58  33 2.58  26 2.58  36 2.58  32 2.58
                            23 2.60
  35  0.667  0.667  0.548-  34 2.56  32 2.56  29 2.56  30 2.56  33 2.56  31 2.56  24 2.56  27 2.56
                            22 2.56
  36  0.333  0.333  0.547-  37 1.85  38 1.85  23 2.58  20 2.58  21 2.58  31 2.58  29 2.58  33 2.58
                            34 2.58  32 2.58  30 2.58
  37  0.276  0.333  0.632-  38 0.89  36 1.85
  38  0.391  0.333  0.632-  37 0.89  36 1.85

  LATTYP: Found a hexagonal cell.
 ALAT       =     7.6967864036
 C/A-ratio  =     2.7653617908

  Lattice vectors:

 A1 = (  -3.8483927580,  -6.6656128093,   0.0000000000)
 A2 = (   7.6967864037,   0.0000000000,   0.0000000000)
 A3 = (   0.0000000000,   0.0000000000,  21.2843990326)

Analysis of symmetry for initial positions (statically):
 Subroutine PRICEL returns:
 Original cell was already a primitive cell.

 Routine SETGRP: Setting up the symmetry group for a
 hexagonal supercell.

 Subroutine GETGRP returns: Found  2 space group operations
 (whereof  2 operations were pure point group operations)
 out of a pool of 24 trial point group operations.

The static configuration has the point symmetry C_1h.

Analysis of symmetry for dynamics (positions and initial velocities):
 Subroutine PRICEL returns:
 Original cell was already a primitive cell.

[...]

The dynamic configuration has the point symmetry C_1h.

Analysis of constrained symmetry for selective dynamics:
 Subroutine PRICEL returns:
 Original cell was already a primitive cell.

 Routine SETGRP: Setting up the symmetry group for a
 hexagonal supercell.

 Subroutine GETGRP returns: Found  2 space group operations
[...]
     33      -3.9466      2.00000
     34      -3.9252      2.00000
     35      -3.8633      2.00000
     36      -3.8349      2.00000
     37      -3.7843      2.00000
     38      -3.6563      2.00000
     39      -3.6496      2.00000
     40      -3.5971      2.00000
     41      -3.5776      2.00000
     42      -3.5684      2.00000
     43      -3.5494      2.00000
     44      -3.5384      2.00000
     45      -3.5325      2.00000
     46      -3.5286      2.00000
     47      -3.3467      2.00000
     48      -3.3262      2.00000
     49      -3.3200      2.00000
     50      -3.3092      2.00000
     51      -3.2546      2.00000
     52      -3.2528      2.00000
     53      -3.2401      2.00000
     54      -3.2338      2.00000
     55      -3.2260      2.00000
     56      -3.2199      2.00000
     57      -3.1819      2.00000
     58      -3.1757      2.00000
     59      -3.1681      2.00000
     60      -3.1608      2.00000
[...]
    238       6.7615      0.00000
    239       6.8647      0.00000
    240       6.9327      0.00000
    241       7.0176      0.00000
    242       7.0900      0.00000
    243       7.2559      0.00000
    244       7.3512      0.00000
    245       7.4331      0.00000
    246       7.5100      0.00000
    247       7.5468      0.00000
    248       7.7778      0.00000
    249       7.8976      0.00000
    250       8.1217      0.00000
    251       8.1775      0.00000
    252       8.2502      0.00000

 soft charge-density along one line, spin component           1
         0         1         2         3         4         5         6         7         8         9
 total charge-density along one line

------------------------ aborting loop because EDIFF is reached ----------------------------------------

 total charge

# of ion       s       p       d       tot
    1        0.449   0.283   9.190   9.922
    2        0.448   0.285   9.186   9.919
    3        0.448   0.285   9.186   9.919
    4        0.449   0.285   9.186   9.920
    5        0.449   0.285   9.180   9.914
    6        0.449   0.285   9.186   9.920
    7        0.447   0.285   9.187   9.919
    8        0.447   0.285   9.187   9.919
    9        0.448   0.282   9.191   9.921
   10        0.444   0.372   9.175   9.991
   11        0.444   0.364   9.185   9.993
   12        0.444   0.372   9.175   9.991
   13        0.444   0.364   9.184   9.993
   14        0.444   0.364   9.184   9.993
   15        0.438   0.370   9.177   9.985
   16        0.445   0.373   9.173   9.991
   17        0.438   0.370   9.177   9.985
   18        0.438   0.370   9.177   9.985
   19        0.442   0.369   9.181   9.991
   20        0.465   0.395   9.159  10.019
   21        0.465   0.395   9.159  10.019
   22        0.428   0.372   9.182   9.982
   23        0.468   0.394   9.159  10.021
   24        0.428   0.372   9.182   9.982
   25        0.442   0.368   9.182   9.992
   26        0.442   0.368   9.182   9.992
   27        0.429   0.371   9.183   9.983
   28        0.447   0.292   9.183   9.922
   29        0.472   0.311   9.164   9.948
   30        0.472   0.311   9.164   9.948
   31        0.470   0.311   9.166   9.946
   32        0.470   0.311   9.166   9.946
   33        0.472   0.310   9.165   9.948
   34        0.472   0.310   9.165   9.948
   35        0.441   0.294   9.185   9.920
   36        0.467   0.460   4.352   5.278
   37        0.541   0.029   0.000   0.570
   38        0.541   0.029   0.000   0.570
tot         17.286  12.256 325.564 355.106

  FORCE on cell =-STRESS in cart. coord.  units (eV):
  Direction    XX          YY          ZZ          XY          YZ          ZX
  Alpha Z   880.39712   880.39712   880.39712
  Ewald  170806.10314170789.01275************     0.00036     0.07312     0.00015
  Hartree183656.48188183654.13932************     0.00002     0.22652     0.00006
  E(xc)   -2279.98759 -2280.00437 -2285.11773    -0.00032     0.04433    -0.00003
  Local  ************************367545.34602     0.01964    -0.11549    -0.00066
  n-local  -775.96321  -774.97159  -789.61119     1.73771     0.14635     0.06959
  augment  3315.71538  3315.34743  3341.19957    -0.01839    -0.06752     0.00027
  Kinetic  3217.85088  3220.96776  3252.36535     1.13686    -0.36771    -0.14370
  Fock        0.00000     0.00000     0.00000     0.00000     0.00000     0.00000
  Total      -5.65906    -5.87453     1.00492     0.00000    -0.06040     0.00000
  in kB      -8.30317    -8.61932     1.47445     0.00000    -0.08862     0.00000

 VOLUME and BASIS-vectors are now :
  energy-cutoff  :      500.00
  volume of cell :     1091.97
      direct lattice vectors                 reciprocal lattice vectors
     7.696786404  0.000000000  0.000000000     0.129924354 -0.075011849  0.000000000
     3.848392758  6.665612809  0.000000000     0.000000000  0.150023716  0.000000000
     0.000000000  0.000000000 21.284399033     0.000000000  0.000000000  0.046982769

  length of vectors
     7.696786404  7.696786404 21.284399033     0.150023716  0.150023716  0.046982769

 FORCES acting on ions
    electron-ion (+dipol)            ewald-force                    non-local-force                 convergence-correction
   -.408E-04 0.340E-01 0.345E+04   0.581E-04 -.228E-02 -.345E+04   -.152E-08 0.228E-01 -.268E+01   -.354E-03 -.479E-01 -.688E-01
   -.109E+01 -.592E+00 0.345E+04   0.694E+00 0.444E+00 -.345E+04   0.234E+00 0.174E+00 -.178E+01   0.155E+00 -.853E-02 -.126E+00
   0.109E+01 -.592E+00 0.345E+04   -.694E+00 0.444E+00 -.345E+04   -.234E+00 0.174E+00 -.178E+01   -.154E+00 -.604E-02 -.125E+00
   -.100E+01 -.584E+00 0.345E+04   0.733E+00 0.378E+00 -.345E+04   0.183E+00 0.515E-01 -.172E+01   0.107E+00 0.147E+00 -.672E-01
   -.615E-04 -.110E+00 0.345E+04   0.116E-03 0.210E-03 -.345E+04   -.277E-08 0.416E-01 -.129E+01   0.121E-01 0.663E-01 0.142E-02
   0.100E+01 -.584E+00 0.345E+04   -.734E+00 0.378E+00 -.345E+04   -.183E+00 0.515E-01 -.172E+01   -.109E+00 0.148E+00 -.660E-01
   -.179E+00 0.119E+01 0.345E+04   0.395E-01 -.822E+00 -.345E+04   0.155E+00 -.239E+00 -.179E+01   -.118E-01 -.142E+00 -.139E+00
   0.179E+00 0.119E+01 0.345E+04   -.398E-01 -.822E+00 -.345E+04   -.155E+00 -.239E+00 -.179E+01   0.152E-01 -.144E+00 -.139E+00
   -.143E-03 0.225E-01 0.345E+04   0.263E-03 0.208E-02 -.345E+04   0.138E-08 -.207E-01 -.237E+01   -.131E-01 -.807E-02 -.176E+00
   -.411E+01 -.238E+01 0.113E+04   0.457E+01 0.262E+01 -.113E+04   -.543E+00 -.295E+00 -.120E+01   0.780E-01 0.566E-01 -.134E-01
   -.910E-04 -.483E+01 0.111E+04   0.190E-03 0.430E+01 -.111E+04   -.214E-07 0.321E+00 -.497E-01   0.120E-01 0.156E+00 0.584E-01
   0.411E+01 -.238E+01 0.113E+04   -.457E+01 0.262E+01 -.113E+04   0.543E+00 -.295E+00 -.120E+01   -.797E-01 0.577E-01 -.134E-01
   -.422E+01 0.243E+01 0.111E+04   0.374E+01 -.215E+01 -.111E+04   0.324E+00 -.209E+00 -.188E+00   0.133E+00 -.553E-01 0.380E-01
   0.422E+01 0.243E+01 0.111E+04   -.374E+01 -.215E+01 -.111E+04   -.324E+00 -.209E+00 -.188E+00   -.109E+00 -.569E-01 0.361E-01
   -.141E-03 -.239E+01 0.112E+04   0.297E-03 0.206E+01 -.112E+04   -.140E-07 0.210E+00 -.102E+01   -.337E-02 0.106E+00 0.591E-02
   -.926E-04 0.475E+01 0.113E+04   0.186E-03 -.528E+01 -.113E+04   -.432E-07 0.648E+00 -.116E+01   -.836E-03 -.114E+00 -.663E-01
   -.199E+01 0.118E+01 0.112E+04   0.177E+01 -.102E+01 -.112E+04   0.160E+00 -.970E-01 -.105E+01   0.478E-01 -.654E-01 -.390E-01
   0.199E+01 0.118E+01 0.112E+04   -.177E+01 -.102E+01 -.112E+04   -.160E+00 -.970E-01 -.105E+01   -.463E-01 -.627E-01 -.370E-01
   -.669E-04 -.724E+01 -.119E+04   0.720E-04 0.708E+01 0.119E+04   -.215E-08 0.322E-01 0.961E+00   -.108E-01 0.128E+00 0.316E+00
   -.515E+02 -.298E+02 -.126E+04   0.527E+02 0.303E+02 0.126E+04   -.152E+01 -.713E+00 -.104E+01   0.201E+00 0.136E+00 0.436E+00
   0.515E+02 -.298E+02 -.126E+04   -.527E+02 0.303E+02 0.126E+04   0.152E+01 -.713E+00 -.104E+01   -.219E+00 0.134E+00 0.435E+00
   -.283E+02 0.163E+02 -.121E+04   0.277E+02 -.158E+02 0.121E+04   0.565E+00 -.375E+00 0.695E+00   0.130E+00 -.118E+00 0.199E+00
   -.851E-04 0.593E+02 -.126E+04   0.151E-03 -.607E+02 0.126E+04   -.123E-06 0.185E+01 -.136E+01   -.121E-01 -.280E+00 0.372E+00
   0.283E+02 0.163E+02 -.121E+04   -.277E+02 -.158E+02 0.121E+04   -.565E+00 -.375E+00 0.695E+00   -.128E+00 -.119E+00 0.199E+00
   0.635E+01 0.367E+01 -.119E+04   -.618E+01 -.363E+01 0.119E+04   -.542E-01 0.886E-02 0.100E+01   -.123E+00 -.535E-01 0.278E+00
   -.635E+01 0.367E+01 -.119E+04   0.618E+01 -.363E+01 0.119E+04   0.542E-01 0.886E-02 0.100E+01   0.102E+00 -.533E-01 0.279E+00
   -.120E-03 -.328E+02 -.121E+04   0.240E-03 0.319E+02 0.121E+04   -.487E-07 0.731E+00 0.664E+00   0.109E-02 0.191E+00 0.201E+00
   -.417E-04 0.372E+00 -.344E+04   0.454E-04 -.512E+00 0.344E+04   -.344E-08 0.517E-01 0.212E+01   -.189E-03 0.675E-01 0.301E+00
   -.457E+02 -.798E+02 -.345E+04   0.463E+02 0.804E+02 0.345E+04   -.818E+00 -.927E+00 0.871E+00   0.195E+00 0.326E+00 0.339E+00
   0.457E+02 -.798E+02 -.345E+04   -.463E+02 0.804E+02 0.345E+04   0.818E+00 -.927E+00 0.871E+00   -.194E+00 0.328E+00 0.338E+00
   -.911E+02 0.763E+00 -.345E+04   0.921E+02 -.681E+00 0.345E+04   -.133E+01 -.124E+00 0.118E+01   0.326E+00 0.508E-01 0.346E+00
   0.911E+02 0.763E+00 -.345E+04   -.921E+02 -.681E+00 0.345E+04   0.133E+01 -.124E+00 0.118E+01   -.326E+00 0.515E-01 0.346E+00
   -.472E+02 0.791E+02 -.345E+04   0.476E+02 -.798E+02 0.345E+04   -.510E+00 0.106E+01 0.971E+00   0.132E+00 -.361E+00 0.361E+00
   0.472E+02 0.791E+02 -.345E+04   -.476E+02 -.798E+02 0.345E+04   0.510E+00 0.106E+01 0.971E+00   -.129E+00 -.362E+00 0.362E+00
   -.141E-03 -.398E+00 -.346E+04   0.248E-03 0.476E+00 0.345E+04   -.183E-08 0.274E-01 0.273E+01   -.125E-01 -.754E-01 0.482E+00
   -.444E-04 -.163E+00 -.183E+04   0.738E-04 0.104E+00 0.183E+04   0.959E-09 -.144E-01 0.406E+00   0.496E-03 -.238E-02 0.137E+00
   0.136E+02 -.241E-01 -.355E+03   -.167E+02 0.171E-01 0.356E+03   0.315E+01 0.680E-02 -.117E+01   0.201E-02 0.684E-03 -.371E-01
   -.136E+02 -.241E-01 -.355E+03   0.167E+02 0.171E-01 0.356E+03   -.315E+01 0.680E-02 -.117E+01   -.194E-02 0.689E-03 -.371E-01
   -.240E-03 -.556E+00 0.872E+01   0.568E-13 0.949E-13 0.568E-13   -.360E-07 0.541E+00 -.135E+02   -.359E-01 0.153E-01 0.472E+01

 POSITION                                       TOTAL-FORCE (eV/Angst)
      0.00000      0.00000      5.37156        -0.000000      0.006655     -0.058854
      2.56560      0.00000      5.37156        -0.003020      0.018257      0.056204
      5.13119      0.00000      5.37156         0.003020      0.018257      0.056204
      1.28280      2.22187      5.37156         0.020980     -0.007187      0.045625
      3.84839      2.22187      5.37156         0.000000     -0.002136      0.028184
      6.41399      2.22187      5.37156        -0.020980     -0.007187      0.045625
      2.56560      4.44374      5.37156         0.002374     -0.009696      0.063893
      5.13119      4.44374      5.37156        -0.002374     -0.009696      0.063893
      7.69679      4.44374      5.37156         0.000000     -0.004195      0.007714
      1.28280      0.74062      7.46636        -0.003064      0.005760     -0.078611
      3.84839      0.74062      7.46636         0.000000     -0.047200     -0.039165
      6.41399      0.74062      7.46636         0.003064      0.005760     -0.078611
      2.56560      2.96249      7.46636        -0.036942      0.016599     -0.041400
      5.13119      2.96249      7.46636         0.036942      0.016599     -0.041400
      7.69679      2.96249      7.46636         0.000000     -0.013669     -0.003762
      3.84839      5.18437      7.46636        -0.000000      0.004396     -0.079139
      6.41399      5.18437      7.46636        -0.008067      0.002455     -0.002571
      8.97958      5.18437      7.46636         0.008067      0.002455     -0.002571
      7.69679      1.48128      9.55134         0.000000     -0.004418      0.055062
      2.56091      1.47854      9.54628        -0.117621     -0.069005     -0.197286
      5.13587      1.47854      9.54628         0.117621     -0.069005     -0.197286
      8.97673      3.70477      9.56818         0.022491     -0.016109      0.003415
      3.84839      3.70853      9.54628        -0.000000      0.168575     -0.180685
      6.41684      3.70477      9.56818        -0.022491     -0.016109      0.003415
     10.26235      5.92497      9.55134         0.003399      0.000409      0.036218
      5.13122      5.92497      9.55134        -0.003399      0.000409      0.036218
      7.69679      5.92169      9.56818        -0.000000      0.041145      0.001430
      0.00000      0.00000     11.64671         0.000000     -0.021366     -0.044281
      6.40484      6.65345     11.67351        -0.004135     -0.000745      0.007793
      8.98873      6.65345     11.67351         0.004135     -0.000745      0.007793
      8.96447      2.22003     11.67351         0.027146      0.009120      0.084552
      6.42910      2.22003     11.67351        -0.027146      0.009120      0.084552
     10.25642      4.45775     11.67351        -0.017711      0.008958     -0.009074
      5.13715      4.45775     11.67351         0.017711      0.008958     -0.009074
      7.69679      4.44374     11.65978        -0.000000      0.029296     -0.052413
      3.84839      2.22187     11.64991         0.000000     -0.075818      0.434475
      3.40580      2.21780     13.44348         0.008225      0.000551     -0.003040
      4.29098      2.21780     13.44348        -0.008225      0.000551     -0.003040
    total drift:                               -0.036096      0.000011     -0.053147

  FREE ENERGIE OF THE ION-ELECTRON SYSTEM (eV)
  free  energy   TOTEN  =      -138.33372738 eV

  energy  without entropy=     -138.33372738  energy(sigma->0) =     -138.33372738

 stress matrix after NEB project (eV)
     -5.65906      0.00000      0.00000
      0.00000     -5.87453     -0.06040
      0.00000     -0.06040      1.00492
  FORCES: max atom, RMS     0.008786    0.002016
  FORCE total and by dimension    0.012426    0.008225
  Stress total and by dimension    8.219015    5.874532
|           W    W    AA    RRRRR   N    N  II  N    N   GGGG   !!!           |
|           W    W   A  A   R    R  NN   N  II  NN   N  G    G  !!!           |
|           W    W  A    A  R    R  N N  N  II  N N  N  G       !!!           |
|           W WW W  AAAAAA  RRRRR   N  N N  II  N  N N  G  GGG   !            |
|           WW  WW  A    A  R   R   N   NN  II  N   NN  G    G                |
|           W    W  A    A  R    R  N    N  II  N    N   GGGG   !!!           |
|     Tetrahedron method does not include variations of the Fermi             |
|     occupations, so forces and stress will be inaccurate. We suggest        |
|     using a different smearing scheme ISMEAR = 1 or 2 for metals in         |
|     relaxations.                                                            |

 total charge

# of ion       s       p       d       tot
    1        0.449   0.283   9.190   9.922
    2        0.448   0.285   9.186   9.919
    3        0.448   0.285   9.186   9.919
    4        0.449   0.285   9.186   9.920
    5        0.449   0.285   9.180   9.914
    6        0.449   0.285   9.186   9.920
    7        0.447   0.285   9.187   9.919
    8        0.447   0.285   9.187   9.919
    9        0.448   0.282   9.191   9.921
   10        0.444   0.372   9.175   9.991
   11        0.444   0.364   9.185   9.993
   12        0.444   0.372   9.175   9.991
   13        0.444   0.364   9.184   9.993
   14        0.444   0.364   9.184   9.993
   15        0.438   0.370   9.177   9.985
   16        0.445   0.373   9.173   9.991
   17        0.438   0.370   9.177   9.985
   18        0.438   0.370   9.177   9.985
   19        0.442   0.369   9.181   9.991
   20        0.465   0.395   9.159  10.019
   21        0.465   0.395   9.159  10.019
   22        0.428   0.372   9.182   9.982
   23        0.468   0.394   9.159  10.021
   24        0.428   0.372   9.182   9.982
   25        0.442   0.368   9.182   9.992
   26        0.442   0.368   9.182   9.992
   27        0.429   0.371   9.183   9.983
   28        0.447   0.292   9.183   9.922
   29        0.472   0.311   9.164   9.948
   30        0.472   0.311   9.164   9.948
   31        0.470   0.311   9.166   9.946
   32        0.470   0.311   9.166   9.946
   33        0.472   0.310   9.165   9.948
   34        0.472   0.310   9.165   9.948
   35        0.441   0.294   9.185   9.920
   36        0.467   0.460   4.352   5.278
   37        0.541   0.029   0.000   0.570
   38        0.541   0.029   0.000   0.570
tot         17.286  12.256 325.564 355.106

 BZINTS: Fermi energy:    0.141022;  393.000000 electrons
         Band energy:-0.106482E+04;  BLOECHL correction:   -0.023878