 vasp.6.2.0 18Jan21 (build Jun 12 2021 23:27:24) complex

 executed on             LinuxIFC date 2022.05.27  06:18:12

 INCAR:
   ISMEAR = -5
   SIGMA = 0.1
   ISPIN = 1
   EDIFF = 1.d-5
   EDIFFG = -0.01
   NSW = 0
   NELM = 150
   ENCUT = 500
   ISIF = 2
   IBRION = 2
   LREAL = Auto
   ALGO = Fast
   ICHARG = 11
   LORBIT = 10
   LCHARG = .F.
   LWAVE = .F.

 POTCAR:    PAW_PBE Cu 22Jun2005
 POTCAR:    PAW_PBE W 08Apr2002
 POTCAR:    PAW_PBE N 08Apr2002
|           W    W    AA    RRRRR   N    N  II  N    N   GGGG   !!!           |
|           W    W   A  A   R    R  NN   N  II  NN   N  G    G  !!!           |
|           W    W  A    A  R    R  N N  N  II  N N  N  G       !!!           |
|           W WW W  AAAAAA  RRRRR   N  N N  II  N  N N  G  GGG   !            |
|           WW  WW  A    A  R   R   N   NN  II  N   NN  G    G                |
|           W    W  A    A  R    R  N    N  II  N    N   GGGG   !!!           |
|     For optimal performance we recommend to set                             |
|       NCORE = 2 up to number-of-cores-per-socket                            |
|     This setting can greatly improve the performance of VASP for DFT.       |
|     The default, NCORE=1 might be grossly inefficient on modern             |
|     multi-core architectures or massively parallel machines. Do your        |
|     Unfortunately you need to use the default for GW and RPA                |
|     calculations (for HF NCORE is supported but not extensively tested      |
|     yet).                                                                   |

 POTCAR:    PAW_PBE Cu 22Jun2005
   VRHFIN =Cu: d10 p1

   TITEL  = PAW_PBE Cu 22Jun2005
   POMASS =   63.546; ZVAL   =   11.000    mass and valenz
   ENMAX  =  295.446; ENMIN  =  221.585 eV

 POTCAR:    PAW_PBE W 08Apr2002
   VRHFIN =W : 6s5d

   TITEL  = PAW_PBE W 08Apr2002
   POMASS =  183.850; ZVAL   =    6.000    mass and valenz
   ENMAX  =  223.057; ENMIN  =  167.293 eV

 POTCAR:    PAW_PBE N 08Apr2002
   VRHFIN =N: s2p3

   TITEL  = PAW_PBE N 08Apr2002
   POMASS =   14.001; ZVAL   =    5.000    mass and valenz
   ENMAX  =  400.000; ENMIN  =  300.000 eV

 Optimization of the real space projectors (new method)

 maximal supplied QI-value         = 16.25
 optimisation between [QCUT,QGAM] = [ 11.38, 22.75] = [ 36.24,144.96] Ry
 Optimized for a Real-space Cutoff    1.52 Angstroem

   l    n(q)    QCUT    max X(q) W(low)/X(q) W(high)/X(q)  e(spline)
   2      9    11.376     4.610    0.21E-03    0.10E-03    0.26E-06
   2      9    11.376     8.522    0.33E-03    0.16E-03    0.37E-06
   0     10    11.376    51.609    0.62E-04    0.20E-04    0.13E-06
   0     10    11.376    27.747    0.54E-04    0.20E-04    0.13E-06
   1     10    11.376    20.408    0.13E-04    0.99E-04    0.19E-06
   1     10    11.376    13.425    0.12E-04    0.87E-04    0.17E-06
 Optimization of the real space projectors (new method)

[...]

   l    n(q)    QCUT    max X(q) W(low)/X(q) W(high)/X(q)  e(spline)
   2     10    11.429   130.855    0.22E-03    0.64E-03    0.11E-05
   2     10    11.429   114.007    0.22E-03    0.64E-03    0.11E-05
   0     11    11.429    84.709    0.39E-04    0.67E-04    0.23E-06
   0     11    11.429    49.163    0.35E-04    0.62E-04    0.21E-06
   1     10    11.429    15.765    0.84E-04    0.15E-03    0.24E-06
   1     10    11.429    10.638    0.58E-04    0.12E-03    0.19E-06
 Optimization of the real space projectors (new method)

 maximal supplied QI-value         = 25.13
 optimisation between [QCUT,QGAM] = [ 11.31, 22.87] = [ 35.82,146.48] Ry
 Optimized for a Real-space Cutoff    1.27 Angstroem

   l    n(q)    QCUT    max X(q) W(low)/X(q) W(high)/X(q)  e(spline)
   0      9    11.310    79.467    0.75E-04    0.16E-03    0.36E-06
   0      9    11.310    66.151    0.74E-04    0.16E-03    0.36E-06
   1      8    11.310    17.416    0.35E-03    0.12E-03    0.95E-06
   1      8    11.310    12.382    0.37E-03    0.13E-03    0.98E-06
  PAW_PBE Cu 22Jun2005                  :
  PAW_PBE W 08Apr2002                   :
  PAW_PBE N 08Apr2002                   :

 POSCAR: Cu-W-N2
  positions in direct lattice
  velocities in cartesian coordinates
 exchange correlation table for  LEXCH =        8
   RHO(1)=    0.500       N(1)  =     2000
   RHO(2)=  100.500       N(2)  =     4000

 VTST: version 3.2, (02/03/18)

 CHAIN: initializing optimizer

 OPT: Using VASP Conjugate-Gradient optimizer
 CHAIN: Read ICHAIN            0

 POSCAR: Cu-W-N2
  positions in direct lattice
  velocities in cartesian coordinates

 ion  position               nearest neighbor table
   1  0.000  0.000  0.252-   7 2.57   3 2.57   4 2.57   2 2.57   6 2.57   8 2.57  12 2.57  10 2.57
                            16 2.57
   2  0.333  0.000  0.252-   8 2.57   9 2.57   5 2.57   1 2.57   3 2.57  11 2.57   4 2.57  10 2.57
                            17 2.57
   3  0.667  0.000  0.252-   1 2.57   7 2.57   6 2.57   9 2.57   2 2.57  12 2.57   5 2.57  18 2.57
                            11 2.57
   4  0.000  0.333  0.252-   5 2.57   6 2.57   1 2.57   7 2.57   2 2.57  13 2.57   9 2.57  10 2.57
                            15 2.57
   5  0.333  0.333  0.252-   4 2.57   2 2.57   7 2.57  13 2.57   8 2.57   6 2.57   3 2.57  11 2.57
                            14 2.57
   6  0.667  0.333  0.252-   4 2.57   9 2.57  15 2.57   3 2.57   1 2.57   8 2.57  14 2.57   5 2.57
                            12 2.57
   7  0.000  0.667  0.252-   1 2.57   3 2.57  16 2.57  18 2.57   4 2.57   5 2.57   8 2.57   9 2.57
                            13 2.57
   8  0.333  0.667  0.252-   9 2.57   2 2.57  17 2.57   6 2.57   1 2.57   7 2.57   5 2.57  14 2.57
                            16 2.57
   9  0.667  0.667  0.252-   8 2.57   6 2.57   2 2.57  17 2.57   3 2.57   7 2.57   4 2.57  15 2.57
                            18 2.57
  10  0.111  0.111  0.351-  20 2.54  11 2.57  12 2.57  13 2.57   1 2.57   2 2.57   4 2.57  15 2.57
                            16 2.57  17 2.57  26 2.57  19 2.57
  11  0.444  0.111  0.351-  20 2.55  21 2.55  10 2.57  13 2.57   2 2.57  17 2.57  14 2.57  12 2.57
                             5 2.57   3 2.57  18 2.57  27 2.58
  12  0.778  0.111  0.351-  21 2.54  15 2.57  10 2.57  14 2.57  18 2.57   3 2.57   1 2.57  16 2.57
                            11 2.57   6 2.57  19 2.57  25 2.57
  13  0.111  0.444  0.351-  23 2.55  20 2.55  16 2.57  18 2.57  10 2.57  11 2.57  14 2.57   5 2.57
                             4 2.57   7 2.57  15 2.57  22 2.58
  14  0.444  0.444  0.351-  21 2.55  23 2.55  15 2.57  17 2.57  12 2.57  16 2.57  13 2.57  11 2.57
                             6 2.57   8 2.57   5 2.57  24 2.58
  15  0.778  0.444  0.351-  19 2.57  14 2.57  17 2.57  12 2.57   6 2.57  18 2.57  10 2.57   9 2.57
                            13 2.57   4 2.57  24 2.57  22 2.57
  16  0.111  0.778  0.351-  23 2.54  18 2.57  13 2.57   7 2.57  14 2.57  17 2.57  12 2.57  10 2.57
                             8 2.57   1 2.57  25 2.57  26 2.57
  17  0.444  0.778  0.351-  26 2.57  14 2.57  15 2.57   8 2.57   9 2.57  11 2.57  16 2.57  18 2.57
                            10 2.57   2 2.57  27 2.57  24 2.57
  18  0.778  0.778  0.351-  25 2.57  16 2.57  13 2.57   7 2.57  15 2.57  12 2.57  17 2.57   9 2.57
                             3 2.57  11 2.57  22 2.57  27 2.57
  19  0.889  0.223  0.449-  21 2.55  20 2.55  22 2.56  24 2.56  15 2.57  12 2.57  10 2.57  25 2.57
                            26 2.57  28 2.57  32 2.60  31 2.60
  20  0.221  0.221  0.448-  10 2.54  36 2.54  11 2.55  13 2.55  26 2.55  19 2.55  27 2.57  22 2.57
                            23 2.59  21 2.59  29 2.62  31 2.62
  21  0.558  0.221  0.448-  12 2.54  36 2.54  14 2.55  11 2.55  19 2.55  25 2.55  24 2.57  27 2.57
                            20 2.59  23 2.59  32 2.62  30 2.62
  22  0.888  0.556  0.450-  24 2.56  27 2.56  19 2.56  25 2.56  35 2.56  23 2.57  20 2.57  18 2.57
                            15 2.57  13 2.58  31 2.59  33 2.59
  23  0.221  0.558  0.448-  16 2.54  36 2.54  13 2.55  14 2.55  25 2.55  26 2.55  22 2.57  24 2.57
                            20 2.59  21 2.59  33 2.62  34 2.62
  24  0.556  0.556  0.450-  22 2.56  27 2.56  19 2.56  26 2.56  35 2.56  21 2.57  23 2.57  15 2.57
                            17 2.57  14 2.58  32 2.59  34 2.59
  25  0.889  0.889  0.449-  21 2.55  23 2.55  22 2.56  27 2.56  18 2.57  16 2.57  12 2.57  19 2.57
                            26 2.57  28 2.57  33 2.60  30 2.60
  26  0.223  0.889  0.449-  20 2.55  23 2.55  27 2.56  24 2.56  17 2.57  10 2.57  16 2.57  25 2.57
                            19 2.57  28 2.57  29 2.60  34 2.60
  27  0.556  0.888  0.450-  24 2.56  22 2.56  26 2.56  25 2.56  35 2.56  20 2.57  21 2.57  17 2.57
                            18 2.57  11 2.58  29 2.59  30 2.59
  28  0.000  0.000  0.548-  33 2.56  30 2.56  31 2.56  29 2.56  32 2.56  34 2.56  25 2.57  19 2.57
                            26 2.57
  29  0.333  1.000  0.550-  34 2.56  28 2.56  35 2.57  31 2.57  36 2.57  30 2.57  27 2.59  26 2.60
                            20 2.62
  30  0.667  1.000  0.550-  33 2.56  28 2.56  35 2.57  32 2.57  36 2.57  29 2.57  27 2.59  25 2.60
                            21 2.62
  31  1.000  0.333  0.550-  32 2.56  28 2.56  35 2.57  29 2.57  36 2.57  33 2.57  22 2.59  19 2.60
                            20 2.62
  32  0.667  0.333  0.550-  31 2.56  28 2.56  35 2.57  30 2.57  36 2.57  34 2.57  24 2.59  19 2.60
                            21 2.62
  33  1.000  0.667  0.550-  30 2.56  28 2.56  35 2.57  34 2.57  36 2.57  31 2.57  22 2.59  25 2.60
                            23 2.62
  34  0.333  0.667  0.550-  29 2.56  28 2.56  35 2.57  33 2.57  36 2.57  32 2.57  24 2.59  26 2.60
                            23 2.62
  35  0.667  0.667  0.548-  24 2.56  27 2.56  22 2.56  34 2.57  32 2.57  29 2.57  30 2.57  33 2.57
                            31 2.57
  36  0.333  0.333  0.545-  38 2.36  37 2.36  23 2.54  20 2.54  21 2.54  31 2.57  29 2.57  33 2.57
                            34 2.57  32 2.57  30 2.57
  37  0.258  0.334  0.652-  38 1.16  36 2.36
  38  0.408  0.334  0.652-  37 1.16  36 2.36

  LATTYP: Found a hexagonal cell.
 ALAT       =     7.6967864036
 C/A-ratio  =     2.7653617908

  Lattice vectors:

 A1 = (  -3.8483927580,  -6.6656128093,   0.0000000000)
 A2 = (   7.6967864037,   0.0000000000,   0.0000000000)
 A3 = (   0.0000000000,   0.0000000000,  21.2843990326)

Analysis of symmetry for initial positions (statically):
 Subroutine PRICEL returns:
 Original cell was already a primitive cell.

 Routine SETGRP: Setting up the symmetry group for a
 hexagonal supercell.

 Subroutine GETGRP returns: Found  2 space group operations
 (whereof  2 operations were pure point group operations)
 out of a pool of 24 trial point group operations.

The static configuration has the point symmetry C_1h.

Analysis of symmetry for dynamics (positions and initial velocities):
 Subroutine PRICEL returns:
 Original cell was already a primitive cell.

[...]

The dynamic configuration has the point symmetry C_1h.

Analysis of constrained symmetry for selective dynamics:
 Subroutine PRICEL returns:
 Original cell was already a primitive cell.

 Routine SETGRP: Setting up the symmetry group for a
 hexagonal supercell.

[...]
     33      -3.9215      2.00000
     34      -3.9029      2.00000
     35      -3.8995      2.00000
     36      -3.8939      2.00000
     37      -3.8777      2.00000
     38      -3.8599      2.00000
     39      -3.8382      2.00000
     40      -3.7699      2.00000
     41      -3.7422      2.00000
     42      -3.5982      2.00000
     43      -3.5863      2.00000
     44      -3.5299      2.00000
     45      -3.5121      2.00000
     46      -3.5016      2.00000
     47      -3.4872      2.00000
     48      -3.4729      2.00000
     49      -3.4635      2.00000
     50      -3.4560      2.00000
     51      -3.2913      2.00000
     52      -3.2697      2.00000
     53      -3.2640      2.00000
     54      -3.2433      2.00000
     55      -3.2028      2.00000
     56      -3.1935      2.00000
     57      -3.1760      2.00000
     58      -3.1692      2.00000
     59      -3.1635      2.00000
     60      -3.1561      2.00000
[...]
    238       6.0758      0.00000
    239       6.1759      0.00000
    240       6.3457      0.00000
    241       6.3742      0.00000
    242       6.6225      0.00000
    243       6.7483      0.00000
    244       6.9765      0.00000
    245       7.0512      0.00000
    246       7.1009      0.00000
    247       7.2065      0.00000
    248       7.3155      0.00000
    249       7.4646      0.00000
    250       7.5235      0.00000
    251       7.5759      0.00000
    252       7.6228      0.00000

 soft charge-density along one line, spin component           1
         0         1         2         3         4         5         6         7         8         9
 total charge-density along one line

------------------------ aborting loop because EDIFF is reached ----------------------------------------

 total charge

# of ion       s       p       d       tot
    1        0.450   0.283   9.189   9.922
    2        0.448   0.286   9.185   9.919
    3        0.448   0.286   9.185   9.919
    4        0.449   0.284   9.186   9.920
    5        0.449   0.284   9.181   9.915
    6        0.449   0.284   9.186   9.920
    7        0.447   0.285   9.187   9.918
    8        0.447   0.285   9.187   9.918
    9        0.448   0.283   9.190   9.920
   10        0.444   0.372   9.175   9.991
   11        0.443   0.364   9.185   9.993
   12        0.444   0.372   9.175   9.991
   13        0.443   0.365   9.184   9.992
   14        0.443   0.365   9.184   9.992
   15        0.438   0.369   9.177   9.983
   16        0.446   0.372   9.173   9.990
   17        0.437   0.368   9.178   9.984
   18        0.437   0.368   9.178   9.984
   19        0.439   0.366   9.181   9.985
   20        0.468   0.409   9.152  10.029
   21        0.468   0.409   9.152  10.029
   22        0.427   0.369   9.182   9.978
   23        0.474   0.406   9.153  10.033
   24        0.427   0.369   9.182   9.978
   25        0.441   0.364   9.182   9.988
   26        0.441   0.364   9.182   9.988
   27        0.429   0.367   9.184   9.980
   28        0.447   0.291   9.180   9.919
   29        0.475   0.317   9.164   9.956
   30        0.475   0.317   9.164   9.956
   31        0.469   0.311   9.169   9.950
   32        0.469   0.311   9.169   9.950
   33        0.475   0.316   9.165   9.955
   34        0.475   0.316   9.165   9.955
   35        0.440   0.294   9.182   9.916
   36        0.646   0.519   4.094   5.260
   37        1.354   2.443   0.000   3.797
   38        1.354   2.443   0.000   3.797
tot         19.102  17.173 325.290 361.565

  FORCE on cell =-STRESS in cart. coord.  units (eV):
  Direction    XX          YY          ZZ          XY          YZ          ZX
  Alpha Z   914.95224   914.95224   914.95224
  Ewald  169149.55675168847.37862************     0.00038    -0.43778     0.00016
  Hartree182093.39495181988.39958************     0.00003    -0.19555     0.00005
  E(xc)   -2314.66862 -2315.49127 -2319.51036    -0.00027     0.06389    -0.00004
  Local  ************************363911.92516     0.02008     0.90910    -0.00073
  n-local  -791.73883  -778.83829  -798.14972     1.78312     0.24835     0.05790
  augment  3313.76741  3312.86172  3338.40481    -0.01840    -0.10288     0.00038
  Kinetic  3385.78712  3396.51080  3429.67763     1.07304    -0.60983    -0.17446
  Fock        0.00000     0.00000     0.00000     0.00000     0.00000     0.00000
  Total      -5.01884    -5.03098     0.18970     0.00000    -0.12469     0.00000
  in kB      -7.36382    -7.38163     0.27833     0.00000    -0.18294     0.00000

 VOLUME and BASIS-vectors are now :
  energy-cutoff  :      500.00
  volume of cell :     1091.97
      direct lattice vectors                 reciprocal lattice vectors
     7.696786404  0.000000000  0.000000000     0.129924354 -0.075011849  0.000000000
     3.848392758  6.665612809  0.000000000     0.000000000  0.150023716  0.000000000
     0.000000000  0.000000000 21.284399033     0.000000000  0.000000000  0.046982769

  length of vectors
     7.696786404  7.696786404 21.284399033     0.150023716  0.150023716  0.046982769

 FORCES acting on ions
    electron-ion (+dipol)            ewald-force                    non-local-force                 convergence-correction
   -.407E-04 0.214E-01 0.348E+04   0.581E-04 -.117E-01 -.347E+04   -.146E-08 0.219E-01 -.266E+01   -.419E-03 -.340E-01 -.193E+00
   -.804E+00 -.214E+00 0.348E+04   0.442E+00 0.788E-01 -.347E+04   0.231E+00 0.156E+00 -.176E+01   0.126E+00 -.100E-01 -.198E+00
   0.804E+00 -.214E+00 0.348E+04   -.442E+00 0.787E-01 -.347E+04   -.231E+00 0.156E+00 -.176E+01   -.125E+00 -.748E-02 -.197E+00
   -.526E+00 -.496E+00 0.348E+04   0.299E+00 0.336E+00 -.347E+04   0.162E+00 0.923E-02 -.183E+01   0.829E-01 0.141E+00 -.181E+00
   -.621E-04 -.231E+00 0.347E+04   0.116E-03 -.108E-02 -.347E+04   -.518E-08 0.777E-01 -.143E+01   0.122E-01 0.141E+00 -.893E-01
   0.526E+00 -.496E+00 0.348E+04   -.299E+00 0.336E+00 -.347E+04   -.162E+00 0.923E-02 -.183E+01   -.846E-01 0.142E+00 -.180E+00
   -.106E+00 0.817E+00 0.348E+04   -.143E+00 -.415E+00 -.347E+04   0.209E+00 -.228E+00 -.181E+01   0.374E-01 -.171E+00 -.268E+00
   0.106E+00 0.817E+00 0.348E+04   0.142E+00 -.415E+00 -.347E+04   -.209E+00 -.228E+00 -.181E+01   -.340E-01 -.172E+00 -.268E+00
   -.143E-03 0.255E-01 0.348E+04   0.263E-03 0.128E-01 -.347E+04   0.119E-09 -.179E-02 -.231E+01   -.132E-01 -.384E-01 -.251E+00
   -.701E-01 0.143E-01 0.118E+04   0.622E+00 0.260E+00 -.118E+04   -.604E+00 -.326E+00 -.119E+01   0.257E-01 0.495E-01 -.311E+00
   -.916E-04 -.171E+01 0.117E+04   0.190E-03 0.124E+01 -.117E+04   -.194E-07 0.291E+00 -.339E-01   0.124E-01 0.115E+00 -.321E+00
   0.702E-01 0.143E-01 0.118E+04   -.622E+00 0.260E+00 -.118E+04   0.604E+00 -.326E+00 -.119E+01   -.280E-01 0.509E-01 -.309E+00
   -.162E+01 0.871E+00 0.117E+04   0.116E+01 -.610E+00 -.117E+04   0.330E+00 -.191E+00 -.197E+00   0.837E-01 -.371E-01 -.369E+00
   0.162E+01 0.871E+00 0.117E+04   -.116E+01 -.610E+00 -.117E+04   -.330E+00 -.191E+00 -.197E+00   -.596E-01 -.388E-01 -.370E+00
   -.142E-03 -.200E+01 0.118E+04   0.298E-03 0.167E+01 -.118E+04   -.126E-07 0.189E+00 -.978E+00   -.379E-02 0.113E+00 -.297E+00
   -.924E-04 0.341E-01 0.118E+04   0.186E-03 -.681E+00 -.118E+04   -.486E-07 0.731E+00 -.106E+01   -.766E-03 -.524E-01 -.362E+00
   -.161E+01 0.949E+00 0.118E+04   0.140E+01 -.764E+00 -.118E+04   0.141E+00 -.931E-01 -.907E+00   0.548E-01 -.904E-01 -.336E+00
   0.161E+01 0.949E+00 0.118E+04   -.140E+01 -.764E+00 -.118E+04   -.141E+00 -.931E-01 -.907E+00   -.534E-01 -.870E-01 -.333E+00
   -.635E-04 -.528E+01 -.112E+04   0.707E-04 0.508E+01 0.112E+04   -.647E-08 0.971E-01 0.123E+01   -.128E-01 0.816E-01 -.170E+00
   -.444E+02 -.254E+02 -.115E+04   0.459E+02 0.259E+02 0.115E+04   -.149E+01 -.594E+00 -.932E+00   -.684E-01 0.359E-01 -.329E+00
   0.444E+02 -.254E+02 -.115E+04   -.459E+02 0.259E+02 0.115E+04   0.149E+01 -.594E+00 -.932E+00   0.720E-01 0.343E-01 -.330E+00
   -.249E+02 0.139E+02 -.113E+04   0.243E+02 -.133E+02 0.113E+04   0.686E+00 -.519E+00 0.849E+00   -.485E-01 -.187E-01 -.214E+00
   -.926E-04 0.505E+02 -.115E+04   0.148E-03 -.522E+02 0.115E+04   -.120E-06 0.180E+01 -.122E+01   -.173E-03 0.287E-01 -.436E+00
   0.249E+02 0.139E+02 -.113E+04   -.243E+02 -.133E+02 0.113E+04   -.686E+00 -.519E+00 0.849E+00   0.482E-01 -.220E-01 -.214E+00
   0.492E+01 0.298E+01 -.112E+04   -.479E+01 -.298E+01 0.112E+04   -.491E-01 0.310E-01 0.109E+01   -.738E-01 -.241E-01 -.212E+00
   -.492E+01 0.298E+01 -.112E+04   0.479E+01 -.298E+01 0.112E+04   0.491E-01 0.310E-01 0.109E+01   0.506E-01 -.259E-01 -.212E+00
   -.112E-03 -.288E+02 -.113E+04   0.239E-03 0.280E+02 0.113E+04   -.585E-07 0.879E+00 0.776E+00   0.130E-01 -.299E-01 -.223E+00
   -.471E-04 0.285E+01 -.335E+04   0.386E-04 -.310E+01 0.335E+04   -.758E-08 0.114E+00 0.177E+01   -.668E-03 0.110E+00 0.203E+00
   -.239E+02 -.354E+02 -.334E+04   0.248E+02 0.361E+02 0.333E+04   -.901E+00 -.756E+00 0.867E+00   -.405E-01 -.647E-01 0.138E+00
   0.239E+02 -.354E+02 -.334E+04   -.248E+02 0.361E+02 0.333E+04   0.901E+00 -.756E+00 0.867E+00   0.419E-01 -.632E-01 0.136E+00
   -.404E+02 0.412E+00 -.333E+04   0.414E+02 -.311E+00 0.332E+04   -.925E+00 -.171E+00 0.204E+01   -.188E+00 0.793E-01 0.178E+00
   0.404E+02 0.412E+00 -.333E+04   -.414E+02 -.311E+00 0.332E+04   0.925E+00 -.171E+00 0.204E+01   0.187E+00 0.797E-01 0.177E+00
   -.242E+02 0.348E+02 -.334E+04   0.246E+02 -.356E+02 0.333E+04   -.456E+00 0.964E+00 0.106E+01   -.909E-01 0.125E-01 0.204E+00
   0.242E+02 0.348E+02 -.334E+04   -.246E+02 -.356E+02 0.333E+04   0.456E+00 0.964E+00 0.106E+01   0.936E-01 0.112E-01 0.204E+00
   -.152E-03 -.315E+01 -.336E+04   0.252E-03 0.336E+01 0.336E+04   -.223E-09 0.336E-02 0.239E+01   -.125E-01 -.155E+00 0.251E+00
   -.353E-04 0.240E+00 -.168E+04   0.757E-04 -.344E+00 0.168E+04   0.168E-08 -.253E-01 0.324E+01   0.807E-03 0.476E-02 0.519E-01
   0.209E+03 0.917E-01 -.165E+04   -.251E+03 -.112E+00 0.165E+04   0.417E+02 -.322E-02 -.806E+01   -.492E-01 0.246E-01 0.100E+00
   -.209E+03 0.917E-01 -.165E+04   0.251E+03 -.112E+00 0.165E+04   -.417E+02 -.322E-02 -.806E+01   0.513E-01 0.246E-01 0.100E+00
   -.129E-03 -.863E+00 0.272E+02   0.853E-13 0.226E-12 0.296E-11   -.485E-07 0.728E+00 -.218E+02   0.552E-02 0.137E+00 -.543E+01

 POSITION                                       TOTAL-FORCE (eV/Angst)
      0.00000      0.00000      5.37156         0.000000     -0.002404     -0.048711
      2.56560      0.00000      5.37156        -0.005350      0.012275      0.061157
      5.13119      0.00000      5.37156         0.005350      0.012275      0.061157
      1.28280      2.22187      5.37156         0.019140     -0.009793      0.047608
      3.84839      2.22187      5.37156         0.000000     -0.012892      0.030711
      6.41399      2.22187      5.37156        -0.019140     -0.009793      0.047608
      2.56560      4.44374      5.37156        -0.003894      0.002861      0.074328
      5.13119      4.44374      5.37156         0.003894      0.002861      0.074328
      7.69679      4.44374      5.37156         0.000000     -0.001907      0.016454
      1.28280      0.74062      7.46636        -0.025176     -0.001543     -0.072054
      3.84839      0.74062      7.46636         0.000000     -0.070122     -0.063765
      6.41399      0.74062      7.46636         0.025176     -0.001543     -0.072054
      2.56560      2.96249      7.46636        -0.055595      0.032238     -0.075041
      5.13119      2.96249      7.46636         0.055595      0.032238     -0.075041
      7.69679      2.96249      7.46636         0.000000     -0.024822      0.019145
      3.84839      5.18437      7.46636        -0.000000      0.031441     -0.066161
      6.41399      5.18437      7.46636        -0.017770      0.003348      0.033776
      8.97958      5.18437      7.46636         0.017770      0.003348      0.033776
      7.69679      1.48345      9.56239         0.000000     -0.017940      0.049235
      2.55319      1.47409      9.53589        -0.038702     -0.010976     -0.118811
      5.14360      1.47409      9.53589         0.038702     -0.010976     -0.118811
      8.97438      3.70612      9.57309         0.036762     -0.024449      0.018882
      3.84839      3.71744      9.53589        -0.000000      0.087916     -0.128949
      6.41919      3.70612      9.57309        -0.036762     -0.024449      0.018882
     10.26047      5.92389      9.56239         0.020429      0.006317      0.004398
      5.13310      5.92389      9.56239        -0.020429      0.006317      0.004398
      7.69679      5.91898      9.57309        -0.000000      0.062322      0.000182
      0.00000      0.00000     11.66245         0.000000     -0.030508     -0.063596
      6.40959      6.66262     11.69844        -0.084918     -0.155837     -0.187061
      8.98399      6.66262     11.69844         0.084918     -0.155837     -0.187061
      8.97479      2.21956     11.69844        -0.159742      0.009860     -0.120086
      6.41878      2.21956     11.69844         0.159742      0.009860     -0.120086
     10.26199      4.44905     11.69844        -0.104532      0.161900     -0.215787
      5.13158      4.44905     11.69844         0.104532      0.161900     -0.215787
      7.69679      4.44374     11.67118        -0.000000      0.049286     -0.044734
      3.84839      2.22187     11.59207         0.000000     -0.124879      1.418109
      3.26962      2.22789     13.88382         0.017075      0.001053     -0.010269
      4.42716      2.22789     13.88382        -0.017075      0.001053     -0.010269
    total drift:                                0.005391      0.001832     -0.025410

  FREE ENERGIE OF THE ION-ELECTRON SYSTEM (eV)
  free  energy   TOTEN  =      -149.12942110 eV

  energy  without entropy=     -149.12942110  energy(sigma->0) =     -149.12942110

 stress matrix after NEB project (eV)
     -5.01884      0.00000      0.00000
      0.00000     -5.03098     -0.12469
      0.00000     -0.12469      0.18970
  FORCES: max atom, RMS     0.019953    0.004577
  FORCE total and by dimension    0.028217    0.017075
  Stress total and by dimension    7.111022    5.030981
|           W    W    AA    RRRRR   N    N  II  N    N   GGGG   !!!           |
|           W    W   A  A   R    R  NN   N  II  NN   N  G    G  !!!           |
|           W    W  A    A  R    R  N N  N  II  N N  N  G       !!!           |
|           W WW W  AAAAAA  RRRRR   N  N N  II  N  N N  G  GGG   !            |
|           WW  WW  A    A  R   R   N   NN  II  N   NN  G    G                |
|           W    W  A    A  R    R  N    N  II  N    N   GGGG   !!!           |
|     Tetrahedron method does not include variations of the Fermi             |
|     occupations, so forces and stress will be inaccurate. We suggest        |
|     using a different smearing scheme ISMEAR = 1 or 2 for metals in         |
|     relaxations.                                                            |

 total charge

# of ion       s       p       d       tot
    1        0.450   0.283   9.189   9.922
    2        0.448   0.286   9.185   9.919
    3        0.448   0.286   9.185   9.919
    4        0.449   0.284   9.186   9.920
    5        0.449   0.284   9.181   9.915
    6        0.449   0.284   9.186   9.920
    7        0.447   0.285   9.187   9.918
    8        0.447   0.285   9.187   9.918
    9        0.448   0.283   9.190   9.920
   10        0.444   0.372   9.175   9.991
   11        0.443   0.364   9.185   9.993
   12        0.444   0.372   9.175   9.991
   13        0.443   0.365   9.184   9.992
   14        0.443   0.365   9.184   9.992
   15        0.438   0.369   9.177   9.983
   16        0.446   0.372   9.173   9.990
   17        0.437   0.368   9.178   9.984
   18        0.437   0.368   9.178   9.984
   19        0.439   0.366   9.181   9.985
   20        0.468   0.409   9.152  10.029
   21        0.468   0.409   9.152  10.029
   22        0.427   0.369   9.182   9.978
   23        0.474   0.406   9.153  10.033
   24        0.427   0.369   9.182   9.978
   25        0.441   0.364   9.182   9.988
   26        0.441   0.364   9.182   9.988
   27        0.429   0.367   9.184   9.980
   28        0.447   0.291   9.180   9.919
   29        0.475   0.317   9.164   9.956
   30        0.475   0.317   9.164   9.956
   31        0.469   0.311   9.169   9.950
   32        0.469   0.311   9.169   9.950
   33        0.475   0.316   9.165   9.955
   34        0.475   0.316   9.165   9.955
   35        0.440   0.294   9.182   9.916
   36        0.646   0.519   4.094   5.260
   37        1.354   2.443   0.000   3.797
   38        1.354   2.443   0.000   3.797
tot         19.102  17.173 325.290 361.565

 BZINTS: Fermi energy:    0.224980;  401.000000 electrons
         Band energy:-0.112764E+04;  BLOECHL correction:   -0.022509