 vasp.6.2.0 18Jan21 (build Jun 12 2021 23:27:24) complex

 executed on             LinuxIFC date 2022.05.26  20:05:58

 INCAR:
   ISMEAR = -5
   SIGMA = 0.1
   ISPIN = 1
   EDIFF = 1.d-5
   EDIFFG = -0.01
   NSW = 0
   NELM = 150
   ENCUT = 500
   ISIF = 2
   IBRION = 2
   LREAL = Auto
   ALGO = Fast
   ICHARG = 11
   LORBIT = 10
   LCHARG = .F.
   LWAVE = .F.

 POTCAR:    PAW_PBE Cu 22Jun2005
 POTCAR:    PAW_PBE Pd 04Jan2005
 POTCAR:    PAW_PBE O 08Apr2002
|           W    W    AA    RRRRR   N    N  II  N    N   GGGG   !!!           |
|           W    W   A  A   R    R  NN   N  II  NN   N  G    G  !!!           |
|           W    W  A    A  R    R  N N  N  II  N N  N  G       !!!           |
|           W WW W  AAAAAA  RRRRR   N  N N  II  N  N N  G  GGG   !            |
|           WW  WW  A    A  R   R   N   NN  II  N   NN  G    G                |
|           W    W  A    A  R    R  N    N  II  N    N   GGGG   !!!           |
|     For optimal performance we recommend to set                             |
|       NCORE = 2 up to number-of-cores-per-socket                            |
|     This setting can greatly improve the performance of VASP for DFT.       |
|     The default, NCORE=1 might be grossly inefficient on modern             |
|     multi-core architectures or massively parallel machines. Do your        |
|     Unfortunately you need to use the default for GW and RPA                |
|     calculations (for HF NCORE is supported but not extensively tested      |
|     yet).                                                                   |

 POTCAR:    PAW_PBE Cu 22Jun2005
   VRHFIN =Cu: d10 p1

   TITEL  = PAW_PBE Cu 22Jun2005
   POMASS =   63.546; ZVAL   =   11.000    mass and valenz
   ENMAX  =  295.446; ENMIN  =  221.585 eV

 POTCAR:    PAW_PBE Pd 04Jan2005
   VRHFIN =Pd : s1 d9

   TITEL  = PAW_PBE Pd 04Jan2005
   POMASS =  106.420; ZVAL   =   10.000    mass and valenz
   ENMAX  =  250.925; ENMIN  =  188.194 eV

 POTCAR:    PAW_PBE O 08Apr2002
   VRHFIN =O: s2p4

   TITEL  = PAW_PBE O 08Apr2002
   POMASS =   16.000; ZVAL   =    6.000    mass and valenz
   ENMAX  =  400.000; ENMIN  =  300.000 eV

 Optimization of the real space projectors (new method)

 maximal supplied QI-value         = 16.25
 optimisation between [QCUT,QGAM] = [ 11.38, 22.75] = [ 36.24,144.96] Ry
 Optimized for a Real-space Cutoff    1.52 Angstroem

   l    n(q)    QCUT    max X(q) W(low)/X(q) W(high)/X(q)  e(spline)
   2      9    11.376     4.610    0.21E-03    0.10E-03    0.26E-06
   2      9    11.376     8.522    0.33E-03    0.16E-03    0.37E-06
   0     10    11.376    51.609    0.62E-04    0.20E-04    0.13E-06
   0     10    11.376    27.747    0.54E-04    0.20E-04    0.13E-06
   1     10    11.376    20.408    0.13E-04    0.99E-04    0.19E-06
   1     10    11.376    13.425    0.12E-04    0.87E-04    0.17E-06
 Optimization of the real space projectors (new method)

[...]

   l    n(q)    QCUT    max X(q) W(low)/X(q) W(high)/X(q)  e(spline)
   2      9    11.346    59.108    0.74E-04    0.81E-04    0.26E-06
   2      9    11.346    58.101    0.74E-04    0.83E-04    0.27E-06
   0     10    11.346   102.235    0.26E-04    0.31E-04    0.16E-06
   0     10    11.346    58.388    0.23E-04    0.29E-04    0.15E-06
   1     10    11.346    22.191    0.23E-03    0.26E-03    0.14E-06
   1     10    11.346    15.590    0.19E-03    0.22E-03    0.12E-06
 Optimization of the real space projectors (new method)

 maximal supplied QI-value         = 24.76
 optimisation between [QCUT,QGAM] = [ 11.39, 22.77] = [ 36.31,145.25] Ry
 Optimized for a Real-space Cutoff    1.00 Angstroem

   l    n(q)    QCUT    max X(q) W(low)/X(q) W(high)/X(q)  e(spline)
   0      7    11.387    20.381    0.39E-03    0.13E-02    0.15E-06
   0      7    11.387    15.268    0.42E-03    0.14E-02    0.17E-06
   1      6    11.387     5.964    0.41E-03    0.11E-02    0.17E-06
   1      6    11.387     5.382    0.39E-03    0.87E-03    0.15E-06
  PAW_PBE Cu 22Jun2005                  :
  PAW_PBE Pd 04Jan2005                  :
  PAW_PBE O 08Apr2002                   :

 POSCAR: Cu-Pd-O
  positions in direct lattice
  velocities in cartesian coordinates
 exchange correlation table for  LEXCH =        8
   RHO(1)=    0.500       N(1)  =     2000
   RHO(2)=  100.500       N(2)  =     4000

 VTST: version 3.2, (02/03/18)

 CHAIN: initializing optimizer

 OPT: Using VASP Conjugate-Gradient optimizer
 CHAIN: Read ICHAIN            0

 POSCAR: Cu-Pd-O
  positions in direct lattice
  velocities in cartesian coordinates

 ion  position               nearest neighbor table
   1  0.000  0.000  0.252-   7 2.57   3 2.57   4 2.57   2 2.57   6 2.57   8 2.57  12 2.57  10 2.57
                            16 2.57
   2  0.333  0.000  0.252-   8 2.57   9 2.57   5 2.57   1 2.57   3 2.57  11 2.57   4 2.57  10 2.57
                            17 2.57
   3  0.667  0.000  0.252-   1 2.57   7 2.57   6 2.57   9 2.57   2 2.57  12 2.57   5 2.57  18 2.57
                            11 2.57
   4  0.000  0.333  0.252-   5 2.57   6 2.57   1 2.57   7 2.57   2 2.57  13 2.57   9 2.57  10 2.57
                            15 2.57
   5  0.333  0.333  0.252-   4 2.57   2 2.57   7 2.57  13 2.57   8 2.57   6 2.57   3 2.57  11 2.57
                            14 2.57
   6  0.667  0.333  0.252-   4 2.57   9 2.57  15 2.57   3 2.57   1 2.57   8 2.57  14 2.57   5 2.57
                            12 2.57
   7  0.000  0.667  0.252-   1 2.57   3 2.57  16 2.57  18 2.57   4 2.57   5 2.57   8 2.57   9 2.57
                            13 2.57
   8  0.333  0.667  0.252-   9 2.57   2 2.57  17 2.57   6 2.57   1 2.57   7 2.57   5 2.57  14 2.57
                            16 2.57
   9  0.667  0.667  0.252-   8 2.57   6 2.57   2 2.57  17 2.57   3 2.57   7 2.57   4 2.57  15 2.57
                            18 2.57
  10  0.111  0.111  0.351-  20 2.54  26 2.55  19 2.55  11 2.57  12 2.57  13 2.57   1 2.57   2 2.57
                             4 2.57  15 2.57  16 2.57  17 2.57
  11  0.444  0.111  0.351-  20 2.55  21 2.55  27 2.55  10 2.57  13 2.57   2 2.57  17 2.57  14 2.57
                            12 2.57   5 2.57   3 2.57  18 2.57
  12  0.778  0.111  0.351-  21 2.54  19 2.55  25 2.55  15 2.57  10 2.57  14 2.57  18 2.57   3 2.57
                             1 2.57  16 2.57  11 2.57   6 2.57
  13  0.111  0.444  0.351-  23 2.55  20 2.55  22 2.55  16 2.57  18 2.57  10 2.57  11 2.57  14 2.57
                             5 2.57   4 2.57   7 2.57  15 2.57
  14  0.444  0.444  0.351-  21 2.55  23 2.55  24 2.55  15 2.57  17 2.57  12 2.57  16 2.57  13 2.57
                            11 2.57   6 2.57   8 2.57   5 2.57
  15  0.778  0.444  0.351-  19 2.55  24 2.55  22 2.55  14 2.57  17 2.57  12 2.57   6 2.57  18 2.57
                            10 2.57   9 2.57  13 2.57   4 2.57
  16  0.111  0.778  0.351-  23 2.54  25 2.55  26 2.55  18 2.57  13 2.57   7 2.57  14 2.57  17 2.57
                            12 2.57  10 2.57   8 2.57   1 2.57
  17  0.444  0.778  0.351-  26 2.55  27 2.55  24 2.55  14 2.57  15 2.57   8 2.57   9 2.57  11 2.57
                            16 2.57  18 2.57  10 2.57   2 2.57
  18  0.778  0.778  0.351-  25 2.55  22 2.55  27 2.55  16 2.57  13 2.57   7 2.57  15 2.57  12 2.57
                            17 2.57   9 2.57   3 2.57  11 2.57
  19  0.889  0.222  0.448-  32 2.54  31 2.54  28 2.55  15 2.55  12 2.55  10 2.55  21 2.56  20 2.56
                            22 2.56  24 2.56  25 2.57  26 2.57
  20  0.222  0.222  0.448-  10 2.54  11 2.55  13 2.55  26 2.56  19 2.56  27 2.56  22 2.56  29 2.57
                            31 2.57  23 2.58  21 2.58  36 2.62
  21  0.557  0.222  0.448-  12 2.54  14 2.55  11 2.55  19 2.56  25 2.56  24 2.56  27 2.56  32 2.57
                            30 2.57  20 2.58  23 2.58  36 2.62
  22  0.889  0.555  0.449-  35 2.54  31 2.55  33 2.55  13 2.55  18 2.55  15 2.55  23 2.56  20 2.56
                            19 2.56  25 2.56  24 2.57  27 2.57
  23  0.222  0.557  0.448-  16 2.54  13 2.55  14 2.55  25 2.56  26 2.56  22 2.56  24 2.56  33 2.57
                            34 2.57  20 2.58  21 2.58  36 2.62
  24  0.555  0.555  0.449-  35 2.54  32 2.55  34 2.55  14 2.55  15 2.55  17 2.55  21 2.56  23 2.56
                            19 2.56  26 2.56  22 2.57  27 2.57
  25  0.889  0.889  0.448-  33 2.54  30 2.54  28 2.55  18 2.55  16 2.55  12 2.55  21 2.56  23 2.56
                            22 2.56  27 2.56  19 2.57  26 2.57
  26  0.222  0.889  0.448-  29 2.54  34 2.54  28 2.55  17 2.55  10 2.55  16 2.55  20 2.56  23 2.56
                            27 2.56  24 2.56  25 2.57  19 2.57
  27  0.555  0.889  0.449-  35 2.54  29 2.55  30 2.55  11 2.55  17 2.55  18 2.55  20 2.56  21 2.56
                            26 2.56  25 2.56  24 2.57  22 2.57
  28  0.000  0.000  0.545-  25 2.55  19 2.55  26 2.55  33 2.55  30 2.55  31 2.55  29 2.55  32 2.55
                            34 2.55
  29  0.333  0.996  0.546-  34 2.51  26 2.54  28 2.55  27 2.55  35 2.55  20 2.57  31 2.59  36 2.60
                            30 2.60
  30  0.671  0.996  0.546-  33 2.51  25 2.54  28 2.55  27 2.55  35 2.55  21 2.57  32 2.59  36 2.60
                            29 2.60
  31  0.996  0.333  0.546-  32 2.51  19 2.54  28 2.55  22 2.55  35 2.55  20 2.57  29 2.59  36 2.60
                            33 2.60
  32  0.671  0.333  0.546-  31 2.51  19 2.54  28 2.55  24 2.55  35 2.55  21 2.57  30 2.59  36 2.60
                            34 2.60
  33  0.996  0.671  0.546-  30 2.51  25 2.54  28 2.55  22 2.55  35 2.55  23 2.57  34 2.59  36 2.60
                            31 2.60
  34  0.333  0.671  0.546-  29 2.51  26 2.54  28 2.55  24 2.55  35 2.55  23 2.57  33 2.59  36 2.60
                            32 2.60
  35  0.667  0.667  0.546-  24 2.54  27 2.54  22 2.54  34 2.55  32 2.55  29 2.55  30 2.55  33 2.55
                            31 2.55
  36  0.333  0.333  0.549-  37 1.85  31 2.60  29 2.60  33 2.60  34 2.60  32 2.60  30 2.60  23 2.62
                            20 2.62  21 2.62
  37  0.333  0.333  0.636-  36 1.85

  LATTYP: Found a hexagonal cell.
 ALAT       =     7.6967864036
 C/A-ratio  =     2.7653617908

  Lattice vectors:

 A1 = (  -3.8483927580,  -6.6656128093,   0.0000000000)
 A2 = (   7.6967864037,   0.0000000000,   0.0000000000)
 A3 = (   0.0000000000,   0.0000000000,  21.2843990326)

Analysis of symmetry for initial positions (statically):
 Subroutine PRICEL returns:
 Original cell was already a primitive cell.

 Routine SETGRP: Setting up the symmetry group for a
 hexagonal supercell.

 Subroutine GETGRP returns: Found  6 space group operations
 (whereof  6 operations were pure point group operations)
 out of a pool of 24 trial point group operations.

The static configuration has the point symmetry C_3v.

Analysis of symmetry for dynamics (positions and initial velocities):
 Subroutine PRICEL returns:
 Original cell was already a primitive cell.

[...]

The dynamic configuration has the point symmetry C_3v.

Analysis of constrained symmetry for selective dynamics:
 Subroutine PRICEL returns:
 Original cell was already a primitive cell.

 Routine SETGRP: Setting up the symmetry group for a
 hexagonal supercell.

 Subroutine GETGRP returns: Found  6 space group operations
[...]
     24      -4.4762      2.00000
     25      -4.4277      2.00000
     26      -4.3786      2.00000
     27      -4.3552      2.00000
     28      -4.2922      2.00000
     29      -4.2634      2.00000
     30      -4.2388      2.00000
     31      -4.2169      2.00000
     32      -4.1968      2.00000
     33      -4.1840      2.00000
     34      -4.1765      2.00000
     35      -4.1539      2.00000
     36      -4.1132      2.00000
     37      -4.0850      2.00000
     38      -4.0182      2.00000
     39      -3.9704      2.00000
     40      -3.9354      2.00000
     41      -3.8670      2.00000
     42      -3.8575      2.00000
     43      -3.8026      2.00000
     44      -3.7744      2.00000
     45      -3.7619      2.00000
     46      -3.7558      2.00000
     47      -3.7038      2.00000
     48      -3.6441      2.00000
     49      -3.6325      2.00000
     50      -3.5873      2.00000
     51      -3.5303      2.00000
     52      -3.5247      2.00000
     53      -3.5003      2.00000
     54      -3.4655      2.00000
     55      -3.4486      2.00000
     56      -3.4439      2.00000
     57      -3.4315      2.00000
     58      -3.4094      2.00000
     59      -3.4050      2.00000
     60      -3.3756      2.00000
[...]
    238       6.3063      0.00000
    239       6.3717      0.00000
    240       6.3799      0.00000
    241       6.9875      0.00000
    242       7.0713      0.00000
    243       7.1483      0.00000
    244       7.1878      0.00000
    245       7.2112      0.00000
    246       7.2264      0.00000
    247       7.3172      0.00000
    248       7.5266      0.00000
    249       7.5926      0.00000
    250       7.6425      0.00000
    251       7.7568      0.00000
    252       7.8995      0.00000

 soft charge-density along one line, spin component           1
         0         1         2         3         4         5         6         7         8         9
 total charge-density along one line

------------------------ aborting loop because EDIFF is reached ----------------------------------------

 total charge

# of ion       s       p       d       tot
    1        0.448   0.283   9.190   9.922
    2        0.449   0.284   9.188   9.921
    3        0.449   0.284   9.188   9.921
    4        0.449   0.284   9.188   9.921
    5        0.448   0.287   9.186   9.922
    6        0.449   0.284   9.188   9.921
    7        0.449   0.284   9.188   9.921
    8        0.449   0.284   9.188   9.921
    9        0.446   0.284   9.185   9.915
   10        0.442   0.373   9.182   9.996
   11        0.442   0.370   9.181   9.993
   12        0.442   0.373   9.182   9.996
   13        0.442   0.370   9.181   9.993
   14        0.442   0.370   9.181   9.993
   15        0.440   0.370   9.182   9.991
   16        0.442   0.373   9.182   9.996
   17        0.440   0.370   9.182   9.991
   18        0.440   0.370   9.182   9.991
   19        0.442   0.380   9.177  10.000
   20        0.447   0.376   9.180  10.003
   21        0.447   0.376   9.180  10.003
   22        0.441   0.371   9.185   9.997
   23        0.447   0.376   9.180  10.003
   24        0.441   0.371   9.185   9.997
   25        0.442   0.380   9.177  10.000
   26        0.442   0.380   9.177  10.000
   27        0.441   0.371   9.185   9.997
   28        0.457   0.288   9.198   9.943
   29        0.439   0.290   9.200   9.929
   30        0.439   0.290   9.200   9.929
   31        0.439   0.290   9.200   9.929
   32        0.439   0.290   9.200   9.929
   33        0.439   0.290   9.200   9.929
   34        0.439   0.290   9.200   9.929
   35        0.452   0.293   9.191   9.937
   36        0.590   0.658   8.431   9.678
   37        1.602   3.176   0.000   4.779
tot         17.739  15.432 329.965 363.135

  FORCE on cell =-STRESS in cart. coord.  units (eV):
  Direction    XX          YY          ZZ          XY          YZ          ZX
  Alpha Z   886.95632   886.95632   886.95632
  Ewald  174585.61394174585.61350************     0.00039     0.00012     0.00020
  Hartree187720.97856187720.97853************     0.00004     0.00006     0.00008
  E(xc)   -2329.49890 -2329.49849 -2333.22516    -0.00036    -0.00004    -0.00007
  Local  ************************375609.43577     0.01877    -0.00059    -0.00100
  n-local  -783.00218  -769.21492  -786.32343     7.76574    -0.08505     0.28836
  augment  3388.76513  3388.78522  3399.99719    -0.01740     0.00026     0.00044
  Kinetic  3398.11419  3401.06797  3406.42214     3.57986     1.94293    -1.17411
  Fock        0.00000     0.00000     0.00000     0.00000     0.00000     0.00000
  Total      -0.46821    -0.46821     4.75058     0.00000    -0.00000    -0.00000
  in kB      -0.68698    -0.68698     6.97022     0.00000    -0.00000    -0.00000

 VOLUME and BASIS-vectors are now :
  energy-cutoff  :      500.00
  volume of cell :     1091.97
      direct lattice vectors                 reciprocal lattice vectors
     7.696786404  0.000000000  0.000000000     0.129924354 -0.075011849  0.000000000
     3.848392758  6.665612809  0.000000000     0.000000000  0.150023716  0.000000000
     0.000000000  0.000000000 21.284399033     0.000000000  0.000000000  0.046982769

  length of vectors
     7.696786404  7.696786404 21.284399033     0.150023716  0.150023716  0.046982769

 FORCES acting on ions
    electron-ion (+dipol)            ewald-force                    non-local-force                 convergence-correction
   -.413E-04 0.326E-06 0.351E+04   0.579E-04 -.442E-05 -.351E+04   0.156E-17 0.628E-17 -.283E+01   -.259E-03 -.117E-03 -.607E+00
   -.429E+00 0.936E-02 0.351E+04   0.344E+00 0.190E+00 -.351E+04   0.249E-01 0.570E-01 -.202E+01   0.666E-01 -.235E+00 -.499E+00
   0.429E+00 0.939E-02 0.351E+04   -.344E+00 0.190E+00 -.351E+04   -.249E-01 0.570E-01 -.202E+01   -.658E-01 -.232E+00 -.498E+00
   -.206E+00 -.376E+00 0.351E+04   0.337E+00 0.203E+00 -.351E+04   0.618E-01 -.690E-02 -.202E+01   -.170E+00 0.175E+00 -.499E+00
   -.656E-04 -.562E-05 0.351E+04   0.116E-03 -.101E-04 -.351E+04   0.538E-18 0.131E-17 -.174E+01   0.122E-01 0.746E-02 -.518E+00
   0.206E+00 -.376E+00 0.351E+04   -.337E+00 0.202E+00 -.351E+04   -.618E-01 -.690E-02 -.202E+01   0.169E+00 0.176E+00 -.498E+00
   0.223E+00 0.367E+00 0.351E+04   -.703E-02 -.393E+00 -.351E+04   0.369E-01 -.501E-01 -.202E+01   -.234E+00 0.592E-01 -.498E+00
   -.222E+00 0.367E+00 0.351E+04   0.676E-02 -.393E+00 -.351E+04   -.369E-01 -.501E-01 -.202E+01   0.238E+00 0.578E-01 -.498E+00
   -.144E-03 -.328E-04 0.351E+04   0.263E-03 0.206E-04 -.351E+04   0.286E-17 -.163E-17 -.250E+01   -.133E-01 -.687E-02 -.392E+00
   -.163E+01 -.938E+00 0.121E+04   0.190E+01 0.109E+01 -.121E+04   -.290E+00 -.167E+00 -.103E+01   0.332E-01 0.191E-01 0.219E-01
   -.913E-04 -.223E+01 0.121E+04   0.191E-03 0.245E+01 -.121E+04   -.110E-08 0.166E-01 -.460E+00   0.113E-01 -.252E+00 0.146E+00
   0.163E+01 -.938E+00 0.121E+04   -.190E+01 0.109E+01 -.121E+04   0.290E+00 -.167E+00 -.103E+01   -.347E-01 0.211E-01 0.215E-01
   -.193E+01 0.111E+01 0.121E+04   0.212E+01 -.122E+01 -.121E+04   0.143E-01 -.828E-02 -.460E+00   -.212E+00 0.137E+00 0.147E+00
   0.193E+01 0.111E+01 0.121E+04   -.212E+01 -.122E+01 -.121E+04   -.143E-01 -.828E-02 -.460E+00   0.236E+00 0.136E+00 0.146E+00
   -.142E-03 -.195E+01 0.121E+04   0.298E-03 0.153E+01 -.121E+04   -.624E-08 0.938E-01 -.911E+00   -.380E-02 0.313E+00 -.114E-01
   -.917E-04 0.188E+01 0.121E+04   0.186E-03 -.219E+01 -.121E+04   -.223E-07 0.335E+00 -.103E+01   -.154E-04 -.418E-01 0.214E-01
   -.169E+01 0.974E+00 0.121E+04   0.133E+01 -.766E+00 -.121E+04   0.812E-01 -.469E-01 -.911E+00   0.270E+00 -.160E+00 -.115E-01
   0.169E+01 0.974E+00 0.121E+04   -.133E+01 -.766E+00 -.121E+04   -.812E-01 -.469E-01 -.911E+00   -.269E+00 -.157E+00 -.118E-01
   -.576E-04 -.110E+01 -.110E+04   0.677E-04 0.850E+00 0.110E+04   -.964E-08 0.145E+00 0.836E+00   0.953E-02 0.126E+00 0.396E+00
   -.210E+02 -.121E+02 -.113E+04   0.216E+02 0.125E+02 0.112E+04   -.664E+00 -.383E+00 0.788E-03   0.121E+00 0.695E-01 0.604E+00
   0.210E+02 -.121E+02 -.113E+04   -.216E+02 0.125E+02 0.112E+04   0.664E+00 -.383E+00 0.788E-03   -.984E-01 0.720E-01 0.603E+00
   -.842E+01 0.486E+01 -.111E+04   0.841E+01 -.486E+01 0.111E+04   0.537E-01 -.310E-01 0.969E+00   -.344E-01 0.167E-01 0.299E+00
   -.743E-04 0.243E+02 -.113E+04   0.148E-03 -.250E+02 0.112E+04   -.510E-07 0.766E+00 0.788E-03   0.119E-01 -.122E+00 0.603E+00
   0.842E+01 0.486E+01 -.111E+04   -.841E+01 -.486E+01 0.111E+04   -.537E-01 -.310E-01 0.969E+00   0.316E-01 0.173E-01 0.299E+00
   0.949E+00 0.548E+00 -.110E+04   -.736E+00 -.425E+00 0.110E+04   -.125E+00 -.724E-01 0.836E+00   -.915E-01 -.528E-01 0.396E+00
   -.949E+00 0.548E+00 -.110E+04   0.736E+00 -.425E+00 0.110E+04   0.125E+00 -.724E-01 0.836E+00   0.115E+00 -.547E-01 0.396E+00
   -.133E-03 -.972E+01 -.111E+04   0.246E-03 0.971E+01 0.111E+04   -.413E-08 0.620E-01 0.969E+00   -.282E-02 -.382E-01 0.299E+00
   -.193E-04 0.267E-04 -.343E+04   0.381E-04 -.338E-04 0.343E+04   0.633E-17 0.844E-17 0.230E+01   0.756E-04 0.955E-04 0.662E+00
   -.434E+01 -.592E+01 -.341E+04   0.334E+01 0.386E+01 0.341E+04   0.787E+00 0.171E+01 0.294E+01   0.150E+00 0.230E+00 0.584E+00
   0.434E+01 -.592E+01 -.341E+04   -.334E+01 0.386E+01 0.341E+04   -.787E+00 0.171E+01 0.294E+01   -.150E+00 0.233E+00 0.585E+00
   -.730E+01 -.803E+00 -.341E+04   0.502E+01 0.966E+00 0.341E+04   0.188E+01 -.175E+00 0.294E+01   0.274E+00 0.149E-01 0.584E+00
   0.730E+01 -.803E+00 -.341E+04   -.502E+01 0.966E+00 0.341E+04   -.188E+01 -.175E+00 0.294E+01   -.276E+00 0.164E-01 0.584E+00
   -.295E+01 0.672E+01 -.341E+04   0.167E+01 -.483E+01 0.341E+04   0.109E+01 -.154E+01 0.294E+01   0.127E+00 -.246E+00 0.585E+00
   0.295E+01 0.672E+01 -.341E+04   -.167E+01 -.483E+01 0.341E+04   -.109E+01 -.154E+01 0.294E+01   -.123E+00 -.247E+00 0.584E+00
   -.152E-03 -.247E-04 -.343E+04   0.259E-03 0.279E-05 0.343E+04   0.289E-17 -.778E-18 0.228E+01   -.135E-01 -.700E-02 0.605E+00
   -.300E-04 -.381E-04 -.293E+04   0.120E-03 0.255E-04 0.293E+04   0.204E-17 -.908E-18 -.303E+01   0.432E-02 0.262E-02 0.837E+00
   0.171E-03 -.849E-04 -.219E+04   0.137E-04 0.672E-05 0.222E+04   -.107E-17 -.458E-18 -.242E+02   0.320E-02 0.195E-02 -.163E-01
   -.949E-04 -.123E-03 0.204E+02   0.130E-12 0.248E-12 0.136E-11   0.385E-17 -.224E-15 -.260E+02   0.893E-01 0.487E-01 0.546E+01

 POSITION                                       TOTAL-FORCE (eV/Angst)
      0.00000      0.00000      5.37156        -0.000000      0.000000      0.047137
      2.56560      0.00000      5.37156         0.006894      0.022864      0.080499
      5.13119      0.00000      5.37156        -0.006894      0.022864      0.080499
      1.28280      2.22187      5.37156         0.023248     -0.005462      0.080499
      3.84839      2.22187      5.37156         0.000000      0.000000      0.096416
      6.41399      2.22187      5.37156        -0.023248     -0.005462      0.080499
      2.56560      4.44374      5.37156         0.016354     -0.017402      0.080499
      5.13119      4.44374      5.37156        -0.016354     -0.017402      0.080499
      7.69679      4.44374      5.37156         0.000000      0.000000      0.054238
      1.28280      0.74062      7.46636         0.015164      0.008755     -0.086871
      3.84839      0.74062      7.46636         0.000000     -0.023110     -0.081278
      6.41399      0.74062      7.46636        -0.015164      0.008755     -0.086871
      2.56560      2.96249      7.46636        -0.020014      0.011555     -0.081278
      5.13119      2.96249      7.46636         0.020014      0.011555     -0.081278
      7.69679      2.96249      7.46636         0.000000     -0.009228     -0.086757
      3.84839      5.18437      7.46636         0.000000     -0.017510     -0.086871
      6.41399      5.18437      7.46636        -0.007991      0.004614     -0.086757
      8.97958      5.18437      7.46636         0.007991      0.004614     -0.086757
      7.69679      1.48223      9.53996        -0.000000      0.018199      0.024072
      2.55948      1.47772      9.53985         0.068572      0.039590     -0.146653
      5.13731      1.47772      9.53985        -0.068572      0.039590     -0.146653
      8.98047      3.70261      9.54732         0.016071     -0.009279     -0.016913
      3.84839      3.71018      9.53985         0.000000     -0.079180     -0.146653
      6.41310      3.70261      9.54732        -0.016071     -0.009279     -0.016913
     10.26153      5.92450      9.53996        -0.015760     -0.009099      0.024072
      5.13204      5.92450      9.53996         0.015760     -0.009099      0.024072
      7.69679      5.92601      9.54732        -0.000000      0.018557     -0.016913
      0.00000      0.00000     11.61018        -0.000000      0.000000     -0.029057
      6.39795      6.64100     11.62214        -0.061140     -0.112617      0.018035
      8.99562      6.64100     11.62214         0.061140     -0.112617      0.018035
      8.95025      2.22029     11.62214        -0.128099      0.003359      0.018035
      6.44333      2.22029     11.62214         0.128099      0.003359      0.018035
     10.24908      4.46994     11.62214        -0.066959      0.109257      0.018035
      5.14449      4.46994     11.62214         0.066959      0.109257      0.018035
      7.69679      4.44374     11.61116        -0.000000     -0.000000      0.011475
      3.84839      2.22187     11.69545        -0.000000      0.000000      0.476057
      3.84839      2.22187     13.54493        -0.000000      0.000000     -0.064272
    total drift:                                0.089248      0.048547     -0.109488

  FREE ENERGIE OF THE ION-ELECTRON SYSTEM (eV)
  free  energy   TOTEN  =      -132.28721070 eV

  energy  without entropy=     -132.28721070  energy(sigma->0) =     -132.28721070

 stress matrix after NEB project (eV)
     -0.46821      0.00000     -0.00000
      0.00000     -0.46821      0.00000
     -0.00000     -0.00000      4.75058
  FORCES: max atom, RMS     0.064272    0.010566
  FORCE total and by dimension    0.064272    0.064272
  Stress total and by dimension    4.796507    4.750582
|           W    W    AA    RRRRR   N    N  II  N    N   GGGG   !!!           |
|           W    W   A  A   R    R  NN   N  II  NN   N  G    G  !!!           |
|           W    W  A    A  R    R  N N  N  II  N N  N  G       !!!           |
|           W WW W  AAAAAA  RRRRR   N  N N  II  N  N N  G  GGG   !            |
|           WW  WW  A    A  R   R   N   NN  II  N   NN  G    G                |
|           W    W  A    A  R    R  N    N  II  N    N   GGGG   !!!           |
|     Tetrahedron method does not include variations of the Fermi             |
|     occupations, so forces and stress will be inaccurate. We suggest        |
|     using a different smearing scheme ISMEAR = 1 or 2 for metals in         |
|     relaxations.                                                            |

 total charge

# of ion       s       p       d       tot
    1        0.448   0.283   9.190   9.922
    2        0.449   0.284   9.188   9.921
    3        0.449   0.284   9.188   9.921
    4        0.449   0.284   9.188   9.921
    5        0.448   0.287   9.186   9.922
    6        0.449   0.284   9.188   9.921
    7        0.449   0.284   9.188   9.921
    8        0.449   0.284   9.188   9.921
    9        0.446   0.284   9.185   9.915
   10        0.442   0.373   9.182   9.996
   11        0.442   0.370   9.181   9.993
   12        0.442   0.373   9.182   9.996
   13        0.442   0.370   9.181   9.993
   14        0.442   0.370   9.181   9.993
   15        0.440   0.370   9.182   9.991
   16        0.442   0.373   9.182   9.996
   17        0.440   0.370   9.182   9.991
   18        0.440   0.370   9.182   9.991
   19        0.442   0.380   9.177  10.000
   20        0.447   0.376   9.180  10.003
   21        0.447   0.376   9.180  10.003
   22        0.441   0.371   9.185   9.997
   23        0.447   0.376   9.180  10.003
   24        0.441   0.371   9.185   9.997
   25        0.442   0.380   9.177  10.000
   26        0.442   0.380   9.177  10.000
   27        0.441   0.371   9.185   9.997
   28        0.457   0.288   9.198   9.943
   29        0.439   0.290   9.200   9.929
   30        0.439   0.290   9.200   9.929
   31        0.439   0.290   9.200   9.929
   32        0.439   0.290   9.200   9.929
   33        0.439   0.290   9.200   9.929
   34        0.439   0.290   9.200   9.929
   35        0.452   0.293   9.191   9.937
   36        0.590   0.658   8.431   9.678
   37        1.602   3.176   0.000   4.779
tot         17.739  15.432 329.965 363.135

 BZINTS: Fermi energy:   -0.084113;  401.000000 electrons
         Band energy:-0.118886E+04;  BLOECHL correction:   -0.034676