 vasp.6.2.0 18Jan21 (build Jun 12 2021 23:27:24) complex

 executed on             LinuxIFC date 2022.05.27  05:54:09

 INCAR:
   ISMEAR = -5
   SIGMA = 0.1
   ISPIN = 1
   EDIFF = 1.d-5
   EDIFFG = -0.01
   NSW = 0
   NELM = 150
   ENCUT = 500
   ISIF = 2
   IBRION = 2
   LREAL = Auto
   ALGO = Fast
   ICHARG = 11
   LORBIT = 10
   LCHARG = .F.
   LWAVE = .F.

 POTCAR:    PAW_PBE Ag 02Apr2005
 POTCAR:    PAW_PBE Ir 06Sep2000
 POTCAR:    PAW_PBE O 08Apr2002
 POTCAR:    PAW_PBE H 15Jun2001
|           W    W    AA    RRRRR   N    N  II  N    N   GGGG   !!!           |
|           W    W   A  A   R    R  NN   N  II  NN   N  G    G  !!!           |
|           W    W  A    A  R    R  N N  N  II  N N  N  G       !!!           |
|           W WW W  AAAAAA  RRRRR   N  N N  II  N  N N  G  GGG   !            |
|           WW  WW  A    A  R   R   N   NN  II  N   NN  G    G                |
|           W    W  A    A  R    R  N    N  II  N    N   GGGG   !!!           |
|     For optimal performance we recommend to set                             |
|       NCORE = 2 up to number-of-cores-per-socket                            |
|     This setting can greatly improve the performance of VASP for DFT.       |
|     The default, NCORE=1 might be grossly inefficient on modern             |
|     multi-core architectures or massively parallel machines. Do your        |
|     Unfortunately you need to use the default for GW and RPA                |
|     calculations (for HF NCORE is supported but not extensively tested      |
|     yet).                                                                   |

 POTCAR:    PAW_PBE Ag 02Apr2005
   VRHFIN =Ag : s1 d10

   TITEL  = PAW_PBE Ag 02Apr2005
   POMASS =  107.868; ZVAL   =   11.000    mass and valenz
   ENMAX  =  249.844; ENMIN  =  187.383 eV

 POTCAR:    PAW_PBE Ir 06Sep2000
   VRHFIN =Ir: s1d8

   TITEL  = PAW_PBE Ir 06Sep2000
   POMASS =  192.220; ZVAL   =    9.000    mass and valenz
   ENMAX  =  210.864; ENMIN  =  158.148 eV

 POTCAR:    PAW_PBE O 08Apr2002
   VRHFIN =O: s2p4

   TITEL  = PAW_PBE O 08Apr2002
   POMASS =   16.000; ZVAL   =    6.000    mass and valenz
   ENMAX  =  400.000; ENMIN  =  300.000 eV

 POTCAR:    PAW_PBE H 15Jun2001
   VRHFIN =H: ultrasoft test

   TITEL  = PAW_PBE H 15Jun2001
   POMASS =    1.000; ZVAL   =    1.000    mass and valenz
   ENMAX  =  250.000; ENMIN  =  200.000 eV

 Optimization of the real space projectors (new method)

 maximal supplied QI-value         = 15.12
 optimisation between [QCUT,QGAM] = [ 11.34, 22.83] = [ 36.00,145.93] Ry
 Optimized for a Real-space Cutoff    1.43 Angstroem

   l    n(q)    QCUT    max X(q) W(low)/X(q) W(high)/X(q)  e(spline)
   2      9    11.338    53.897    0.16E-03    0.20E-03    0.28E-06
   2      9    11.338    52.416    0.16E-03    0.20E-03    0.29E-06
   0     10    11.338   122.045    0.31E-04    0.76E-04    0.15E-06
   0     10    11.338    73.629    0.30E-04    0.72E-04    0.15E-06
   1      9    11.338    15.255    0.20E-03    0.19E-04    0.17E-06
   1      9    11.338     9.562    0.16E-03    0.15E-04    0.14E-06
 Optimization of the real space projectors (new method)

[...]

   l    n(q)    QCUT    max X(q) W(low)/X(q) W(high)/X(q)  e(spline)
   0      7    11.387    20.381    0.39E-03    0.13E-02    0.15E-06
   0      7    11.387    15.268    0.42E-03    0.14E-02    0.17E-06
   1      6    11.387     5.964    0.41E-03    0.11E-02    0.17E-06
   1      6    11.387     5.382    0.39E-03    0.87E-03    0.15E-06
 Optimization of the real space projectors (new method)

 maximal supplied QI-value         = 34.20
 optimisation between [QCUT,QGAM] = [ 11.29, 22.57] = [ 35.68,142.71] Ry
 Optimized for a Real-space Cutoff    1.16 Angstroem

   l    n(q)    QCUT    max X(q) W(low)/X(q) W(high)/X(q)  e(spline)
   0      8    11.287    19.460    0.40E-03    0.73E-03    0.16E-06
   0      8    11.287    12.209    0.38E-03    0.70E-03    0.15E-06
   1      7    11.287     4.655    0.22E-03    0.25E-04    0.22E-06
  PAW_PBE Ag 02Apr2005                  :
  PAW_PBE Ir 06Sep2000                  :
  PAW_PBE O 08Apr2002                   :
  PAW_PBE H 15Jun2001                   :

 POSCAR: Ag-Ir-OH
  positions in direct lattice
  velocities in cartesian coordinates
 exchange correlation table for  LEXCH =        8
   RHO(1)=    0.500       N(1)  =     2000
   RHO(2)=  100.500       N(2)  =     4000

 VTST: version 3.2, (02/03/18)

 CHAIN: initializing optimizer

 OPT: Using VASP Conjugate-Gradient optimizer
 CHAIN: Read ICHAIN            0

 POSCAR: Ag-Ir-OH
  positions in direct lattice
  velocities in cartesian coordinates

 ion  position               nearest neighbor table
   1  0.000  0.000  0.209-   2 2.93   8 2.93   7 2.93   6 2.93   4 2.93  12 2.93  16 2.93  10 2.93
                             3 2.93
   2  0.333  0.000  0.209-   1 2.93   8 2.93   9 2.93   3 2.93   4 2.93   5 2.93  10 2.93  17 2.93
                            11 2.93
   3  0.667  0.000  0.209-   9 2.93   2 2.93   5 2.93  11 2.93   7 2.93  18 2.93   1 2.93   6 2.93
                            12 2.93
   4  0.000  0.333  0.209-   5 2.93   6 2.93   2 2.93   1 2.93   7 2.93  13 2.93  15 2.93   9 2.93
                            10 2.93
   5  0.333  0.333  0.209-   4 2.93   3 2.93   7 2.93   2 2.93   8 2.93  14 2.93  13 2.93  11 2.93
                             6 2.93
   6  0.667  0.333  0.209-   4 2.93   9 2.93   1 2.93  15 2.93   8 2.93  12 2.93   3 2.93   5 2.93
                            14 2.93
   7  0.000  0.667  0.209-   8 2.93   1 2.93   5 2.93   3 2.93   4 2.93  16 2.93  18 2.93  13 2.93
                             9 2.93
   8  0.333  0.667  0.209-   7 2.93   1 2.93   2 2.93   9 2.93   5 2.93  16 2.93   6 2.93  17 2.93
                            14 2.93
   9  0.667  0.667  0.209-   3 2.93   2 2.93   8 2.93   6 2.93  17 2.93   4 2.93  15 2.93   7 2.93
                            18 2.93
  10  0.111  0.111  0.304-  20 2.89  12 2.93  16 2.93  15 2.93  17 2.93  13 2.93  11 2.93   2 2.93
                             1 2.93   4 2.93  19 2.93  26 2.93
  11  0.444  0.111  0.304-  21 2.90  20 2.90  27 2.92  14 2.93  17 2.93  18 2.93   3 2.93  12 2.93
                            13 2.93  10 2.93   5 2.93   2 2.93
  12  0.778  0.111  0.304-  21 2.89  10 2.93  16 2.93  18 2.93  15 2.93  11 2.93   1 2.93  14 2.93
                             6 2.93   3 2.93  25 2.93  19 2.93
  13  0.111  0.444  0.304-  20 2.90  23 2.90  22 2.92  15 2.93  14 2.93  18 2.93  10 2.93  11 2.93
                            16 2.93   4 2.93   5 2.93   7 2.93
  14  0.444  0.444  0.304-  23 2.90  21 2.90  24 2.92  13 2.93  11 2.93  16 2.93   5 2.93  12 2.93
                            17 2.93   8 2.93  15 2.93   6 2.93
  15  0.778  0.444  0.304-  24 2.92  22 2.92  19 2.93  13 2.93  10 2.93  12 2.93  17 2.93  18 2.93
                             4 2.93   6 2.93   9 2.93  14 2.93
  16  0.111  0.778  0.304-  23 2.89  18 2.93  12 2.93  10 2.93  14 2.93  17 2.93  13 2.93   7 2.93
                             8 2.93   1 2.93  26 2.93  25 2.93
  17  0.444  0.778  0.304-  27 2.92  24 2.92  26 2.93  11 2.93  10 2.93   9 2.93  18 2.93  15 2.93
                            16 2.93   2 2.93  14 2.93   8 2.93
  18  0.778  0.778  0.304-  22 2.92  27 2.92  25 2.93  16 2.93  12 2.93  13 2.93  11 2.93  17 2.93
                            15 2.93   7 2.93   3 2.93   9 2.93
  19  0.888  0.223  0.399-  28 2.90  24 2.92  22 2.92  15 2.93  20 2.93  21 2.93  10 2.93  12 2.93
                            32 2.94  31 2.94  26 2.94  25 2.94
  20  0.222  0.222  0.397-  36 2.77  10 2.89  13 2.90  11 2.90  31 2.92  29 2.92  19 2.93  26 2.93
                            27 2.93  22 2.93  21 2.94  23 2.94
  21  0.556  0.222  0.397-  36 2.77  12 2.89  11 2.90  14 2.90  30 2.92  32 2.92  25 2.93  19 2.93
                            27 2.93  24 2.93  20 2.94  23 2.94
  22  0.888  0.556  0.398-  35 2.90  18 2.92  15 2.92  13 2.92  24 2.92  27 2.92  25 2.92  19 2.92
                            33 2.93  31 2.93  23 2.93  20 2.93
  23  0.222  0.556  0.397-  36 2.77  16 2.89  14 2.90  13 2.90  34 2.92  33 2.92  26 2.93  25 2.93
                            22 2.93  24 2.93  21 2.94  20 2.94
  24  0.556  0.556  0.398-  35 2.90  15 2.92  17 2.92  14 2.92  27 2.92  22 2.92  19 2.92  26 2.92
                            32 2.93  34 2.93  23 2.93  21 2.93
  25  0.888  0.888  0.399-  28 2.90  22 2.92  27 2.92  18 2.93  23 2.93  21 2.93  16 2.93  12 2.93
                            33 2.94  30 2.94  26 2.94  19 2.94
  26  0.223  0.888  0.399-  28 2.90  27 2.92  24 2.92  17 2.93  23 2.93  20 2.93  16 2.93  10 2.93
                            34 2.94  29 2.94  25 2.94  19 2.94
  27  0.556  0.888  0.398-  35 2.90  17 2.92  18 2.92  11 2.92  24 2.92  22 2.92  26 2.92  25 2.92
                            29 2.93  30 2.93  20 2.93  21 2.93
  28  0.000  0.000  0.492-  26 2.90  25 2.90  19 2.90  29 2.96  34 2.96  33 2.96  32 2.96  31 2.96
                            30 2.96
  29  0.333  0.007  0.493-  31 2.87  30 2.88  36 2.88  20 2.92  27 2.93  26 2.94  28 2.96  35 2.96
                            34 3.04
  30  0.660  0.007  0.493-  32 2.87  29 2.88  36 2.88  21 2.92  27 2.93  25 2.94  28 2.96  35 2.96
                            33 3.04
  31  0.007  0.333  0.493-  29 2.87  33 2.88  36 2.88  20 2.92  22 2.93  19 2.94  28 2.96  35 2.96
                            32 3.04
  32  0.660  0.333  0.493-  30 2.87  34 2.88  36 2.88  21 2.92  24 2.93  19 2.94  28 2.96  35 2.96
                            31 3.04
  33  0.007  0.660  0.493-  34 2.87  31 2.88  36 2.88  23 2.92  22 2.93  25 2.94  28 2.96  35 2.96
                            30 3.04
  34  0.333  0.660  0.493-  33 2.87  32 2.88  36 2.88  23 2.92  24 2.93  26 2.94  28 2.96  35 2.96
                            29 3.04
  35  0.667  0.667  0.492-  24 2.90  27 2.90  22 2.90  30 2.96  32 2.96  29 2.96  34 2.96  31 2.96
                            33 2.96
  36  0.333  0.333  0.484-  37 1.97  21 2.77  20 2.77  23 2.77  31 2.88  30 2.88  33 2.88  29 2.88
                            34 2.88  32 2.88
  37  0.333  0.333  0.562-  38 0.96  36 1.97
  38  0.333  0.333  0.600-  37 0.96

  LATTYP: Found a hexagonal cell.
 ALAT       =     8.7913665772
 C/A-ratio  =     2.8719070141

  Lattice vectors:

 A1 = (  -4.3956832886,  -7.6135467898,   0.0000000000)
 A2 = (   8.7913665771,   0.0000000000,   0.0000000000)
 A3 = (   0.0000000000,   0.0000000000,  25.2479873362)

Analysis of symmetry for initial positions (statically):
 Subroutine PRICEL returns:
 Original cell was already a primitive cell.

 Routine SETGRP: Setting up the symmetry group for a
 hexagonal supercell.

 Subroutine GETGRP returns: Found  6 space group operations
 (whereof  6 operations were pure point group operations)
 out of a pool of 24 trial point group operations.

The static configuration has the point symmetry C_3v.

Analysis of symmetry for dynamics (positions and initial velocities):
 Subroutine PRICEL returns:
 Original cell was already a primitive cell.

[...]

The dynamic configuration has the point symmetry C_3v.

Analysis of constrained symmetry for selective dynamics:
 Subroutine PRICEL returns:
 Original cell was already a primitive cell.

[...]
     33      -5.0048      2.00000
     34      -4.9786      2.00000
     35      -4.9685      2.00000
     36      -4.9161      2.00000
     37      -4.8942      2.00000
     38      -4.8850      2.00000
     39      -4.8565      2.00000
     40      -4.8275      2.00000
     41      -4.8160      2.00000
     42      -4.8081      2.00000
     43      -4.7893      2.00000
     44      -4.7801      2.00000
     45      -4.6959      2.00000
     46      -4.6731      2.00000
     47      -4.6581      2.00000
     48      -4.6526      2.00000
     49      -4.6415      2.00000
     50      -4.6356      2.00000
     51      -4.6313      2.00000
     52      -4.6183      2.00000
     53      -4.6158      2.00000
     54      -4.5946      2.00000
     55      -4.5262      2.00000
     56      -4.5221      2.00000
     57      -4.5147      2.00000
     58      -4.5081      2.00000
     59      -4.4985      2.00000
     60      -4.4840      2.00000
[...]
    238       5.7484      0.00000
    239       5.8073      0.00000
    240       5.8659      0.00000
    241       5.9011      0.00000
    242       6.0736      0.00000
    243       6.2623      0.00000
    244       6.3186      0.00000
    245       6.3892      0.00000
    246       6.5379      0.00000
    247       6.6514      0.00000
    248       6.7399      0.00000
    249       6.7905      0.00000
    250       6.9169      0.00000
    251       6.9750      0.00000
    252       7.1579      0.00000

 soft charge-density along one line, spin component           1
         0         1         2         3         4         5         6         7         8         9
 total charge-density along one line

------------------------ aborting loop because EDIFF is reached ----------------------------------------

 total charge

# of ion       s       p       d       tot
    1        0.416   0.202   9.177   9.796
    2        0.419   0.203   9.177   9.799
    3        0.419   0.203   9.177   9.799
    4        0.419   0.203   9.177   9.799
    5        0.415   0.205   9.176   9.797
    6        0.419   0.203   9.177   9.799
    7        0.419   0.203   9.177   9.799
    8        0.419   0.203   9.177   9.799
    9        0.413   0.203   9.180   9.795
   10        0.407   0.269   9.163   9.840
   11        0.410   0.268   9.168   9.846
   12        0.407   0.269   9.163   9.840
   13        0.410   0.268   9.168   9.846
   14        0.410   0.268   9.168   9.846
   15        0.401   0.269   9.166   9.837
   16        0.407   0.269   9.163   9.840
   17        0.401   0.269   9.166   9.837
   18        0.401   0.269   9.166   9.837
   19        0.402   0.267   9.165   9.835
   20        0.422   0.300   9.147   9.869
   21        0.422   0.300   9.147   9.869
   22        0.398   0.270   9.170   9.837
   23        0.422   0.300   9.147   9.869
   24        0.398   0.270   9.170   9.837
   25        0.402   0.267   9.165   9.835
   26        0.402   0.267   9.165   9.835
   27        0.398   0.270   9.170   9.837
   28        0.416   0.197   9.180   9.793
   29        0.404   0.209   9.181   9.794
   30        0.404   0.209   9.181   9.794
   31        0.404   0.209   9.181   9.794
   32        0.404   0.209   9.181   9.794
   33        0.404   0.209   9.181   9.794
   34        0.404   0.209   9.181   9.794
   35        0.407   0.201   9.179   9.788
   36        0.574   0.439   6.995   8.008
   37        1.536   3.538   0.000   5.074
   38        0.605   0.129   0.000   0.734
tot         17.038  12.516 327.975 357.529

  FORCE on cell =-STRESS in cart. coord.  units (eV):
  Direction    XX          YY          ZZ          XY          YZ          ZX
  Alpha Z   678.32614   678.32614   678.32614
  Ewald  167655.35209167655.35215************     0.00004     0.00000     0.00004
  Hartree177704.31995177704.31998************     0.00002     0.00000     0.00002
  E(xc)   -2103.64338 -2103.64342 -2107.74684     0.00004     0.00000     0.00000
  Local  ************************356715.49097     0.00050    -0.00007    -0.00018
  n-local  -370.88608  -350.72327  -365.52481    11.33135    -0.24164     0.41936
  augment  3268.23393  3268.23411  3273.37431    -0.00016     0.00002     0.00003
  Kinetic  5032.93204  5040.78631  5025.55919     6.18379     0.95855    -0.26495
  Fock        0.00000     0.00000     0.00000     0.00000     0.00000     0.00000
  Total      -7.74073    -7.74073    -0.37044    -0.00000     0.00000    -0.00000
  in kB      -7.33875    -7.33875    -0.35120    -0.00000     0.00000    -0.00000

 VOLUME and BASIS-vectors are now :
  energy-cutoff  :      500.00
  volume of cell :     1689.94
      direct lattice vectors                 reciprocal lattice vectors
     8.791366577  0.000000000  0.000000000     0.113747958 -0.065672414  0.000000000
     4.395683289  7.613546790  0.000000000     0.000000000  0.131344829  0.000000000
     0.000000000  0.000000000 25.247987336     0.000000000  0.000000000  0.039607117

  length of vectors
     8.791366577  8.791366577 25.247987336     0.131344829  0.131344829  0.039607117

 FORCES acting on ions
    electron-ion (+dipol)            ewald-force                    non-local-force                 convergence-correction
   0.462E-04 -.281E-04 0.276E+04   -.954E-04 0.593E-04 -.275E+04   -.428E-18 -.332E-17 -.245E+01   -.127E-03 -.180E-03 0.649E-01
   0.603E+00 0.553E+00 0.276E+04   -.584E+00 -.578E+00 -.276E+04   0.285E-01 0.535E-01 -.155E+01   -.409E-01 -.111E-01 0.561E-01
   -.603E+00 0.553E+00 0.276E+04   0.584E+00 -.578E+00 -.276E+04   -.285E-01 0.535E-01 -.155E+01   0.404E-01 -.910E-02 0.569E-01
   0.780E+00 0.246E+00 0.276E+04   -.793E+00 -.217E+00 -.276E+04   0.606E-01 -.208E-02 -.155E+01   -.298E-01 -.297E-01 0.562E-01
   -.500E-05 -.184E-04 0.276E+04   0.981E-04 -.197E-05 -.276E+04   0.731E-18 -.796E-21 -.145E+01   0.630E-02 0.385E-02 0.366E-01
   -.780E+00 0.246E+00 0.276E+04   0.793E+00 -.217E+00 -.276E+04   -.606E-01 -.208E-02 -.155E+01   0.284E-01 -.287E-01 0.571E-01
   0.177E+00 -.799E+00 0.276E+04   -.209E+00 0.795E+00 -.276E+04   0.321E-01 -.515E-01 -.155E+01   0.127E-01 0.400E-01 0.569E-01
   -.177E+00 -.799E+00 0.276E+04   0.209E+00 0.795E+00 -.276E+04   -.321E-01 -.515E-01 -.155E+01   -.111E-01 0.390E-01 0.571E-01
   0.366E-04 -.127E-04 0.276E+04   0.792E-04 -.643E-04 -.275E+04   0.121E-17 0.272E-18 -.205E+01   -.670E-02 -.346E-02 0.933E-01
   0.724E+01 0.418E+01 0.950E+03   -.665E+01 -.384E+01 -.949E+03   -.521E+00 -.301E+00 -.938E+00   -.458E-01 -.264E-01 0.296E+00
   -.284E-04 0.566E+01 0.957E+03   0.411E-04 -.568E+01 -.957E+03   0.615E-12 0.937E-01 -.332E+00   0.644E-02 -.114E+00 0.294E+00
   -.724E+01 0.418E+01 0.950E+03   0.665E+01 -.384E+01 -.949E+03   0.521E+00 -.301E+00 -.938E+00   0.441E-01 -.249E-01 0.297E+00
   0.490E+01 -.283E+01 0.957E+03   -.492E+01 0.284E+01 -.957E+03   0.811E-01 -.468E-01 -.332E+00   -.957E-01 0.627E-01 0.293E+00
   -.490E+01 -.283E+01 0.957E+03   0.492E+01 0.284E+01 -.957E+03   -.811E-01 -.468E-01 -.332E+00   0.107E+00 0.619E-01 0.294E+00
   0.161E-04 0.141E+01 0.950E+03   -.109E-03 -.154E+01 -.950E+03   0.375E-12 0.571E-01 -.715E+00   -.196E-02 0.398E-01 0.286E+00
   -.742E-05 -.836E+01 0.950E+03   0.205E-04 0.768E+01 -.949E+03   0.395E-11 0.601E+00 -.938E+00   0.386E-03 0.506E-01 0.297E+00
   0.122E+01 -.706E+00 0.950E+03   -.133E+01 0.770E+00 -.950E+03   0.494E-01 -.285E-01 -.715E+00   0.334E-01 -.216E-01 0.286E+00
   -.122E+01 -.707E+00 0.950E+03   0.133E+01 0.770E+00 -.950E+03   -.494E-01 -.285E-01 -.715E+00   -.335E-01 -.194E-01 0.287E+00
   0.403E-04 0.393E+01 -.893E+03   -.130E-03 -.409E+01 0.893E+03   0.841E-12 0.128E+00 0.656E+00   -.640E-02 0.673E-02 0.171E+00
   0.169E+02 0.974E+01 -.842E+03   -.152E+02 -.879E+01 0.843E+03   -.143E+01 -.827E+00 -.142E+01   -.115E+00 -.664E-01 0.144E+00
   -.169E+02 0.974E+01 -.842E+03   0.152E+02 -.879E+01 0.843E+03   0.143E+01 -.827E+00 -.142E+01   0.117E+00 -.652E-01 0.144E+00
   0.564E+01 -.326E+01 -.878E+03   -.594E+01 0.343E+01 0.877E+03   0.383E+00 -.221E+00 0.677E+00   -.716E-01 0.363E-01 0.155E+00
   -.563E-04 -.195E+02 -.842E+03   0.441E-04 0.176E+02 0.843E+03   0.109E-10 0.165E+01 -.142E+01   0.219E-02 0.134E+00 0.144E+00
   -.564E+01 -.326E+01 -.878E+03   0.594E+01 0.343E+01 0.877E+03   -.383E+00 -.221E+00 0.677E+00   0.610E-01 0.353E-01 0.155E+00
   -.340E+01 -.196E+01 -.893E+03   0.354E+01 0.205E+01 0.893E+03   -.111E+00 -.641E-01 0.656E+00   -.116E-01 -.687E-02 0.171E+00
   0.340E+01 -.196E+01 -.893E+03   -.354E+01 0.205E+01 0.893E+03   0.111E+00 -.641E-01 0.656E+00   0.232E-02 -.904E-02 0.171E+00
   0.199E-04 0.652E+01 -.878E+03   0.110E-03 -.685E+01 0.877E+03   0.291E-11 0.442E+00 0.677E+00   -.504E-02 -.802E-01 0.155E+00
   0.541E-04 -.370E-04 -.270E+04   -.116E-03 0.784E-04 0.270E+04   -.217E-17 -.154E-17 0.178E+01   -.675E-04 -.176E-03 -.481E-01
   0.293E+02 0.519E+02 -.269E+04   -.290E+02 -.518E+02 0.268E+04   -.278E+00 -.141E+00 0.208E+01   -.110E+00 -.105E+00 -.110E+00
   -.293E+02 0.519E+02 -.269E+04   0.290E+02 -.518E+02 0.268E+04   0.278E+00 -.141E+00 0.208E+01   0.110E+00 -.103E+00 -.110E+00
   0.596E+02 -.539E+00 -.269E+04   -.594E+02 0.774E+00 0.268E+04   -.261E+00 -.170E+00 0.208E+01   -.146E+00 -.426E-01 -.110E+00
   -.596E+02 -.539E+00 -.269E+04   0.594E+02 0.774E+00 0.268E+04   0.261E+00 -.170E+00 0.208E+01   0.144E+00 -.418E-01 -.111E+00
   0.303E+02 -.513E+02 -.269E+04   -.304E+02 0.511E+02 0.268E+04   0.171E-01 0.311E+00 0.208E+01   -.339E-01 0.147E+00 -.110E+00
   -.303E+02 -.513E+02 -.269E+04   0.304E+02 0.511E+02 0.268E+04   -.171E-01 0.311E+00 0.208E+01   0.356E-01 0.146E+00 -.111E+00
   0.216E-04 -.112E-04 -.270E+04   0.107E-03 -.664E-04 0.269E+04   0.487E-17 0.984E-18 0.196E+01   -.673E-02 -.345E-02 -.667E-01
   -.202E-04 -.243E-04 -.194E+04   0.867E-04 0.108E-04 0.194E+04   -.438E-17 -.293E-17 0.245E+01   0.268E-02 0.162E-02 -.212E+00
   0.196E-03 -.953E-04 -.175E+04   0.240E-04 0.269E-06 0.173E+04   0.641E-17 0.593E-17 0.197E+02   0.374E-02 0.229E-02 0.438E-01
   0.774E-05 -.133E-04 -.349E+03   0.168E-05 0.304E-08 0.358E+03   -.704E-19 -.808E-20 -.837E+01   0.209E-03 0.128E-03 0.360E-01
   0.584E-03 -.796E-03 -.121E+02   0.151E-12 0.146E-12 0.256E-11   -.730E-16 0.397E-17 0.857E+01   -.143E-01 -.492E-02 0.367E+01

 POSITION                                       TOTAL-FORCE (eV/Angst)
      0.00000      0.00000      5.28219        -0.000000     -0.000000      0.024483
      2.93046      0.00000      5.28219         0.007094      0.017729      0.035884
      5.86091      0.00000      5.28219        -0.007094      0.017729      0.035884
      1.46523      2.53785      5.28219         0.018901     -0.002721      0.035884
      4.39568      2.53785      5.28219        -0.000000     -0.000000      0.018775
      7.32614      2.53785      5.28219        -0.018901     -0.002721      0.035884
      2.93046      5.07570      5.28219         0.011807     -0.015008      0.035884
      5.86091      5.07570      5.28219        -0.011807     -0.015008      0.035884
      8.79137      5.07570      5.28219        -0.000000     -0.000000      0.013270
      1.46523      0.84595      7.67490         0.026955      0.015562      0.014397
      4.39568      0.84595      7.67490        -0.000000     -0.045467     -0.091867
      7.32614      0.84595      7.67490        -0.026955      0.015562      0.014397
      2.93046      3.38380      7.67490        -0.039376      0.022734     -0.091867
      5.86091      3.38380      7.67490         0.039376      0.022734     -0.091867
      8.79137      3.38380      7.67490        -0.000000     -0.029753      0.005252
      4.39568      5.92165      7.67490        -0.000000     -0.031124      0.014397
      7.32614      5.92165      7.67490        -0.025767      0.014876      0.005252
     10.25659      5.92165      7.67490         0.025767      0.014876      0.005252
      8.79137      1.70006     10.06849        -0.000000     -0.025172     -0.019852
      2.92657      1.68966     10.02287         0.089812      0.051853     -0.062618
      5.86479      1.68966     10.02287        -0.089812      0.051853     -0.062618
     10.25237      4.23218     10.05185         0.023027     -0.013295     -0.026690
      4.39568      4.23423     10.02287        -0.000000     -0.103706     -0.062618
      7.33036      4.23218     10.05185        -0.023027     -0.013295     -0.026690
     11.71475      6.76352     10.06849         0.021800      0.012586     -0.019852
      5.86798      6.76352     10.06849        -0.021800      0.012586     -0.019852
      8.79137      6.76272     10.05185         0.000000      0.026589     -0.026690
      0.00000      0.00000     12.42216        -0.000000     -0.000000      0.017125
      2.95716      0.04978     12.43839        -0.101518     -0.219871     -0.079359
      5.83420      0.04978     12.43839         0.101518     -0.219871     -0.079359
      1.52169      2.53609     12.43839        -0.241173      0.022018     -0.079359
      7.26967      2.53609     12.43839         0.241173      0.022018     -0.079359
      2.96021      5.02768     12.43839        -0.139655      0.197853     -0.079359
      5.83115      5.02768     12.43839         0.139655      0.197853     -0.079359
      8.79137      5.07570     12.41166        -0.000000     -0.000000      0.043990
      4.39568      2.53785     12.21369        -0.000000     -0.000000      0.661896
      4.39568      2.53785     14.18266        -0.000000     -0.000000      0.070652
      4.39568      2.53785     15.14645        -0.000000     -0.000000     -0.045208
    total drift:                               -0.013753     -0.005715      0.139701

  FREE ENERGIE OF THE ION-ELECTRON SYSTEM (eV)
  free  energy   TOTEN  =      -105.95063255 eV

  energy  without entropy=     -105.95063255  energy(sigma->0) =     -105.95063255

 stress matrix after NEB project (eV)
     -7.74073     -0.00000     -0.00000
     -0.00000     -7.74073     -0.00000
      0.00000      0.00000     -0.37044
  FORCES: max atom, RMS     0.070652    0.013607
  FORCE total and by dimension    0.083877    0.070652
  Stress total and by dimension   10.953305    7.740725
|           W    W    AA    RRRRR   N    N  II  N    N   GGGG   !!!           |
|           W    W   A  A   R    R  NN   N  II  NN   N  G    G  !!!           |
|           W    W  A    A  R    R  N N  N  II  N N  N  G       !!!           |
|           W WW W  AAAAAA  RRRRR   N  N N  II  N  N N  G  GGG   !            |
|           WW  WW  A    A  R   R   N   NN  II  N   NN  G    G                |
|           W    W  A    A  R    R  N    N  II  N    N   GGGG   !!!           |
|     Tetrahedron method does not include variations of the Fermi             |
|     occupations, so forces and stress will be inaccurate. We suggest        |
|     using a different smearing scheme ISMEAR = 1 or 2 for metals in         |
|     relaxations.                                                            |

 total charge

# of ion       s       p       d       tot
    1        0.416   0.202   9.177   9.796
    2        0.419   0.203   9.177   9.799
    3        0.419   0.203   9.177   9.799
    4        0.419   0.203   9.177   9.799
    5        0.415   0.205   9.176   9.797
    6        0.419   0.203   9.177   9.799
    7        0.419   0.203   9.177   9.799
    8        0.419   0.203   9.177   9.799
    9        0.413   0.203   9.180   9.795
   10        0.407   0.269   9.163   9.840
   11        0.410   0.268   9.168   9.846
   12        0.407   0.269   9.163   9.840
   13        0.410   0.268   9.168   9.846
   14        0.410   0.268   9.168   9.846
   15        0.401   0.269   9.166   9.837
   16        0.407   0.269   9.163   9.840
   17        0.401   0.269   9.166   9.837
   18        0.401   0.269   9.166   9.837
   19        0.402   0.267   9.165   9.835
   20        0.422   0.300   9.147   9.869
   21        0.422   0.300   9.147   9.869
   22        0.398   0.270   9.170   9.837
   23        0.422   0.300   9.147   9.869
   24        0.398   0.270   9.170   9.837
   25        0.402   0.267   9.165   9.835
   26        0.402   0.267   9.165   9.835
   27        0.398   0.270   9.170   9.837
   28        0.416   0.197   9.180   9.793
   29        0.404   0.209   9.181   9.794
   30        0.404   0.209   9.181   9.794
   31        0.404   0.209   9.181   9.794
   32        0.404   0.209   9.181   9.794
   33        0.404   0.209   9.181   9.794
   34        0.404   0.209   9.181   9.794
   35        0.407   0.201   9.179   9.788
   36        0.574   0.439   6.995   8.008
   37        1.536   3.538   0.000   5.074
   38        0.605   0.129   0.000   0.734
tot         17.038  12.516 327.975 357.529

 BZINTS: Fermi energy:    0.328329;  401.000000 electrons
         Band energy:-0.151945E+04;  BLOECHL correction:   -0.041582