 vasp.6.2.0 18Jan21 (build Jun 12 2021 23:27:24) complex

 executed on             LinuxIFC date 2022.05.28  01:43:18

 INCAR:
   ISMEAR = -5
   SIGMA = 0.1
   ISPIN = 1
   EDIFF = 1.d-5
   EDIFFG = -0.01
   NSW = 0
   NELM = 150
   ENCUT = 500
   ISIF = 2
   IBRION = 2
   LREAL = Auto
   ALGO = Fast
   ICHARG = 11
   LORBIT = 10
   LCHARG = .F.
   LWAVE = .F.

 POTCAR:    PAW_PBE Ag 02Apr2005
 POTCAR:    PAW_PBE Zr_sv 04Jan2005
 POTCAR:    PAW_PBE O 08Apr2002
 POTCAR:    PAW_PBE H 15Jun2001
|           W    W    AA    RRRRR   N    N  II  N    N   GGGG   !!!           |
|           W    W   A  A   R    R  NN   N  II  NN   N  G    G  !!!           |
|           W    W  A    A  R    R  N N  N  II  N N  N  G       !!!           |
|           W WW W  AAAAAA  RRRRR   N  N N  II  N  N N  G  GGG   !            |
|           WW  WW  A    A  R   R   N   NN  II  N   NN  G    G                |
|           W    W  A    A  R    R  N    N  II  N    N   GGGG   !!!           |
|     For optimal performance we recommend to set                             |
|       NCORE = 2 up to number-of-cores-per-socket                            |
|     This setting can greatly improve the performance of VASP for DFT.       |
|     The default, NCORE=1 might be grossly inefficient on modern             |
|     multi-core architectures or massively parallel machines. Do your        |
|     Unfortunately you need to use the default for GW and RPA                |
|     calculations (for HF NCORE is supported but not extensively tested      |
|     yet).                                                                   |

 POTCAR:    PAW_PBE Ag 02Apr2005
   VRHFIN =Ag : s1 d10

   TITEL  = PAW_PBE Ag 02Apr2005
   POMASS =  107.868; ZVAL   =   11.000    mass and valenz
   ENMAX  =  249.844; ENMIN  =  187.383 eV

 POTCAR:    PAW_PBE Zr_sv 04Jan2005
   VRHFIN =Zr: 4s4p5s4d

   TITEL  = PAW_PBE Zr_sv 04Jan2005
   POMASS =   91.224; ZVAL   =   12.000    mass and valenz
   ENMAX  =  229.898; ENMIN  =  172.424 eV

 POTCAR:    PAW_PBE O 08Apr2002
   VRHFIN =O: s2p4

   TITEL  = PAW_PBE O 08Apr2002
   POMASS =   16.000; ZVAL   =    6.000    mass and valenz
   ENMAX  =  400.000; ENMIN  =  300.000 eV

 POTCAR:    PAW_PBE H 15Jun2001
   VRHFIN =H: ultrasoft test

   TITEL  = PAW_PBE H 15Jun2001
   POMASS =    1.000; ZVAL   =    1.000    mass and valenz
   ENMAX  =  250.000; ENMIN  =  200.000 eV

 Optimization of the real space projectors (new method)

 maximal supplied QI-value         = 15.12
 optimisation between [QCUT,QGAM] = [ 11.34, 22.83] = [ 36.00,145.93] Ry
 Optimized for a Real-space Cutoff    1.43 Angstroem

   l    n(q)    QCUT    max X(q) W(low)/X(q) W(high)/X(q)  e(spline)
   2      9    11.338    53.897    0.16E-03    0.20E-03    0.28E-06
   2      9    11.338    52.416    0.16E-03    0.20E-03    0.29E-06
   0     10    11.338   122.045    0.31E-04    0.76E-04    0.15E-06
   0     10    11.338    73.629    0.30E-04    0.72E-04    0.15E-06
   1      9    11.338    15.255    0.20E-03    0.19E-04    0.17E-06
   1      9    11.338     9.562    0.16E-03    0.15E-04    0.14E-06
 Optimization of the real space projectors (new method)

[...]

   l    n(q)    QCUT    max X(q) W(low)/X(q) W(high)/X(q)  e(spline)
   0      7    11.387    20.381    0.39E-03    0.13E-02    0.15E-06
   0      7    11.387    15.268    0.42E-03    0.14E-02    0.17E-06
   1      6    11.387     5.964    0.41E-03    0.11E-02    0.17E-06
   1      6    11.387     5.382    0.39E-03    0.87E-03    0.15E-06
 Optimization of the real space projectors (new method)

 maximal supplied QI-value         = 34.20
 optimisation between [QCUT,QGAM] = [ 11.29, 22.57] = [ 35.68,142.71] Ry
 Optimized for a Real-space Cutoff    1.16 Angstroem

   l    n(q)    QCUT    max X(q) W(low)/X(q) W(high)/X(q)  e(spline)
   0      8    11.287    19.460    0.40E-03    0.73E-03    0.16E-06
   0      8    11.287    12.209    0.38E-03    0.70E-03    0.15E-06
   1      7    11.287     4.655    0.22E-03    0.25E-04    0.22E-06
  PAW_PBE Ag 02Apr2005                  :
  PAW_PBE Zr_sv 04Jan2005               :
  PAW_PBE O 08Apr2002                   :
  PAW_PBE H 15Jun2001                   :

 POSCAR: Ag-Zr-OOH
  positions in direct lattice
  velocities in cartesian coordinates
 exchange correlation table for  LEXCH =        8
   RHO(1)=    0.500       N(1)  =     2000
   RHO(2)=  100.500       N(2)  =     4000

 VTST: version 3.2, (02/03/18)

 CHAIN: initializing optimizer

 OPT: Using VASP Conjugate-Gradient optimizer
 CHAIN: Read ICHAIN            0

 POSCAR: Ag-Zr-OOH
  positions in direct lattice
  velocities in cartesian coordinates

 ion  position               nearest neighbor table
   1  0.000  0.000  0.204-   2 2.93   8 2.93   7 2.93   6 2.93   4 2.93  12 2.93  16 2.93  10 2.93
                             3 2.93
   2  0.333  0.000  0.204-   1 2.93   8 2.93   9 2.93   3 2.93   4 2.93   5 2.93  10 2.93  17 2.93
                            11 2.93
   3  0.667  0.000  0.204-   9 2.93   2 2.93   5 2.93  11 2.93   7 2.93  18 2.93   1 2.93   6 2.93
                            12 2.93
   4  0.000  0.333  0.204-   5 2.93   6 2.93   2 2.93   1 2.93   7 2.93  13 2.93  15 2.93   9 2.93
                            10 2.93
   5  0.333  0.333  0.204-   4 2.93   3 2.93   7 2.93   2 2.93   8 2.93  14 2.93  13 2.93  11 2.93
                             6 2.93
   6  0.667  0.333  0.204-   4 2.93   9 2.93   1 2.93  15 2.93   8 2.93  12 2.93   3 2.93   5 2.93
                            14 2.93
   7  0.000  0.667  0.204-   8 2.93   1 2.93   5 2.93   3 2.93   4 2.93  16 2.93  18 2.93  13 2.93
                             9 2.93
   8  0.333  0.667  0.204-   7 2.93   1 2.93   2 2.93   9 2.93   5 2.93  16 2.93   6 2.93  17 2.93
                            14 2.93
   9  0.667  0.667  0.204-   3 2.93   2 2.93   8 2.93   6 2.93  17 2.93   4 2.93  15 2.93   7 2.93
                            18 2.93
  10  0.111  0.111  0.296-  20 2.91  19 2.92  26 2.92  12 2.93  16 2.93  15 2.93  17 2.93  13 2.93
                            11 2.93   2 2.93   1 2.93   4 2.93
  11  0.444  0.111  0.296-  21 2.91  20 2.91  14 2.93  17 2.93  18 2.93   3 2.93  12 2.93  13 2.93
                            10 2.93   5 2.93   2 2.93  27 2.93
  12  0.778  0.111  0.296-  21 2.91  25 2.92  19 2.92  10 2.93  16 2.93  18 2.93  15 2.93  11 2.93
                             1 2.93  14 2.93   6 2.93   3 2.93
  13  0.111  0.444  0.296-  20 2.91  23 2.91  15 2.93  14 2.93  18 2.93  10 2.93  11 2.93  16 2.93
                             4 2.93   5 2.93   7 2.93  22 2.93
  14  0.444  0.444  0.296-  23 2.91  21 2.91  13 2.93  11 2.93  16 2.93   5 2.93  12 2.93  17 2.93
                             8 2.93  15 2.93   6 2.93  24 2.93
  15  0.778  0.444  0.296-  19 2.92  13 2.93  10 2.93  12 2.93  17 2.93  18 2.93   4 2.93   6 2.93
                             9 2.93  14 2.93  24 2.93  22 2.93
  16  0.111  0.778  0.296-  23 2.91  26 2.92  25 2.92  18 2.93  12 2.93  10 2.93  14 2.93  17 2.93
                            13 2.93   7 2.93   8 2.93   1 2.93
  17  0.444  0.778  0.296-  26 2.92  11 2.93  10 2.93   9 2.93  18 2.93  15 2.93  16 2.93   2 2.93
                            14 2.93   8 2.93  27 2.93  24 2.93
  18  0.778  0.778  0.296-  25 2.92  16 2.93  12 2.93  13 2.93  11 2.93  17 2.93  15 2.93   7 2.93
                             3 2.93   9 2.93  22 2.93  27 2.93
  19  0.889  0.222  0.388-  10 2.92  12 2.92  15 2.92  26 2.93  25 2.93  20 2.93  21 2.93  24 2.93
                            22 2.93  28 2.93  32 2.97  31 2.97
  20  0.222  0.222  0.388-  13 2.91  11 2.91  10 2.91  36 2.92  21 2.93  23 2.93  27 2.93  22 2.93
                            19 2.93  26 2.93  31 2.97  29 2.97
  21  0.555  0.222  0.388-  11 2.91  14 2.91  12 2.91  36 2.92  20 2.93  23 2.93  27 2.93  24 2.93
                            25 2.93  19 2.93  30 2.97  32 2.97
  22  0.889  0.556  0.389-  24 2.93  27 2.93  23 2.93  20 2.93  18 2.93  15 2.93  13 2.93  25 2.93
                            19 2.93  35 2.94  33 2.95  31 2.95
  23  0.222  0.555  0.388-  14 2.91  13 2.91  16 2.91  36 2.92  21 2.93  20 2.93  22 2.93  24 2.93
                            26 2.93  25 2.93  34 2.97  33 2.97
  24  0.556  0.556  0.389-  27 2.93  22 2.93  23 2.93  21 2.93  15 2.93  17 2.93  14 2.93  19 2.93
                            26 2.93  35 2.94  32 2.95  34 2.95
  25  0.889  0.889  0.388-  16 2.92  12 2.92  18 2.92  26 2.93  19 2.93  23 2.93  21 2.93  22 2.93
                            27 2.93  28 2.93  33 2.97  30 2.97
  26  0.222  0.889  0.388-  16 2.92  10 2.92  17 2.92  25 2.93  19 2.93  23 2.93  20 2.93  27 2.93
                            24 2.93  28 2.93  34 2.97  29 2.97
  27  0.556  0.889  0.389-  24 2.93  22 2.93  20 2.93  21 2.93  17 2.93  18 2.93  11 2.93  26 2.93
                            25 2.93  35 2.94  29 2.95  30 2.95
  28  0.000  0.000  0.480-  29 2.93  34 2.93  33 2.93  32 2.93  31 2.93  30 2.93  26 2.93  25 2.93
                            19 2.93
  29  0.334  0.000  0.482-  30 2.93  36 2.93  35 2.93  31 2.93  28 2.93  34 2.94  27 2.95  26 2.97
                            20 2.97
  30  0.666  0.000  0.482-  29 2.93  36 2.93  35 2.93  32 2.93  28 2.93  33 2.94  27 2.95  25 2.97
                            21 2.97
  31  0.000  0.334  0.482-  33 2.93  36 2.93  35 2.93  29 2.93  28 2.93  32 2.94  22 2.95  19 2.97
                            20 2.97
  32  0.666  0.334  0.482-  34 2.93  36 2.93  35 2.93  30 2.93  28 2.93  31 2.94  24 2.95  19 2.97
                            21 2.97
  33  0.000  0.666  0.482-  31 2.93  36 2.93  35 2.93  34 2.93  28 2.93  30 2.94  22 2.95  25 2.97
                            23 2.97
  34  0.334  0.666  0.482-  32 2.93  36 2.93  35 2.93  33 2.93  28 2.93  29 2.94  24 2.95  26 2.97
                            23 2.97
  35  0.667  0.667  0.482-  30 2.93  29 2.93  32 2.93  34 2.93  31 2.93  33 2.93  24 2.94  27 2.94
                            22 2.94
  36  0.333  0.333  0.480-  37 1.89  21 2.92  20 2.92  23 2.92  31 2.93  33 2.93  30 2.93  29 2.93
                            34 2.93  32 2.93
  37  0.335  0.333  0.553-  38 1.42  36 1.89
  38  0.325  0.333  0.608-  39 0.98  37 1.42
  39  0.433  0.334  0.617-  38 0.98

  LATTYP: Found a hexagonal cell.
 ALAT       =     8.7913665772
 C/A-ratio  =     2.9469639759

  Lattice vectors:

 A1 = (  -4.3956832886,  -7.6135467898,   0.0000000000)
 A2 = (   8.7913665771,   0.0000000000,   0.0000000000)
 A3 = (   0.0000000000,   0.0000000000,  25.9078406020)

Analysis of symmetry for initial positions (statically):
 Subroutine PRICEL returns:
 Original cell was already a primitive cell.

 Routine SETGRP: Setting up the symmetry group for a
 hexagonal supercell.

 Subroutine GETGRP returns: Found  1 space group operations
 (whereof  1 operations were pure point group operations)
 out of a pool of 24 trial point group operations.

The static configuration has the point symmetry C_1 .

Analysis of symmetry for dynamics (positions and initial velocities):
 Subroutine PRICEL returns:
 Original cell was already a primitive cell.

[...]

The dynamic configuration has the point symmetry C_1 .

Analysis of constrained symmetry for selective dynamics:
 Subroutine PRICEL returns:
[...]
     41      -5.0358      2.00000
     42      -5.0264      2.00000
     43      -5.0018      2.00000
     44      -4.9939      2.00000
     45      -4.9472      2.00000
     46      -4.9109      2.00000
     47      -4.8908      2.00000
     48      -4.8758      2.00000
     49      -4.8687      2.00000
     50      -4.8645      2.00000
     51      -4.8461      2.00000
     52      -4.7524      2.00000
     53      -4.7401      2.00000
     54      -4.7291      2.00000
     55      -4.7099      2.00000
     56      -4.7036      2.00000
     57      -4.7018      2.00000
     58      -4.6946      2.00000
     59      -4.6823      2.00000
     60      -4.6769      2.00000
[...]
    238       5.1299      0.00000
    239       5.1691      0.00000
    240       5.2075      0.00000
    241       5.3014      0.00000
    242       5.3115      0.00000
    243       5.4678      0.00000
    244       5.5863      0.00000
    245       5.6404      0.00000
    246       5.6924      0.00000
    247       5.7620      0.00000
    248       5.8686      0.00000
    249       5.8891      0.00000
    250       6.0238      0.00000
    251       6.1769      0.00000
    252       6.2004      0.00000

 soft charge-density along one line, spin component           1
         0         1         2         3         4         5         6         7         8         9
 total charge-density along one line

------------------------ aborting loop because EDIFF is reached ----------------------------------------

 total charge

# of ion       s       p       d       tot
    1        0.421   0.201   9.177   9.799
    2        0.417   0.204   9.177   9.797
    3        0.417   0.204   9.177   9.797
    4        0.417   0.204   9.177   9.797
    5        0.417   0.204   9.176   9.797
    6        0.417   0.204   9.177   9.797
    7        0.417   0.204   9.177   9.798
    8        0.417   0.204   9.177   9.797
    9        0.415   0.203   9.178   9.795
   10        0.410   0.269   9.163   9.841
   11        0.406   0.268   9.168   9.842
   12        0.409   0.269   9.163   9.841
   13        0.406   0.268   9.168   9.842
   14        0.406   0.268   9.168   9.842
   15        0.401   0.269   9.164   9.835
   16        0.409   0.269   9.163   9.841
   17        0.401   0.270   9.164   9.835
   18        0.401   0.269   9.164   9.835
   19        0.405   0.264   9.167   9.836
   20        0.435   0.293   9.139   9.867
   21        0.435   0.293   9.139   9.868
   22        0.395   0.273   9.163   9.831
   23        0.435   0.293   9.139   9.867
   24        0.396   0.272   9.163   9.831
   25        0.405   0.264   9.167   9.836
   26        0.405   0.264   9.167   9.836
   27        0.395   0.273   9.163   9.831
   28        0.413   0.209   9.170   9.792
   29        0.449   0.219   9.153   9.822
   30        0.450   0.220   9.153   9.823
   31        0.450   0.220   9.153   9.822
   32        0.451   0.222   9.152   9.824
   33        0.450   0.219   9.153   9.822
   34        0.450   0.220   9.153   9.823
   35        0.413   0.212   9.170   9.794
   36        2.205   5.993   1.570   9.768
   37        1.578   3.379   0.000   4.956
   38        1.590   3.392   0.000   4.982
   39        0.615   0.113   0.000   0.727
tot         20.623  21.353 322.311 364.287

  FORCE on cell =-STRESS in cart. coord.  units (eV):
  Direction    XX          YY          ZZ          XY          YZ          ZX
  Alpha Z   677.58592   677.58592   677.58592
  Ewald  176930.69282176836.97778************     0.38137    -0.12224    18.21927
  Hartree187222.60454187203.44057************     0.10409    -0.10889    -0.38838
  E(xc)   -2142.74155 -2143.13528 -2147.66636     0.00202     0.00022     0.07514
  Local  ************************374832.71210    -0.37421     0.22355   -13.07055
  n-local  -374.53136  -374.54870  -368.88930    -0.01299     0.00852    -0.04684
  augment  3233.84552  3235.70558  3243.18803    -0.00970    -0.00232    -0.19684
  Kinetic  5265.86985  5291.16161  5256.79131    -0.09735     0.01570    -4.63168
  Fock        0.00000     0.00000     0.00000     0.00000     0.00000     0.00000
  Total      -5.67263    -5.73073     0.56639    -0.00677     0.01454    -0.03988
  in kB      -5.24107    -5.29476     0.52330    -0.00626     0.01343    -0.03684

 VOLUME and BASIS-vectors are now :
  energy-cutoff  :      500.00
  volume of cell :     1734.10
      direct lattice vectors                 reciprocal lattice vectors
     8.791366577  0.000000000  0.000000000     0.113747958 -0.065672414  0.000000000
     4.395683289  7.613546790  0.000000000     0.000000000  0.131344829  0.000000000
     0.000000000  0.000000000 25.907840602     0.000000000  0.000000000  0.038598354

  length of vectors
     8.791366577  8.791366577 25.907840602     0.131344829  0.131344829  0.038598354

 FORCES acting on ions
    electron-ion (+dipol)            ewald-force                    non-local-force                 convergence-correction
   -.357E-02 -.572E-02 0.283E+04   0.185E-02 -.770E-03 -.283E+04   -.239E-02 -.124E-02 -.180E+01   0.391E-02 0.810E-02 0.187E+00
   -.389E-01 0.824E+00 0.283E+04   -.135E-01 -.635E+00 -.283E+04   0.254E-01 0.297E-01 -.162E+01   0.230E-01 -.200E+00 0.868E-01
   0.420E-01 0.818E+00 0.283E+04   0.117E-01 -.639E+00 -.283E+04   -.223E-01 0.323E-01 -.161E+01   -.270E-01 -.192E+00 0.885E-01
   0.679E+00 -.461E+00 0.283E+04   -.555E+00 0.307E+00 -.283E+04   0.480E-01 0.128E-01 -.160E+01   -.160E+00 0.127E+00 0.847E-01
   -.556E-02 0.281E-02 0.283E+04   -.385E-02 0.102E-03 -.283E+04   -.397E-02 -.307E-02 -.144E+01   0.144E-01 0.567E-03 0.187E+00
   -.674E+00 -.467E+00 0.283E+04   0.559E+00 0.307E+00 -.283E+04   -.491E-01 0.115E-01 -.160E+01   0.151E+00 0.135E+00 0.808E-01
   0.762E+00 -.362E+00 0.283E+04   -.546E+00 0.328E+00 -.283E+04   0.479E-02 -.413E-01 -.161E+01   -.201E+00 0.704E-01 0.960E-01
   -.770E+00 -.359E+00 0.283E+04   0.544E+00 0.331E+00 -.283E+04   -.152E-02 -.429E-01 -.161E+01   0.208E+00 0.646E-01 0.902E-01
   0.938E-02 0.869E-02 0.283E+04   0.203E-02 0.663E-03 -.283E+04   0.267E-02 0.214E-02 -.179E+01   -.145E-01 -.121E-01 0.123E-01
   0.232E+01 0.134E+01 0.102E+04   -.187E+01 -.108E+01 -.102E+04   -.338E+00 -.202E+00 -.683E+00   -.102E+00 -.557E-01 0.220E+00
   0.177E-01 0.579E+01 0.102E+04   -.216E-01 -.604E+01 -.102E+04   -.610E-02 0.169E+00 -.395E+00   0.966E-02 0.108E-01 0.984E-01
   -.233E+01 0.136E+01 0.102E+04   0.189E+01 -.110E+01 -.102E+04   0.334E+00 -.197E+00 -.656E+00   0.980E-01 -.555E-01 0.217E+00
   0.503E+01 -.290E+01 0.102E+04   -.524E+01 0.302E+01 -.102E+04   0.146E+00 -.864E-01 -.383E+00   -.130E-02 0.526E-02 0.109E+00
   -.503E+01 -.291E+01 0.102E+04   0.521E+01 0.303E+01 -.102E+04   -.141E+00 -.804E-01 -.376E+00   0.148E-01 0.326E-02 0.992E-01
   -.226E-01 -.304E+01 0.102E+04   0.257E-01 0.312E+01 -.102E+04   -.250E-02 0.175E-01 -.626E+00   0.256E-03 -.797E-01 0.113E+00
   0.788E-02 -.269E+01 0.102E+04   -.499E-02 0.217E+01 -.102E+04   -.903E-03 0.393E+00 -.682E+00   -.189E-02 0.120E+00 0.215E+00
   -.262E+01 0.151E+01 0.102E+04   0.270E+01 -.154E+01 -.102E+04   0.114E-01 -.721E-02 -.633E+00   -.714E-01 0.313E-01 0.111E+00
   0.262E+01 0.154E+01 0.102E+04   -.269E+01 -.157E+01 -.102E+04   -.125E-01 -.723E-02 -.636E+00   0.735E-01 0.330E-01 0.117E+00
   -.193E+00 -.147E+01 -.814E+03   0.173E+00 0.138E+01 0.814E+03   0.157E-01 0.112E+00 0.881E+00   0.427E-02 -.536E-01 -.157E+00
   0.240E+02 0.138E+02 -.779E+03   -.230E+02 -.132E+02 0.779E+03   -.946E+00 -.561E+00 -.438E+00   -.157E+00 -.654E-01 -.162E+00
   -.237E+02 0.138E+02 -.778E+03   0.228E+02 -.133E+02 0.779E+03   0.912E+00 -.546E+00 -.429E+00   0.137E+00 -.719E-01 -.161E+00
   0.120E+02 -.696E+01 -.818E+03   -.121E+02 0.700E+01 0.818E+03   0.140E+00 -.794E-01 0.603E+00   -.406E-01 0.259E-01 -.134E+00
   0.171E+00 -.276E+02 -.778E+03   -.160E+00 0.265E+02 0.779E+03   0.241E-02 0.108E+01 -.413E+00   -.153E-01 0.142E+00 -.168E+00
   -.122E+02 -.710E+01 -.818E+03   0.122E+02 0.713E+01 0.818E+03   -.143E+00 -.737E-01 0.602E+00   0.647E-01 0.259E-01 -.131E+00
   0.127E+01 0.863E+00 -.815E+03   -.120E+01 -.813E+00 0.814E+03   -.985E-01 -.680E-01 0.900E+00   0.469E-01 0.302E-01 -.165E+00
   -.132E+01 0.664E+00 -.815E+03   0.124E+01 -.636E+00 0.814E+03   0.947E-01 -.539E-01 0.900E+00   -.362E-01 0.380E-01 -.165E+00
   0.293E-01 0.140E+02 -.818E+03   -.362E-01 -.141E+02 0.818E+03   -.365E-02 0.161E+00 0.613E+00   0.105E-01 -.667E-01 -.134E+00
   -.444E+00 0.229E+00 -.266E+04   0.435E+00 -.248E+00 0.265E+04   0.539E-02 -.300E-02 0.136E+01   0.196E-02 0.239E-01 -.121E+00
   0.436E+02 0.674E+02 -.264E+04   -.427E+02 -.666E+02 0.264E+04   -.733E+00 -.939E+00 0.149E+01   -.207E+00 -.571E-01 -.179E+00
   -.432E+02 0.687E+02 -.264E+04   0.424E+02 -.679E+02 0.264E+04   0.729E+00 -.927E+00 0.143E+01   0.202E+00 -.528E-01 -.180E+00
   0.796E+02 0.372E+01 -.264E+04   -.785E+02 -.339E+01 0.264E+04   -.118E+01 -.172E+00 0.146E+01   -.162E+00 -.139E+00 -.172E+00
   -.816E+02 0.372E+01 -.264E+04   0.804E+02 -.340E+01 0.264E+04   0.117E+01 -.175E+00 0.130E+01   0.159E+00 -.134E+00 -.170E+00
   0.371E+02 -.711E+02 -.264E+04   -.368E+02 0.700E+02 0.264E+04   -.442E+00 0.111E+01 0.148E+01   0.291E-01 0.194E+00 -.183E+00
   -.367E+02 -.725E+02 -.264E+04   0.364E+02 0.713E+02 0.264E+04   0.438E+00 0.110E+01 0.143E+01   -.255E-01 0.192E+00 -.175E+00
   -.442E+00 -.208E+00 -.267E+04   0.446E+00 0.232E+00 0.267E+04   0.723E-02 0.538E-03 0.153E+01   -.119E-01 -.277E-01 -.127E+00
   0.326E+01 -.929E-01 -.255E+04   -.331E+01 0.987E-01 0.255E+04   0.457E-01 -.640E-03 -.149E+01   0.115E-01 0.278E-02 -.136E+00
   -.600E+01 -.262E-01 -.166E+04   0.687E+01 0.358E-01 0.164E+04   -.867E+00 -.554E-02 0.199E+02   0.469E-02 0.214E-02 0.895E-01
   0.606E+02 0.253E+00 -.173E+04   -.102E+03 -.409E+00 0.176E+04   0.418E+02 0.153E+00 -.257E+02   0.257E-02 0.664E-03 0.403E-01
   -.889E+02 -.297E+00 -.286E+03   0.968E+02 0.326E+00 0.288E+03   -.791E+01 -.272E-01 -.221E+01   -.940E-03 -.170E-03 0.486E-02
   -.330E+02 -.105E+00 0.150E+02   0.142E-13 0.106E-12 0.216E-11   0.330E+02 0.897E-01 -.145E+02   0.351E-01 0.230E-01 -.472E+00

 POSITION                                       TOTAL-FORCE (eV/Angst)
      0.00000      0.00000      5.28219        -0.001190      0.000179     -0.035791
      2.93046      0.00000      5.28219        -0.005015      0.018107      0.019954
      5.86091      0.00000      5.28219         0.003395      0.018909      0.020962
      1.46523      2.53785      5.28219         0.010289     -0.013776      0.021423
      4.39568      2.53785      5.28219         0.000042      0.000215      0.002330
      7.32614      2.53785      5.28219        -0.013256     -0.013847      0.021783
      2.93046      5.07570      5.28219         0.019133     -0.004965      0.020560
      5.86091      5.07570      5.28219        -0.020697     -0.005732      0.020511
      8.79137      5.07570      5.28219        -0.001392     -0.000815      0.011204
      1.46523      0.84595      7.67490         0.006071      0.003802     -0.062704
      4.39568      0.84595      7.67490        -0.001266     -0.068777     -0.053844
      7.32614      0.84595      7.67490        -0.008057      0.003985     -0.061363
      2.93046      3.38380      7.67490        -0.059588      0.034530     -0.053472
      5.86091      3.38380      7.67490         0.057945      0.034825     -0.053130
      8.79137      3.38380      7.67490        -0.000064      0.013375      0.041767
      4.39568      5.92165      7.67490        -0.000883     -0.009158     -0.061967
      7.32614      5.92165      7.67490         0.011309     -0.005999      0.042842
     10.25659      5.92165      7.67490        -0.013236     -0.006946      0.042308
      8.79137      1.69022     10.04930        -0.000644     -0.024277      0.010730
      2.93117      1.69231     10.04246        -0.110562     -0.062760     -0.138853
      5.86019      1.69231     10.04246         0.111187     -0.067651     -0.149169
     10.25641      4.22985     10.06824         0.025313     -0.016332      0.026072
      4.39568      4.22892     10.04246        -0.002369      0.125779     -0.142085
      7.32632      4.22985     10.06824        -0.026937     -0.015733      0.020744
     11.72328      6.76844     10.04930         0.020429      0.011551      0.014022
      5.85946      6.76844     10.04930        -0.021902      0.011526      0.014927
      8.79137      6.76739     10.06824        -0.001078      0.030247      0.026091
      0.00000      0.00000     12.44689        -0.002267      0.001741     -0.005650
      2.93311      0.00118     12.48352        -0.075267     -0.152422     -0.136813
      5.85826      0.00118     12.48352         0.076728     -0.154788     -0.143478
      1.46758      2.53956     12.48352        -0.171405      0.011731     -0.138043
      7.32379      2.53956     12.48352         0.176707      0.011837     -0.153260
      2.93015      5.07281     12.48352        -0.095467      0.140272     -0.134747
      5.86121      5.07281     12.48352         0.096236      0.141175     -0.141589
      8.79137      5.07570     12.47551        -0.002496     -0.003016      0.013235
      4.39568      2.53785     12.42634         0.010885      0.007744      1.250455
      4.41441      2.53731     14.32061         0.006647      0.006001      0.034430
      4.32156      2.53670     15.74134         0.002088     -0.001735     -0.010838
      5.27327      2.54002     15.98726         0.000634      0.001198      0.000444
    total drift:                                0.038352      0.007546      0.008562

  FREE ENERGIE OF THE ION-ELECTRON SYSTEM (eV)
  free  energy   TOTEN  =      -112.99543360 eV

  energy  without entropy=     -112.99543360  energy(sigma->0) =     -112.99543360

 stress matrix after NEB project (eV)
     -5.67263     -0.00677     -0.03988
     -0.00677     -5.73073      0.01454
     -0.03988      0.01454      0.56639
  FORCES: max atom, RMS     0.035576    0.005975
  FORCE total and by dimension    0.037317    0.034430
  Stress total and by dimension    8.083595    5.730734
|           W    W    AA    RRRRR   N    N  II  N    N   GGGG   !!!           |
|           W    W   A  A   R    R  NN   N  II  NN   N  G    G  !!!           |
|           W    W  A    A  R    R  N N  N  II  N N  N  G       !!!           |
|           W WW W  AAAAAA  RRRRR   N  N N  II  N  N N  G  GGG   !            |
|           WW  WW  A    A  R   R   N   NN  II  N   NN  G    G                |
|           W    W  A    A  R    R  N    N  II  N    N   GGGG   !!!           |
|     Tetrahedron method does not include variations of the Fermi             |
|     occupations, so forces and stress will be inaccurate. We suggest        |
|     using a different smearing scheme ISMEAR = 1 or 2 for metals in         |
|     relaxations.                                                            |

 total charge

# of ion       s       p       d       tot
    1        0.421   0.201   9.177   9.799
    2        0.417   0.204   9.177   9.797
    3        0.417   0.204   9.177   9.797
    4        0.417   0.204   9.177   9.797
    5        0.417   0.204   9.176   9.797
    6        0.417   0.204   9.177   9.797
    7        0.417   0.204   9.177   9.798
    8        0.417   0.204   9.177   9.797
    9        0.415   0.203   9.178   9.795
   10        0.410   0.269   9.163   9.841
   11        0.406   0.268   9.168   9.842
   12        0.409   0.269   9.163   9.841
   13        0.406   0.268   9.168   9.842
   14        0.406   0.268   9.168   9.842
   15        0.401   0.269   9.164   9.835
   16        0.409   0.269   9.163   9.841
   17        0.401   0.270   9.164   9.835
   18        0.401   0.269   9.164   9.835
   19        0.405   0.264   9.167   9.836
   20        0.435   0.293   9.139   9.867
   21        0.435   0.293   9.139   9.868
   22        0.395   0.273   9.163   9.831
   23        0.435   0.293   9.139   9.867
   24        0.396   0.272   9.163   9.831
   25        0.405   0.264   9.167   9.836
   26        0.405   0.264   9.167   9.836
   27        0.395   0.273   9.163   9.831
   28        0.413   0.209   9.170   9.792
   29        0.449   0.219   9.153   9.822
   30        0.450   0.220   9.153   9.823
   31        0.450   0.220   9.153   9.822
   32        0.451   0.222   9.152   9.824
   33        0.450   0.219   9.153   9.822
   34        0.450   0.220   9.153   9.823
   35        0.413   0.212   9.170   9.794
   36        2.205   5.993   1.570   9.768
   37        1.578   3.379   0.000   4.956
   38        1.590   3.392   0.000   4.982
   39        0.615   0.113   0.000   0.727
tot         20.623  21.353 322.311 364.287

 BZINTS: Fermi energy:    0.338527;  410.000000 electrons
         Band energy:-0.188106E+04;  BLOECHL correction:   -0.046861