 vasp.6.2.0 18Jan21 (build Jun 12 2021 23:27:24) complex

 executed on             LinuxIFC date 2022.05.27  05:59:28

 INCAR:
   ISMEAR = -5
   SIGMA = 0.1
   ISPIN = 1
   EDIFF = 1.d-5
   EDIFFG = -0.01
   NSW = 0
   NELM = 150
   ENCUT = 500
   ISIF = 2
   IBRION = 2
   LREAL = Auto
   ALGO = Fast
   ICHARG = 11
   LORBIT = 10
   LCHARG = .F.
   LWAVE = .F.

 POTCAR:    PAW_PBE Cu 22Jun2005
 POTCAR:    PAW_PBE V 08Apr2002
 POTCAR:    PAW_PBE N 08Apr2002
|           W    W    AA    RRRRR   N    N  II  N    N   GGGG   !!!           |
|           W    W   A  A   R    R  NN   N  II  NN   N  G    G  !!!           |
|           W    W  A    A  R    R  N N  N  II  N N  N  G       !!!           |
|           W WW W  AAAAAA  RRRRR   N  N N  II  N  N N  G  GGG   !            |
|           WW  WW  A    A  R   R   N   NN  II  N   NN  G    G                |
|           W    W  A    A  R    R  N    N  II  N    N   GGGG   !!!           |
|     For optimal performance we recommend to set                             |
|       NCORE = 2 up to number-of-cores-per-socket                            |
|     This setting can greatly improve the performance of VASP for DFT.       |
|     The default, NCORE=1 might be grossly inefficient on modern             |
|     multi-core architectures or massively parallel machines. Do your        |
|     Unfortunately you need to use the default for GW and RPA                |
|     calculations (for HF NCORE is supported but not extensively tested      |
|     yet).                                                                   |

 POTCAR:    PAW_PBE Cu 22Jun2005
   VRHFIN =Cu: d10 p1

   TITEL  = PAW_PBE Cu 22Jun2005
   POMASS =   63.546; ZVAL   =   11.000    mass and valenz
   ENMAX  =  295.446; ENMIN  =  221.585 eV

 POTCAR:    PAW_PBE V 08Apr2002
   VRHFIN =V: p6 d4 s1

   TITEL  = PAW_PBE V 08Apr2002
   POMASS =   50.941; ZVAL   =    5.000    mass and valenz
   ENMAX  =  192.543; ENMIN  =  144.408 eV

 POTCAR:    PAW_PBE N 08Apr2002
   VRHFIN =N: s2p3

   TITEL  = PAW_PBE N 08Apr2002
   POMASS =   14.001; ZVAL   =    5.000    mass and valenz
   ENMAX  =  400.000; ENMIN  =  300.000 eV

 Optimization of the real space projectors (new method)

 maximal supplied QI-value         = 16.25
 optimisation between [QCUT,QGAM] = [ 11.38, 22.75] = [ 36.24,144.96] Ry
 Optimized for a Real-space Cutoff    1.52 Angstroem

   l    n(q)    QCUT    max X(q) W(low)/X(q) W(high)/X(q)  e(spline)
   2      9    11.376     4.610    0.21E-03    0.10E-03    0.26E-06
   2      9    11.376     8.522    0.33E-03    0.16E-03    0.37E-06
   0     10    11.376    51.609    0.62E-04    0.20E-04    0.13E-06
   0     10    11.376    27.747    0.54E-04    0.20E-04    0.13E-06
   1     10    11.376    20.408    0.13E-04    0.99E-04    0.19E-06
   1     10    11.376    13.425    0.12E-04    0.87E-04    0.17E-06
 Optimization of the real space projectors (new method)

[...]

   l    n(q)    QCUT    max X(q) W(low)/X(q) W(high)/X(q)  e(spline)
   2     10    11.327    96.114    0.36E-03    0.35E-03    0.42E-06
   2     10    11.327    88.986    0.37E-03    0.35E-03    0.42E-06
   0     11    11.327    20.919    0.40E-04    0.56E-04    0.79E-06
   0     11    11.327     9.593    0.30E-04    0.41E-04    0.60E-06
   1     10    11.327    11.615    0.15E-03    0.10E-03    0.19E-06
   1     10    11.327     7.031    0.11E-03    0.73E-04    0.14E-06
 Optimization of the real space projectors (new method)

 maximal supplied QI-value         = 25.13
 optimisation between [QCUT,QGAM] = [ 11.31, 22.87] = [ 35.82,146.48] Ry
 Optimized for a Real-space Cutoff    1.27 Angstroem

   l    n(q)    QCUT    max X(q) W(low)/X(q) W(high)/X(q)  e(spline)
   0      9    11.310    79.467    0.75E-04    0.16E-03    0.36E-06
   0      9    11.310    66.151    0.74E-04    0.16E-03    0.36E-06
   1      8    11.310    17.416    0.35E-03    0.12E-03    0.95E-06
   1      8    11.310    12.382    0.37E-03    0.13E-03    0.98E-06
  PAW_PBE Cu 22Jun2005                  :
  PAW_PBE V 08Apr2002                   :
  PAW_PBE N 08Apr2002                   :

 POSCAR: Cu-V-N2
  positions in direct lattice
  velocities in cartesian coordinates
 exchange correlation table for  LEXCH =        8
   RHO(1)=    0.500       N(1)  =     2000
   RHO(2)=  100.500       N(2)  =     4000

 VTST: version 3.2, (02/03/18)

 CHAIN: initializing optimizer

 OPT: Using VASP Conjugate-Gradient optimizer
 CHAIN: Read ICHAIN            0

 POSCAR: Cu-V-N2
  positions in direct lattice
  velocities in cartesian coordinates

 ion  position               nearest neighbor table
   1  0.000  0.000  0.252-   7 2.57   3 2.57   4 2.57   2 2.57   6 2.57   8 2.57  12 2.57  10 2.57
                            16 2.57
   2  0.333  0.000  0.252-   8 2.57   9 2.57   5 2.57   1 2.57   3 2.57  11 2.57   4 2.57  10 2.57
                            17 2.57
   3  0.667  0.000  0.252-   1 2.57   7 2.57   6 2.57   9 2.57   2 2.57  12 2.57   5 2.57  18 2.57
                            11 2.57
   4  0.000  0.333  0.252-   5 2.57   6 2.57   1 2.57   7 2.57   2 2.57  13 2.57   9 2.57  10 2.57
                            15 2.57
   5  0.333  0.333  0.252-   4 2.57   2 2.57   7 2.57  13 2.57   8 2.57   6 2.57   3 2.57  11 2.57
                            14 2.57
   6  0.667  0.333  0.252-   4 2.57   9 2.57  15 2.57   3 2.57   1 2.57   8 2.57  14 2.57   5 2.57
                            12 2.57
   7  0.000  0.667  0.252-   1 2.57   3 2.57  16 2.57  18 2.57   4 2.57   5 2.57   8 2.57   9 2.57
                            13 2.57
   8  0.333  0.667  0.252-   9 2.57   2 2.57  17 2.57   6 2.57   1 2.57   7 2.57   5 2.57  14 2.57
                            16 2.57
   9  0.667  0.667  0.252-   8 2.57   6 2.57   2 2.57  17 2.57   3 2.57   7 2.57   4 2.57  15 2.57
                            18 2.57
  10  0.111  0.111  0.351-  26 2.56  19 2.56  20 2.56  11 2.57  12 2.57  13 2.57   1 2.57   2 2.57
                             4 2.57  15 2.57  16 2.57  17 2.57
  11  0.444  0.111  0.351-  20 2.56  21 2.56  10 2.57  13 2.57   2 2.57  17 2.57  14 2.57  12 2.57
                             5 2.57   3 2.57  18 2.57  27 2.57
  12  0.778  0.111  0.351-  19 2.56  25 2.56  21 2.56  15 2.57  10 2.57  14 2.57  18 2.57   3 2.57
                             1 2.57  16 2.57  11 2.57   6 2.57
  13  0.111  0.444  0.351-  23 2.56  20 2.56  16 2.57  18 2.57  10 2.57  11 2.57  14 2.57   5 2.57
                             4 2.57   7 2.57  15 2.57  22 2.57
  14  0.444  0.444  0.351-  21 2.56  23 2.56  15 2.57  17 2.57  12 2.57  16 2.57  13 2.57  11 2.57
                             6 2.57   8 2.57   5 2.57  24 2.57
  15  0.778  0.444  0.351-  19 2.56  24 2.57  22 2.57  14 2.57  17 2.57  12 2.57   6 2.57  18 2.57
                            10 2.57   9 2.57  13 2.57   4 2.57
  16  0.111  0.778  0.351-  25 2.56  26 2.56  23 2.56  18 2.57  13 2.57   7 2.57  14 2.57  17 2.57
                            12 2.57  10 2.57   8 2.57   1 2.57
  17  0.444  0.778  0.351-  26 2.56  27 2.57  24 2.57  14 2.57  15 2.57   8 2.57   9 2.57  11 2.57
                            16 2.57  18 2.57  10 2.57   2 2.57
  18  0.778  0.778  0.351-  25 2.56  22 2.57  27 2.57  16 2.57  13 2.57   7 2.57  15 2.57  12 2.57
                            17 2.57   9 2.57   3 2.57  11 2.57
  19  0.889  0.222  0.449-  12 2.56  10 2.56  15 2.56  28 2.56  25 2.56  26 2.56  21 2.57  20 2.57
                            22 2.57  24 2.57  32 2.58  31 2.58
  20  0.222  0.222  0.449-  36 2.54  11 2.56  13 2.56  10 2.56  23 2.56  21 2.56  26 2.57  19 2.57
                            27 2.57  22 2.57  29 2.57  31 2.57
  21  0.555  0.222  0.449-  36 2.54  14 2.56  11 2.56  12 2.56  20 2.56  23 2.56  19 2.57  25 2.57
                            24 2.57  27 2.57  32 2.57  30 2.57
  22  0.888  0.556  0.449-  24 2.56  27 2.56  35 2.56  18 2.57  15 2.57  19 2.57  25 2.57  31 2.57
                            33 2.57  13 2.57  23 2.57  20 2.57
  23  0.222  0.555  0.449-  36 2.54  13 2.56  14 2.56  16 2.56  20 2.56  21 2.56  25 2.57  26 2.57
                            22 2.57  24 2.57  33 2.57  34 2.57
  24  0.556  0.556  0.449-  22 2.56  27 2.56  35 2.56  15 2.57  17 2.57  19 2.57  26 2.57  32 2.57
                            34 2.57  14 2.57  21 2.57  23 2.57
  25  0.889  0.889  0.449-  12 2.56  16 2.56  18 2.56  28 2.56  19 2.56  26 2.56  21 2.57  23 2.57
                            22 2.57  27 2.57  33 2.58  30 2.58
  26  0.222  0.889  0.449-  10 2.56  16 2.56  17 2.56  28 2.56  25 2.56  19 2.56  20 2.57  23 2.57
                            27 2.57  24 2.57  29 2.58  34 2.58
  27  0.556  0.888  0.449-  24 2.56  22 2.56  35 2.56  17 2.57  18 2.57  26 2.57  25 2.57  29 2.57
                            30 2.57  11 2.57  20 2.57  21 2.57
  28  0.000  0.000  0.547-  25 2.56  19 2.56  26 2.56  33 2.57  30 2.57  31 2.57  29 2.57  32 2.57
                            34 2.57
  29  0.333  0.000  0.548-  30 2.56  36 2.56  31 2.56  27 2.57  35 2.57  28 2.57  20 2.57  34 2.57
                            26 2.58
  30  0.666  0.000  0.548-  29 2.56  36 2.56  32 2.56  27 2.57  35 2.57  28 2.57  21 2.57  33 2.57
                            25 2.58
  31  0.000  0.333  0.548-  33 2.56  36 2.56  29 2.56  22 2.57  35 2.57  28 2.57  20 2.57  32 2.57
                            19 2.58
  32  0.666  0.333  0.548-  34 2.56  36 2.56  30 2.56  24 2.57  35 2.57  28 2.57  21 2.57  31 2.57
                            19 2.58
  33  0.000  0.666  0.548-  31 2.56  36 2.56  34 2.56  22 2.57  35 2.57  28 2.57  23 2.57  30 2.57
                            25 2.58
  34  0.333  0.666  0.548-  32 2.56  36 2.56  33 2.56  24 2.57  35 2.57  28 2.57  23 2.57  29 2.57
                            26 2.58
  35  0.667  0.667  0.548-  24 2.56  27 2.56  22 2.56  34 2.57  32 2.57  29 2.57  30 2.57  33 2.57
                            31 2.57
  36  0.333  0.333  0.546-  38 2.21  37 2.21  23 2.54  20 2.54  21 2.54  31 2.56  29 2.56  33 2.56
                            32 2.56  34 2.56  30 2.56
  37  0.257  0.334  0.646-  38 1.16  36 2.21
  38  0.408  0.334  0.646-  37 1.16  36 2.21

  LATTYP: Found a hexagonal cell.
 ALAT       =     7.6967864036
 C/A-ratio  =     2.7653617908

  Lattice vectors:

 A1 = (  -3.8483927580,  -6.6656128093,   0.0000000000)
 A2 = (   7.6967864037,   0.0000000000,   0.0000000000)
 A3 = (   0.0000000000,   0.0000000000,  21.2843990326)

Analysis of symmetry for initial positions (statically):
 Subroutine PRICEL returns:
 Original cell was already a primitive cell.

 Routine SETGRP: Setting up the symmetry group for a
 hexagonal supercell.

 Subroutine GETGRP returns: Found  2 space group operations
 (whereof  2 operations were pure point group operations)
 out of a pool of 24 trial point group operations.

The static configuration has the point symmetry C_1h.

Analysis of symmetry for dynamics (positions and initial velocities):
 Subroutine PRICEL returns:
 Original cell was already a primitive cell.

[...]

The dynamic configuration has the point symmetry C_1h.

Analysis of constrained symmetry for selective dynamics:
 Subroutine PRICEL returns:
 Original cell was already a primitive cell.

 Routine SETGRP: Setting up the symmetry group for a
 hexagonal supercell.

[...]
     33      -3.9329      2.00000
     34      -3.9312      2.00000
     35      -3.9211      2.00000
     36      -3.9052      2.00000
     37      -3.8773      2.00000
     38      -3.8643      2.00000
     39      -3.8276      2.00000
     40      -3.7606      2.00000
     41      -3.7448      2.00000
     42      -3.6180      2.00000
     43      -3.6120      2.00000
     44      -3.5360      2.00000
     45      -3.5329      2.00000
     46      -3.5273      2.00000
     47      -3.4990      2.00000
     48      -3.4881      2.00000
     49      -3.4851      2.00000
     50      -3.4792      2.00000
     51      -3.2984      2.00000
     52      -3.2890      2.00000
     53      -3.2769      2.00000
     54      -3.2601      2.00000
     55      -3.2182      2.00000
     56      -3.2126      2.00000
     57      -3.1928      2.00000
     58      -3.1861      2.00000
     59      -3.1782      2.00000
     60      -3.1656      2.00000
[...]
    238       5.9553      0.00000
    239       6.1514      0.00000
    240       6.2695      0.00000
    241       6.3047      0.00000
    242       6.4935      0.00000
    243       6.6480      0.00000
    244       6.9673      0.00000
    245       7.0007      0.00000
    246       7.1160      0.00000
    247       7.1696      0.00000
    248       7.2974      0.00000
    249       7.4274      0.00000
    250       7.4981      0.00000
    251       7.5077      0.00000
    252       7.5723      0.00000

 soft charge-density along one line, spin component           1
         0         1         2         3         4         5         6         7         8         9
 total charge-density along one line

------------------------ aborting loop because EDIFF is reached ----------------------------------------

 total charge

# of ion       s       p       d       tot
    1        0.450   0.283   9.188   9.921
    2        0.449   0.286   9.185   9.920
    3        0.449   0.286   9.185   9.920
    4        0.448   0.284   9.187   9.920
    5        0.449   0.285   9.183   9.916
    6        0.448   0.284   9.187   9.920
    7        0.447   0.285   9.186   9.919
    8        0.447   0.285   9.186   9.919
    9        0.448   0.283   9.189   9.921
   10        0.443   0.371   9.176   9.990
   11        0.442   0.366   9.183   9.991
   12        0.443   0.371   9.176   9.990
   13        0.442   0.366   9.183   9.991
   14        0.442   0.366   9.183   9.991
   15        0.438   0.371   9.176   9.985
   16        0.443   0.371   9.176   9.990
   17        0.438   0.370   9.178   9.986
   18        0.438   0.370   9.178   9.986
   19        0.439   0.369   9.181   9.989
   20        0.461   0.394   9.156  10.012
   21        0.461   0.394   9.156  10.012
   22        0.432   0.374   9.179   9.985
   23        0.464   0.389   9.161  10.014
   24        0.432   0.374   9.179   9.985
   25        0.444   0.366   9.182   9.992
   26        0.444   0.366   9.182   9.992
   27        0.434   0.372   9.181   9.988
   28        0.447   0.288   9.183   9.919
   29        0.471   0.303   9.169   9.943
   30        0.471   0.303   9.169   9.943
   31        0.467   0.295   9.176   9.937
   32        0.467   0.295   9.176   9.937
   33        0.471   0.302   9.171   9.944
   34        0.471   0.302   9.171   9.944
   35        0.443   0.292   9.181   9.917
   36        0.481   0.579   3.464   4.524
   37        1.351   2.447   0.000   3.797
   38        1.351   2.447   0.000   3.797
tot         18.907  17.136 324.704 360.747

  FORCE on cell =-STRESS in cart. coord.  units (eV):
  Direction    XX          YY          ZZ          XY          YZ          ZX
  Alpha Z   890.88310   890.88310   890.88310
  Ewald  169857.28328169557.38774************     0.00038    -0.75771     0.00017
  Hartree182795.08929182688.92549************     0.00004    -0.52441     0.00006
  E(xc)   -2310.25175 -2310.75703 -2315.10391    -0.00025     0.01652    -0.00004
  Local  ************************365299.24631     0.02015     1.32322    -0.00074
  n-local  -781.74700  -769.01732  -787.03784     1.64675    -0.10160     0.05853
  augment  3329.74002  3327.13836  3350.55809    -0.01850    -0.01305     0.00022
  Kinetic  3344.09675  3354.46839  3386.82087     0.62420    -0.15486    -0.25587
  Fock        0.00000     0.00000     0.00000     0.00000     0.00000     0.00000
  Total      -6.66355    -6.44064    -1.14490     0.00000    -0.21191     0.00000
  in kB      -9.77700    -9.44993    -1.67984     0.00000    -0.31092     0.00000

 VOLUME and BASIS-vectors are now :
  energy-cutoff  :      500.00
  volume of cell :     1091.97
      direct lattice vectors                 reciprocal lattice vectors
     7.696786404  0.000000000  0.000000000     0.129924354 -0.075011849  0.000000000
     3.848392758  6.665612809  0.000000000     0.000000000  0.150023716  0.000000000
     0.000000000  0.000000000 21.284399033     0.000000000  0.000000000  0.046982769

  length of vectors
     7.696786404  7.696786404 21.284399033     0.150023716  0.150023716  0.046982769

 FORCES acting on ions
    electron-ion (+dipol)            ewald-force                    non-local-force                 convergence-correction
   -.407E-04 0.242E-01 0.348E+04   0.580E-04 -.133E-01 -.347E+04   0.186E-08 -.279E-01 -.242E+01   -.278E-03 0.553E-02 -.961E-01
   -.725E+00 -.524E+00 0.348E+04   0.551E+00 0.470E+00 -.347E+04   0.145E+00 0.969E-01 -.178E+01   0.295E-01 -.395E-01 -.368E-01
   0.725E+00 -.524E+00 0.348E+04   -.551E+00 0.470E+00 -.347E+04   -.145E+00 0.969E-01 -.178E+01   -.288E-01 -.370E-01 -.360E-01
   -.728E+00 -.335E+00 0.348E+04   0.693E+00 0.234E+00 -.347E+04   0.114E+00 -.114E-01 -.199E+01   -.569E-01 0.105E+00 -.821E-01
   -.624E-04 -.113E+00 0.347E+04   0.116E-03 -.138E-02 -.347E+04   -.110E-10 0.165E-03 -.167E+01   0.121E-01 0.107E+00 0.445E-01
   0.728E+00 -.335E+00 0.348E+04   -.694E+00 0.234E+00 -.347E+04   -.114E+00 -.114E-01 -.199E+01   0.553E-01 0.106E+00 -.810E-01
   -.267E+00 0.889E+00 0.348E+04   0.143E+00 -.704E+00 -.347E+04   0.124E+00 -.104E+00 -.186E+01   -.827E-03 -.792E-01 -.101E+00
   0.267E+00 0.889E+00 0.348E+04   -.143E+00 -.704E+00 -.347E+04   -.124E+00 -.104E+00 -.186E+01   0.427E-02 -.805E-01 -.101E+00
   -.143E-03 0.632E-01 0.348E+04   0.263E-03 0.146E-01 -.347E+04   -.176E-08 0.264E-01 -.215E+01   -.132E-01 -.924E-01 -.761E-01
   -.417E+01 -.235E+01 0.118E+04   0.457E+01 0.252E+01 -.118E+04   -.415E+00 -.228E+00 -.102E+01   0.142E-01 0.572E-01 -.140E+00
   -.908E-04 -.482E+01 0.117E+04   0.189E-03 0.432E+01 -.117E+04   -.202E-07 0.303E+00 -.286E+00   0.115E-01 0.143E+00 -.106E+00
   0.417E+01 -.235E+01 0.118E+04   -.457E+01 0.252E+01 -.118E+04   0.415E+00 -.228E+00 -.102E+01   -.154E-01 0.582E-01 -.141E+00
   -.430E+01 0.234E+01 0.117E+04   0.385E+01 -.215E+01 -.117E+04   0.330E+00 -.156E+00 -.398E+00   0.984E-01 -.288E-02 -.157E+00
   0.430E+01 0.234E+01 0.117E+04   -.385E+01 -.215E+01 -.117E+04   -.330E+00 -.156E+00 -.398E+00   -.749E-01 -.404E-02 -.159E+00
   -.141E-03 -.128E+01 0.118E+04   0.297E-03 0.110E+01 -.118E+04   -.707E-08 0.106E+00 -.996E+00   -.311E-02 0.557E-01 -.130E+00
   -.924E-04 0.488E+01 0.118E+04   0.186E-03 -.523E+01 -.118E+04   -.316E-07 0.475E+00 -.785E+00   -.702E-03 -.112E+00 -.109E+00
   -.106E+01 0.609E+00 0.118E+04   0.900E+00 -.470E+00 -.118E+04   0.120E+00 -.574E-01 -.794E+00   0.330E-01 -.829E-01 -.100E+00
   0.106E+01 0.609E+00 0.118E+04   -.901E+00 -.470E+00 -.118E+04   -.120E+00 -.574E-01 -.794E+00   -.318E-01 -.807E-01 -.994E-01
   -.653E-04 -.571E+01 -.112E+04   0.713E-04 0.553E+01 0.112E+04   -.650E-08 0.976E-01 0.127E+01   0.104E-02 0.882E-01 -.407E-01
   -.456E+02 -.258E+02 -.118E+04   0.469E+02 0.263E+02 0.118E+04   -.129E+01 -.571E+00 -.707E+00   -.262E-01 0.302E-01 -.721E-01
   0.456E+02 -.258E+02 -.118E+04   -.469E+02 0.263E+02 0.118E+04   0.129E+01 -.571E+00 -.707E+00   0.548E-02 0.293E-01 -.735E-01
   -.208E+02 0.114E+02 -.113E+04   0.204E+02 -.110E+02 0.113E+04   0.414E+00 -.328E+00 0.815E+00   -.513E-02 -.222E-01 -.150E+00
   -.803E-04 0.519E+02 -.118E+04   0.150E-03 -.532E+02 0.118E+04   -.938E-07 0.141E+01 -.594E+00   -.125E-01 -.830E-01 0.158E-02
   0.208E+02 0.114E+02 -.113E+04   -.204E+02 -.110E+02 0.113E+04   -.414E+00 -.328E+00 0.815E+00   0.661E-02 -.211E-01 -.149E+00
   0.533E+01 0.327E+01 -.112E+04   -.522E+01 -.326E+01 0.112E+04   -.257E-01 0.330E-01 0.107E+01   -.697E-01 -.390E-01 -.592E-01
   -.533E+01 0.327E+01 -.112E+04   0.522E+01 -.326E+01 0.112E+04   0.257E-01 0.330E-01 0.107E+01   0.709E-01 -.381E-01 -.592E-01
   -.125E-03 -.240E+02 -.113E+04   0.240E-03 0.236E+02 0.113E+04   -.328E-07 0.493E+00 0.783E+00   -.986E-03 -.168E-01 -.156E+00
   -.360E-04 0.309E+01 -.337E+04   0.386E-04 -.335E+01 0.337E+04   -.136E-07 0.204E+00 0.187E+01   -.133E-02 0.341E-01 0.784E-01
   -.214E+02 -.357E+02 -.334E+04   0.221E+02 0.362E+02 0.334E+04   -.693E+00 -.573E+00 0.167E+01   -.178E-01 -.549E-02 -.341E-01
   0.214E+02 -.357E+02 -.334E+04   -.221E+02 0.362E+02 0.334E+04   0.693E+00 -.573E+00 0.167E+01   0.399E-01 -.437E-02 -.339E-01
   -.391E+02 0.322E+01 -.333E+04   0.394E+02 -.313E+01 0.333E+04   -.482E+00 -.140E+00 0.270E+01   0.656E-01 0.532E-01 -.207E-02
   0.391E+02 0.322E+01 -.333E+04   -.394E+02 -.313E+01 0.333E+04   0.482E+00 -.140E+00 0.270E+01   -.433E-01 0.543E-01 -.117E-02
   -.264E+02 0.323E+02 -.334E+04   0.266E+02 -.328E+02 0.334E+04   -.325E+00 0.721E+00 0.183E+01   0.203E-02 -.462E-01 -.307E-01
   0.264E+02 0.323E+02 -.334E+04   -.266E+02 -.328E+02 0.334E+04   0.325E+00 0.721E+00 0.183E+01   0.228E-01 -.461E-01 -.299E-01
   -.130E-03 -.349E+01 -.338E+04   0.253E-03 0.367E+01 0.338E+04   0.660E-08 -.992E-01 0.221E+01   -.142E-01 -.519E-01 0.117E+00
   -.449E-04 0.283E+00 -.141E+04   0.627E-04 -.410E+00 0.141E+04   0.536E-08 -.805E-01 0.250E+01   -.940E-04 0.268E-01 -.633E-01
   0.206E+03 0.180E+00 -.167E+04   -.247E+03 -.201E+00 0.168E+04   0.410E+02 0.236E-01 -.804E+01   -.447E-01 0.466E-02 -.387E-01
   -.206E+03 0.180E+00 -.167E+04   0.247E+03 -.201E+00 0.168E+04   -.410E+02 0.236E-01 -.804E+01   0.446E-01 0.471E-02 -.387E-01
   -.154E-03 -.288E+00 0.198E+02   0.142E-12 0.532E-12 0.127E-10   -.210E-07 0.315E+00 -.173E+02   0.555E-01 -.220E-01 -.254E+01

 POSITION                                       TOTAL-FORCE (eV/Angst)
      0.00000      0.00000      5.37156         0.000000     -0.011580     -0.016810
      2.56560      0.00000      5.37156         0.001021      0.003923      0.066891
      5.13119      0.00000      5.37156        -0.001021      0.003923      0.066891
      1.28280      2.22187      5.37156         0.023612     -0.006384      0.050881
      3.84839      2.22187      5.37156         0.000000     -0.007711      0.032355
      6.41399      2.22187      5.37156        -0.023612     -0.006384      0.050881
      2.56560      4.44374      5.37156        -0.002017      0.001387      0.067376
      5.13119      4.44374      5.37156         0.002017      0.001387      0.067376
      7.69679      4.44374      5.37156        -0.000000      0.011682      0.020067
      1.28280      0.74062      7.46636        -0.000591      0.003806     -0.083042
      3.84839      0.74062      7.46636         0.000000     -0.047543     -0.048473
      6.41399      0.74062      7.46636         0.000591      0.003806     -0.083042
      2.56560      2.96249      7.46636        -0.039982      0.027630     -0.063569
      5.13119      2.96249      7.46636         0.039982      0.027630     -0.063569
      7.69679      2.96249      7.46636         0.000000     -0.012949     -0.019982
      3.84839      5.18437      7.46636        -0.000000      0.011368     -0.070074
      6.41399      5.18437      7.46636        -0.006782     -0.000464      0.009250
      8.97958      5.18437      7.46636         0.006782     -0.000464      0.009250
      7.69679      1.48017      9.54910         0.000000     -0.000717      0.060745
      2.56637      1.48170      9.55121        -0.047184      0.014044     -0.072153
      5.13041      1.48170      9.55121         0.047184      0.014044     -0.072153
      8.97729      3.70444      9.56154         0.038216     -0.027086      0.024641
      3.84839      3.70222      9.55121        -0.000000      0.080832     -0.104435
      6.41628      3.70444      9.56154        -0.038216     -0.027086      0.024641
     10.26332      5.92553      9.54910         0.011614      0.008758      0.002725
      5.13026      5.92553      9.54910        -0.011614      0.008758      0.002725
      7.69679      5.92234      9.56154        -0.000000      0.049526      0.003866
      0.00000      0.00000     11.64072         0.000000     -0.017153     -0.027457
      2.56831      0.00307     11.65724        -0.084967     -0.153688     -0.176862
      5.12847      0.00307     11.65724         0.084967     -0.153688     -0.176862
      1.28681      2.22269     11.65724        -0.116071      0.007621     -0.067873
      6.40997      2.22269     11.65724         0.116071      0.007621     -0.067873
      2.56689      4.43985     11.65724        -0.103182      0.158689     -0.211998
      5.12989      4.43985     11.65724         0.103182      0.158689     -0.211998
      7.69679      4.44374     11.65596        -0.000000      0.032529     -0.032977
      3.84839      2.22187     11.62023         0.000000     -0.180484      1.180887
      3.26716      2.22875     13.75255        -0.038038      0.007862     -0.035123
      4.42962      2.22875     13.75255         0.038038      0.007862     -0.035123
    total drift:                                0.055333      0.004389      0.000209

  FREE ENERGIE OF THE ION-ELECTRON SYSTEM (eV)
  free  energy   TOTEN  =      -146.25042941 eV

  energy  without entropy=     -146.25042941  energy(sigma->0) =     -146.25042941

 stress matrix after NEB project (eV)
     -6.66355      0.00000      0.00000
      0.00000     -6.44064     -0.21191
      0.00000     -0.21191     -1.14490
  FORCES: max atom, RMS     0.052367    0.012014
  FORCE total and by dimension    0.074059    0.038038
  Stress total and by dimension    9.342665    6.663552
|           W    W    AA    RRRRR   N    N  II  N    N   GGGG   !!!           |
|           W    W   A  A   R    R  NN   N  II  NN   N  G    G  !!!           |
|           W    W  A    A  R    R  N N  N  II  N N  N  G       !!!           |
|           W WW W  AAAAAA  RRRRR   N  N N  II  N  N N  G  GGG   !            |
|           WW  WW  A    A  R   R   N   NN  II  N   NN  G    G                |
|           W    W  A    A  R    R  N    N  II  N    N   GGGG   !!!           |
|     Tetrahedron method does not include variations of the Fermi             |
|     occupations, so forces and stress will be inaccurate. We suggest        |
|     using a different smearing scheme ISMEAR = 1 or 2 for metals in         |
|     relaxations.                                                            |

 total charge

# of ion       s       p       d       tot
    1        0.450   0.283   9.188   9.921
    2        0.449   0.286   9.185   9.920
    3        0.449   0.286   9.185   9.920
    4        0.448   0.284   9.187   9.920
    5        0.449   0.285   9.183   9.916
    6        0.448   0.284   9.187   9.920
    7        0.447   0.285   9.186   9.919
    8        0.447   0.285   9.186   9.919
    9        0.448   0.283   9.189   9.921
   10        0.443   0.371   9.176   9.990
   11        0.442   0.366   9.183   9.991
   12        0.443   0.371   9.176   9.990
   13        0.442   0.366   9.183   9.991
   14        0.442   0.366   9.183   9.991
   15        0.438   0.371   9.176   9.985
   16        0.443   0.371   9.176   9.990
   17        0.438   0.370   9.178   9.986
   18        0.438   0.370   9.178   9.986
   19        0.439   0.369   9.181   9.989
   20        0.461   0.394   9.156  10.012
   21        0.461   0.394   9.156  10.012
   22        0.432   0.374   9.179   9.985
   23        0.464   0.389   9.161  10.014
   24        0.432   0.374   9.179   9.985
   25        0.444   0.366   9.182   9.992
   26        0.444   0.366   9.182   9.992
   27        0.434   0.372   9.181   9.988
   28        0.447   0.288   9.183   9.919
   29        0.471   0.303   9.169   9.943
   30        0.471   0.303   9.169   9.943
   31        0.467   0.295   9.176   9.937
   32        0.467   0.295   9.176   9.937
   33        0.471   0.302   9.171   9.944
   34        0.471   0.302   9.171   9.944
   35        0.443   0.292   9.181   9.917
   36        0.481   0.579   3.464   4.524
   37        1.351   2.447   0.000   3.797
   38        1.351   2.447   0.000   3.797
tot         18.907  17.136 324.704 360.747

 BZINTS: Fermi energy:    0.205215;  400.000000 electrons
         Band energy:-0.113086E+04;  BLOECHL correction:   -0.023560