 vasp.6.2.0 18Jan21 (build Jun 12 2021 23:27:24) complex

 executed on             LinuxIFC date 2022.05.30  18:40:57

 INCAR:
   ISMEAR = -5
   SIGMA = 0.1
   ISPIN = 1
   EDIFF = 1.d-5
   EDIFFG = -0.01
   NSW = 0
   NELM = 150
   ENCUT = 500
   ISIF = 2
   IBRION = 2
   LREAL = Auto
   ALGO = Fast
   ICHARG = 11
   LORBIT = 10
   LCHARG = .F.
   LWAVE = .F.

 POTCAR:    PAW_PBE Cu 22Jun2005
 POTCAR:    PAW_PBE Re 17Jan2003
 POTCAR:    PAW_PBE O 08Apr2002
|           W    W    AA    RRRRR   N    N  II  N    N   GGGG   !!!           |
|           W    W   A  A   R    R  NN   N  II  NN   N  G    G  !!!           |
|           W    W  A    A  R    R  N N  N  II  N N  N  G       !!!           |
|           W WW W  AAAAAA  RRRRR   N  N N  II  N  N N  G  GGG   !            |
|           WW  WW  A    A  R   R   N   NN  II  N   NN  G    G                |
|           W    W  A    A  R    R  N    N  II  N    N   GGGG   !!!           |
|     For optimal performance we recommend to set                             |
|       NCORE = 2 up to number-of-cores-per-socket                            |
|     This setting can greatly improve the performance of VASP for DFT.       |
|     The default, NCORE=1 might be grossly inefficient on modern             |
|     multi-core architectures or massively parallel machines. Do your        |
|     Unfortunately you need to use the default for GW and RPA                |
|     calculations (for HF NCORE is supported but not extensively tested      |
|     yet).                                                                   |

 POTCAR:    PAW_PBE Cu 22Jun2005
   VRHFIN =Cu: d10 p1

   TITEL  = PAW_PBE Cu 22Jun2005
   POMASS =   63.546; ZVAL   =   11.000    mass and valenz
   ENMAX  =  295.446; ENMIN  =  221.585 eV

 POTCAR:    PAW_PBE Re 17Jan2003
   VRHFIN =Re: 5p6s5d

   TITEL  = PAW_PBE Re 17Jan2003
   POMASS =  186.207; ZVAL   =    7.000    mass and valenz
   ENMAX  =  226.216; ENMIN  =  169.662 eV

 POTCAR:    PAW_PBE O 08Apr2002
   VRHFIN =O: s2p4

   TITEL  = PAW_PBE O 08Apr2002
   POMASS =   16.000; ZVAL   =    6.000    mass and valenz
   ENMAX  =  400.000; ENMIN  =  300.000 eV

 Optimization of the real space projectors (new method)

 maximal supplied QI-value         = 16.25
 optimisation between [QCUT,QGAM] = [ 11.38, 22.75] = [ 36.24,144.96] Ry
 Optimized for a Real-space Cutoff    1.52 Angstroem

   l    n(q)    QCUT    max X(q) W(low)/X(q) W(high)/X(q)  e(spline)
   2      9    11.376     4.610    0.21E-03    0.10E-03    0.26E-06
   2      9    11.376     8.522    0.33E-03    0.16E-03    0.37E-06
   0     10    11.376    51.609    0.62E-04    0.20E-04    0.13E-06
   0     10    11.376    27.747    0.54E-04    0.20E-04    0.13E-06
   1     10    11.376    20.408    0.13E-04    0.99E-04    0.19E-06
   1     10    11.376    13.425    0.12E-04    0.87E-04    0.17E-06
 Optimization of the real space projectors (new method)

[...]

   l    n(q)    QCUT    max X(q) W(low)/X(q) W(high)/X(q)  e(spline)
   2     10    11.327   884.633    0.22E-03    0.51E-03    0.88E-06
   2     10    11.327   796.723    0.22E-03    0.51E-03    0.88E-06
   0     11    11.327    65.348    0.44E-04    0.11E-03    0.75E-06
   0     11    11.327    39.642    0.40E-04    0.10E-03    0.69E-06
   1     10    11.327    13.988    0.15E-03    0.10E-03    0.19E-06
   1     10    11.327     8.682    0.11E-03    0.76E-04    0.14E-06
 Optimization of the real space projectors (new method)

 maximal supplied QI-value         = 24.76
 optimisation between [QCUT,QGAM] = [ 11.39, 22.77] = [ 36.31,145.25] Ry
 Optimized for a Real-space Cutoff    1.00 Angstroem

   l    n(q)    QCUT    max X(q) W(low)/X(q) W(high)/X(q)  e(spline)
   0      7    11.387    20.381    0.39E-03    0.13E-02    0.15E-06
   0      7    11.387    15.268    0.42E-03    0.14E-02    0.17E-06
   1      6    11.387     5.964    0.41E-03    0.11E-02    0.17E-06
   1      6    11.387     5.382    0.39E-03    0.87E-03    0.15E-06
  PAW_PBE Cu 22Jun2005                  :
  PAW_PBE Re 17Jan2003                  :
  PAW_PBE O 08Apr2002                   :

 POSCAR: Cu-Re-O2
  positions in direct lattice
  velocities in cartesian coordinates
 exchange correlation table for  LEXCH =        8
   RHO(1)=    0.500       N(1)  =     2000
   RHO(2)=  100.500       N(2)  =     4000

 VTST: version 3.2, (02/03/18)

 CHAIN: initializing optimizer

 OPT: Using VASP Conjugate-Gradient optimizer
 CHAIN: Read ICHAIN            0

 POSCAR: Cu-Re-O2
  positions in direct lattice
  velocities in cartesian coordinates

 ion  position               nearest neighbor table
   1  0.000  0.000  0.226-   7 2.57   3 2.57   4 2.57   2 2.57   6 2.57   8 2.57  12 2.57  10 2.57
                            16 2.57
   2  0.333  0.000  0.226-   8 2.57   9 2.57   5 2.57   1 2.57   3 2.57  11 2.57   4 2.57  10 2.57
                            17 2.57
   3  0.667  0.000  0.226-   1 2.57   7 2.57   6 2.57   9 2.57   2 2.57  12 2.57   5 2.57  18 2.57
                            11 2.57
   4  0.000  0.333  0.226-   5 2.57   6 2.57   1 2.57   7 2.57   2 2.57  13 2.57   9 2.57  10 2.57
                            15 2.57
   5  0.333  0.333  0.226-   4 2.57   2 2.57   7 2.57  13 2.57   8 2.57   6 2.57   3 2.57  11 2.57
                            14 2.57
   6  0.667  0.333  0.226-   4 2.57   9 2.57  15 2.57   3 2.57   1 2.57   8 2.57  14 2.57   5 2.57
                            12 2.57
   7  0.000  0.667  0.226-   1 2.57   3 2.57  16 2.57  18 2.57   4 2.57   5 2.57   8 2.57   9 2.57
                            13 2.57
   8  0.333  0.667  0.226-   9 2.57   2 2.57  17 2.57   6 2.57   1 2.57   7 2.57   5 2.57  14 2.57
                            16 2.57
   9  0.667  0.667  0.226-   8 2.57   6 2.57   2 2.57  17 2.57   3 2.57   7 2.57   4 2.57  15 2.57
                            18 2.57
  10  0.111  0.111  0.314-  20 2.53  11 2.57  12 2.57  13 2.57   1 2.57   2 2.57   4 2.57  15 2.57
                            16 2.57  17 2.57  26 2.57  19 2.57
  11  0.444  0.111  0.314-  20 2.55  21 2.55  10 2.57  13 2.57   2 2.57  17 2.57  14 2.57  12 2.57
                             5 2.57   3 2.57  18 2.57  27 2.58
  12  0.778  0.111  0.314-  21 2.53  15 2.57  10 2.57  14 2.57  18 2.57   3 2.57   1 2.57  16 2.57
                            11 2.57   6 2.57  19 2.57  25 2.57
  13  0.111  0.444  0.314-  23 2.55  20 2.55  16 2.57  18 2.57  10 2.57  11 2.57  14 2.57   5 2.57
                             4 2.57   7 2.57  15 2.57  22 2.58
  14  0.444  0.444  0.314-  21 2.55  23 2.55  15 2.57  17 2.57  12 2.57  16 2.57  13 2.57  11 2.57
                             6 2.57   8 2.57   5 2.57  24 2.58
  15  0.778  0.444  0.314-  19 2.57  14 2.57  17 2.57  12 2.57   6 2.57  18 2.57  10 2.57   9 2.57
                            13 2.57   4 2.57  24 2.57  22 2.57
  16  0.111  0.778  0.314-  23 2.53  18 2.57  13 2.57   7 2.57  14 2.57  17 2.57  12 2.57  10 2.57
                             8 2.57   1 2.57  25 2.57  26 2.57
  17  0.444  0.778  0.314-  26 2.57  14 2.57  15 2.57   8 2.57   9 2.57  11 2.57  16 2.57  18 2.57
                            10 2.57   2 2.57  27 2.57  24 2.57
  18  0.778  0.778  0.314-  25 2.57  16 2.57  13 2.57   7 2.57  15 2.57  12 2.57  17 2.57   9 2.57
                             3 2.57  11 2.57  22 2.57  27 2.57
  19  0.889  0.223  0.402-  21 2.55  20 2.55  22 2.56  24 2.56  28 2.56  15 2.57  12 2.57  10 2.57
                            25 2.57  26 2.57  32 2.59  31 2.59
  20  0.221  0.221  0.401-  36 2.53  10 2.53  11 2.55  13 2.55  26 2.55  19 2.55  27 2.57  22 2.57
                            23 2.59  21 2.59  29 2.61  31 2.61
  21  0.558  0.221  0.401-  36 2.53  12 2.53  14 2.55  11 2.55  19 2.55  25 2.55  24 2.57  27 2.57
                            20 2.59  23 2.59  32 2.61  30 2.61
  22  0.888  0.556  0.402-  24 2.55  27 2.55  35 2.55  19 2.56  25 2.56  18 2.57  15 2.57  23 2.57
                            20 2.57  13 2.58  31 2.59  33 2.59
  23  0.221  0.558  0.401-  36 2.53  16 2.53  13 2.55  14 2.55  25 2.55  26 2.55  22 2.57  24 2.57
                            20 2.59  21 2.59  33 2.61  34 2.61
  24  0.556  0.556  0.402-  22 2.55  27 2.55  35 2.55  19 2.56  26 2.56  15 2.57  17 2.57  21 2.57
                            23 2.57  14 2.58  32 2.59  34 2.59
  25  0.889  0.889  0.402-  21 2.55  23 2.55  22 2.56  27 2.56  28 2.56  18 2.57  16 2.57  12 2.57
                            19 2.57  26 2.57  33 2.59  30 2.59
  26  0.223  0.889  0.402-  20 2.55  23 2.55  27 2.56  24 2.56  28 2.56  17 2.57  10 2.57  16 2.57
                            25 2.57  19 2.57  29 2.59  34 2.59
  27  0.556  0.888  0.402-  24 2.55  22 2.55  35 2.55  26 2.56  25 2.56  17 2.57  18 2.57  20 2.57
                            21 2.57  11 2.58  29 2.59  30 2.59
  28  0.000  0.000  0.490-  33 2.56  30 2.56  31 2.56  29 2.56  32 2.56  34 2.56  25 2.56  19 2.56
                            26 2.56
  29  0.333  0.000  0.491-  31 2.56  28 2.56  36 2.57  34 2.57  35 2.57  30 2.57  26 2.59  27 2.59
                            20 2.61
  30  0.667  0.000  0.491-  32 2.56  28 2.56  36 2.57  33 2.57  35 2.57  29 2.57  25 2.59  27 2.59
                            21 2.61
  31  0.000  0.333  0.491-  29 2.56  28 2.56  36 2.57  32 2.57  35 2.57  33 2.57  19 2.59  22 2.59
                            20 2.61
  32  0.667  0.333  0.491-  30 2.56  28 2.56  36 2.57  31 2.57  35 2.57  34 2.57  19 2.59  24 2.59
                            21 2.61
  33  0.000  0.667  0.491-  34 2.56  28 2.56  36 2.57  30 2.57  35 2.57  31 2.57  25 2.59  22 2.59
                            23 2.61
  34  0.333  0.667  0.491-  33 2.56  28 2.56  36 2.57  29 2.57  35 2.57  32 2.57  26 2.59  24 2.59
                            23 2.61
  35  0.667  0.667  0.490-  24 2.55  27 2.55  22 2.55  34 2.57  32 2.57  29 2.57  30 2.57  33 2.57
                            31 2.57
  36  0.333  0.333  0.486-  37 2.03  38 2.03  23 2.53  20 2.53  21 2.53  31 2.57  29 2.57  33 2.57
                            34 2.57  32 2.57  30 2.57
  37  0.242  0.327  0.566-  38 1.45  36 2.03
  38  0.430  0.327  0.566-  37 1.45  36 2.03

  LATTYP: Found a hexagonal cell.
 ALAT       =     7.6967864036
 C/A-ratio  =     3.0908716217

  Lattice vectors:

 A1 = (  -3.8483927580,  -6.6656128093,   0.0000000000)
 A2 = (   7.6967864037,   0.0000000000,   0.0000000000)
 A3 = (   0.0000000000,   0.0000000000,  23.7897786731)

Analysis of symmetry for initial positions (statically):
 Subroutine PRICEL returns:
 Original cell was already a primitive cell.

 Routine SETGRP: Setting up the symmetry group for a
 hexagonal supercell.

 Subroutine GETGRP returns: Found  2 space group operations
 (whereof  2 operations were pure point group operations)
 out of a pool of 24 trial point group operations.

The static configuration has the point symmetry C_1h.

Analysis of symmetry for dynamics (positions and initial velocities):
 Subroutine PRICEL returns:
 Original cell was already a primitive cell.

[...]

The dynamic configuration has the point symmetry C_1h.

Analysis of constrained symmetry for selective dynamics:
 Subroutine PRICEL returns:
 Original cell was already a primitive cell.

 Routine SETGRP: Setting up the symmetry group for a
 hexagonal supercell.

[...]
     33      -4.6197      2.00000
     34      -4.6061      2.00000
     35      -4.5856      2.00000
     36      -4.5847      2.00000
     37      -4.5666      2.00000
     38      -4.5553      2.00000
     39      -4.5264      2.00000
     40      -4.4933      2.00000
     41      -4.4257      2.00000
     42      -4.3149      2.00000
     43      -4.2798      2.00000
     44      -4.2691      2.00000
     45      -4.2044      2.00000
     46      -4.1959      2.00000
     47      -4.1836      2.00000
     48      -4.1590      2.00000
     49      -4.1513      2.00000
     50      -4.1373      2.00000
     51      -4.0282      2.00000
     52      -3.9695      2.00000
     53      -3.9531      2.00000
     54      -3.9394      2.00000
     55      -3.9093      2.00000
     56      -3.8797      2.00000
     57      -3.8773      2.00000
     58      -3.8525      2.00000
     59      -3.8499      2.00000
     60      -3.8433      2.00000
[...]
    238       5.3412      0.00000
    239       5.4789      0.00000
    240       5.6802      0.00000
    241       5.7595      0.00000
    242       5.9023      0.00000
    243       6.0231      0.00000
    244       6.0676      0.00000
    245       6.1156      0.00000
    246       6.1674      0.00000
    247       6.3542      0.00000
    248       6.4240      0.00000
    249       6.5875      0.00000
    250       6.7477      0.00000
    251       6.8306      0.00000
    252       6.9051      0.00000

 soft charge-density along one line, spin component           1
         0         1         2         3         4         5         6         7         8         9
 total charge-density along one line

------------------------ aborting loop because EDIFF is reached ----------------------------------------

 total charge

# of ion       s       p       d       tot
    1        0.451   0.283   9.189   9.922
    2        0.448   0.285   9.187   9.920
    3        0.448   0.285   9.187   9.920
    4        0.449   0.285   9.186   9.920
    5        0.449   0.286   9.182   9.916
    6        0.449   0.285   9.186   9.920
    7        0.448   0.285   9.186   9.920
    8        0.448   0.285   9.186   9.920
    9        0.448   0.284   9.188   9.920
   10        0.444   0.371   9.177   9.991
   11        0.441   0.366   9.185   9.993
   12        0.444   0.371   9.177   9.991
   13        0.442   0.367   9.183   9.992
   14        0.442   0.367   9.183   9.992
   15        0.437   0.367   9.179   9.984
   16        0.444   0.372   9.175   9.991
   17        0.437   0.368   9.179   9.985
   18        0.437   0.368   9.179   9.985
   19        0.439   0.363   9.184   9.987
   20        0.468   0.406   9.158  10.033
   21        0.468   0.406   9.158  10.033
   22        0.428   0.370   9.182   9.981
   23        0.469   0.415   9.148  10.031
   24        0.428   0.370   9.182   9.981
   25        0.439   0.365   9.184   9.988
   26        0.439   0.365   9.184   9.988
   27        0.430   0.366   9.187   9.982
   28        0.454   0.286   9.186   9.926
   29        0.455   0.309   9.181   9.945
   30        0.455   0.309   9.181   9.945
   31        0.452   0.314   9.181   9.947
   32        0.452   0.314   9.181   9.947
   33        0.455   0.310   9.178   9.943
   34        0.455   0.310   9.178   9.943
   35        0.445   0.290   9.186   9.921
   36        0.605   0.585   4.799   5.988
   37        1.611   3.244   0.000   4.855
   38        1.611   3.244   0.000   4.855
tot         19.465  18.821 326.113 364.399

  FORCE on cell =-STRESS in cart. coord.  units (eV):
  Direction    XX          YY          ZZ          XY          YZ          ZX
  Alpha Z   830.35190   830.35190   830.35190
  Ewald  223332.73809222969.55108************     0.00040     3.59946     0.00018
  Hartree236065.45818235889.89481************     0.00004     5.48445     0.00006
  E(xc)   -2338.07313 -2338.80010 -2342.49873    -0.00033     0.00798    -0.00004
  Local  ************************472203.40755     0.02041    -9.21944    -0.00076
  n-local  -813.56675  -821.81314  -831.39711     1.99025     0.20771     0.08166
  augment  3325.92250  3330.28241  3348.12807    -0.01852     0.00816     0.00039
  Kinetic  3463.81794  3512.80858  3506.58167     0.94100     0.05217    -0.22144
  Fock        0.00000     0.00000     0.00000     0.00000     0.00000     0.00000
  Total      -2.71149    -4.11589    -0.32012     0.00000     0.14048    -0.00000
  in kB      -3.55942    -5.40300    -0.42023     0.00000     0.18441    -0.00000

 VOLUME and BASIS-vectors are now :
  energy-cutoff  :      500.00
  volume of cell :     1220.51
      direct lattice vectors                 reciprocal lattice vectors
     7.696786404  0.000000000  0.000000000     0.129924354 -0.075011849  0.000000000
     3.848392758  6.665612809  0.000000000     0.000000000  0.150023716  0.000000000
     0.000000000  0.000000000 23.789778673     0.000000000  0.000000000  0.042034859

  length of vectors
     7.696786404  7.696786404 23.789778673     0.150023716  0.150023716  0.042034859

 FORCES acting on ions
    electron-ion (+dipol)            ewald-force                    non-local-force                 convergence-correction
   -.415E-04 -.449E-01 0.376E+04   0.580E-04 -.391E-01 -.375E+04   -.403E-08 0.605E-01 -.278E+01   -.400E-03 0.229E-01 -.279E+00
   -.295E+00 0.451E-02 0.376E+04   0.149E+00 -.201E+00 -.375E+04   0.522E-01 0.143E+00 -.189E+01   0.931E-01 0.680E-01 -.308E+00
   0.295E+00 0.454E-02 0.376E+04   -.149E+00 -.201E+00 -.375E+04   -.522E-01 0.143E+00 -.189E+01   -.922E-01 0.704E-01 -.307E+00
   -.157E+00 -.310E+00 0.376E+04   -.667E-01 0.222E+00 -.375E+04   0.143E+00 -.163E-01 -.188E+01   0.876E-01 0.986E-01 -.212E+00
   -.637E-04 -.709E-01 0.376E+04   0.116E-03 0.123E-01 -.375E+04   -.274E-08 0.412E-01 -.164E+01   0.121E-01 0.288E-01 -.155E+00
   0.157E+00 -.310E+00 0.376E+04   0.666E-01 0.222E+00 -.375E+04   -.143E+00 -.163E-01 -.188E+01   -.891E-01 0.997E-01 -.211E+00
   0.214E+00 0.305E+00 0.376E+04   -.214E+00 -.205E-01 -.375E+04   0.599E-01 -.141E+00 -.179E+01   -.379E-01 -.150E+00 -.217E+00
   -.214E+00 0.305E+00 0.376E+04   0.214E+00 -.205E-01 -.375E+04   -.599E-01 -.141E+00 -.179E+01   0.413E-01 -.151E+00 -.217E+00
   -.144E-03 0.442E-01 0.376E+04   0.263E-03 0.270E-01 -.375E+04   0.597E-09 -.897E-02 -.229E+01   -.131E-01 -.639E-01 -.242E+00
   0.255E+01 0.157E+01 0.131E+04   -.204E+01 -.143E+01 -.131E+04   -.618E+00 -.244E+00 -.104E+01   0.686E-01 0.861E-01 -.186E-01
   -.861E-04 0.992E+00 0.131E+04   0.190E-03 -.153E+01 -.131E+04   -.216E-07 0.324E+00 -.180E+00   0.123E-01 0.130E+00 -.542E-01
   -.255E+01 0.157E+01 0.131E+04   0.204E+01 -.143E+01 -.131E+04   0.618E+00 -.244E+00 -.104E+01   -.705E-01 0.868E-01 -.184E-01
   0.723E+00 -.677E+00 0.131E+04   -.109E+01 0.884E+00 -.131E+04   0.253E+00 -.187E+00 -.264E+00   0.607E-01 0.101E-01 -.451E-01
   -.723E+00 -.677E+00 0.131E+04   0.109E+01 0.884E+00 -.131E+04   -.253E+00 -.187E+00 -.264E+00   -.374E-01 0.797E-02 -.479E-01
   -.141E-03 -.127E+01 0.131E+04   0.298E-03 0.112E+01 -.131E+04   -.243E-08 0.364E-01 -.919E+00   -.323E-02 0.857E-01 -.445E-01
   -.897E-04 -.296E+01 0.131E+04   0.186E-03 0.235E+01 -.131E+04   -.524E-07 0.787E+00 -.122E+01   -.131E-02 -.138E+00 -.154E-01
   -.884E+00 0.707E+00 0.131E+04   0.765E+00 -.425E+00 -.131E+04   0.903E-01 -.148E+00 -.839E+00   0.235E-01 -.123E+00 -.817E-01
   0.884E+00 0.707E+00 0.131E+04   -.765E+00 -.425E+00 -.131E+04   -.903E-01 -.148E+00 -.839E+00   -.215E-01 -.120E+00 -.786E-01
   -.620E-04 -.124E+01 -.115E+04   0.685E-04 0.107E+01 0.115E+04   -.273E-08 0.410E-01 0.118E+01   -.109E-01 0.613E-01 0.303E-01
   -.268E+02 -.146E+02 -.115E+04   0.281E+02 0.151E+02 0.115E+04   -.134E+01 -.649E+00 -.982E+00   -.159E-01 0.103E+00 -.374E-01
   0.268E+02 -.146E+02 -.115E+04   -.281E+02 0.151E+02 0.115E+04   0.134E+01 -.649E+00 -.982E+00   -.320E-02 0.991E-01 -.381E-01
   -.163E+02 0.763E+01 -.116E+04   0.158E+02 -.717E+01 0.116E+04   0.528E+00 -.444E+00 0.100E+01   0.488E-01 -.501E-01 -.872E-01
   -.891E-04 0.284E+02 -.115E+04   0.145E-03 -.302E+02 0.115E+04   -.123E-06 0.184E+01 -.138E+01   -.139E-01 -.765E-01 0.584E-01
   0.163E+02 0.763E+01 -.116E+04   -.158E+02 -.717E+01 0.116E+04   -.528E+00 -.444E+00 0.100E+01   -.248E-01 -.524E-01 -.871E-01
   0.165E+01 0.220E+01 -.116E+04   -.149E+01 -.214E+01 0.115E+04   -.132E+00 0.345E-01 0.104E+01   -.250E-01 -.688E-01 0.775E-01
   -.165E+01 0.220E+01 -.116E+04   0.149E+01 -.214E+01 0.115E+04   0.132E+00 0.345E-01 0.104E+01   0.172E-02 -.676E-01 0.780E-01
   -.114E-03 -.185E+02 -.116E+04   0.241E-03 0.174E+02 0.116E+04   -.761E-07 0.114E+01 0.111E+01   0.132E-01 0.143E-01 -.757E-01
   -.431E-04 0.898E+01 -.358E+04   0.331E-04 -.898E+01 0.358E+04   -.593E-09 0.891E-02 0.180E+01   -.459E-03 -.370E-01 0.144E+00
   0.203E+00 0.215E+02 -.356E+04   -.966E-01 -.225E+02 0.355E+04   -.251E+00 0.759E+00 0.256E+01   -.378E-01 -.902E-01 0.222E+00
   -.203E+00 0.215E+02 -.356E+04   0.966E-01 -.225E+02 0.355E+04   0.251E+00 0.759E+00 0.256E+01   0.389E-01 -.895E-01 0.220E+00
   0.251E+02 -.407E+01 -.354E+04   -.266E+02 0.437E+01 0.353E+04   0.846E+00 -.354E+00 0.352E+01   0.334E-01 0.726E-01 0.172E+00
   -.251E+02 -.407E+01 -.354E+04   0.266E+02 0.437E+01 0.353E+04   -.846E+00 -.354E+00 0.352E+01   -.330E-01 0.728E-01 0.172E+00
   -.292E+00 -.147E+02 -.356E+04   -.135E+00 0.156E+02 0.356E+04   0.221E+00 -.471E+00 0.237E+01   0.467E-01 -.721E-01 0.190E+00
   0.292E+00 -.147E+02 -.356E+04   0.135E+00 0.156E+02 0.356E+04   -.221E+00 -.471E+00 0.237E+01   -.445E-01 -.725E-01 0.192E+00
   -.159E-03 -.678E+01 -.359E+04   0.257E-03 0.660E+01 0.359E+04   -.137E-07 0.206E+00 0.233E+01   -.121E-01 -.202E-01 0.351E+00
   -.359E-04 -.559E+01 -.201E+04   0.890E-04 0.536E+01 0.201E+04   -.208E-07 0.312E+00 0.304E+01   0.540E-03 0.109E+00 0.595E-01
   0.187E+03 -.129E+01 -.233E+04   -.219E+03 0.112E+01 0.235E+04   0.326E+02 0.127E+00 -.196E+02   -.159E-01 0.461E-01 0.317E-01
   -.187E+03 -.129E+01 -.233E+04   0.219E+03 0.112E+01 0.235E+04   -.326E+02 0.127E+00 -.196E+02   0.161E-01 0.461E-01 0.314E-01
   0.121E-03 -.156E+01 0.374E+02   0.000E+00 -.302E-12 -.728E-11   -.108E-06 0.162E+01 -.366E+02   -.579E-02 -.247E-01 -.849E+00

 POSITION                                       TOTAL-FORCE (eV/Angst)
      0.00000      0.00000      5.37156         0.000000     -0.001492     -0.028703
      2.56560      0.00000      5.37156        -0.001514      0.014116      0.074966
      5.13119      0.00000      5.37156         0.001514      0.014116      0.074966
      1.28280      2.22187      5.37156         0.007028     -0.006765      0.062667
      3.84839      2.22187      5.37156        -0.000000      0.010418      0.044175
      6.41399      2.22187      5.37156        -0.007028     -0.006765      0.062667
      2.56560      4.44374      5.37156         0.020234     -0.008190      0.065239
      5.13119      4.44374      5.37156        -0.020234     -0.008190      0.065239
      7.69679      4.44374      5.37156         0.000000     -0.002580      0.014961
      1.28280      0.74062      7.46636        -0.031363     -0.011459     -0.080238
      3.84839      0.74062      7.46636         0.000000     -0.084139     -0.114661
      6.41399      0.74062      7.46636         0.031363     -0.011459     -0.080238
      2.56560      2.96249      7.46636        -0.064338      0.028264     -0.085991
      5.13119      2.96249      7.46636         0.064338      0.028264     -0.085991
      7.69679      2.96249      7.46636         0.000000     -0.029771      0.027394
      3.84839      5.18437      7.46636        -0.000000      0.038376     -0.054111
      6.41399      5.18437      7.46636        -0.006347      0.011340      0.025632
      8.97958      5.18437      7.46636         0.006347      0.011340      0.025632
      7.69679      1.48486      9.56345         0.000000     -0.062319      0.034450
      2.55359      1.47432      9.53212        -0.039000     -0.084565     -0.198540
      5.14319      1.47432      9.53212         0.039000     -0.084565     -0.198540
      8.97343      3.70667      9.56919         0.082877     -0.038057      0.042192
      3.84839      3.71698      9.53212        -0.000000      0.029825     -0.107142
      6.42014      3.70667      9.56919        -0.082877     -0.038057      0.042192
     10.25925      5.92318      9.56345         0.012056      0.023020      0.032061
      5.13432      5.92318      9.56345        -0.012056      0.023020      0.032061
      7.69679      5.91789      9.56919        -0.000000      0.097231      0.019396
      0.00000      0.00000     11.65394         0.000000     -0.027267     -0.044343
      2.56263      0.00314     11.68588        -0.182161     -0.382141     -0.281616
      5.13415      0.00314     11.68588         0.182161     -0.382141     -0.281616
      1.28404      2.21774     11.68588        -0.612407      0.018010     -0.426681
      6.41275      2.21774     11.68588         0.612407      0.018010     -0.426681
      2.56979      4.44474     11.68588        -0.160166      0.358857     -0.274577
      5.12699      4.44474     11.68588         0.160166      0.358857     -0.274577
      7.69679      4.44374     11.65455        -0.000000      0.004910      0.022732
      3.84839      2.22187     11.57229        -0.000000      0.194401      2.290140
      3.12418      2.18132     13.46784        -0.006785     -0.006229     -0.007257
      4.57260      2.18132     13.46784         0.006785     -0.006229     -0.007257
    total drift:                               -0.005666      0.035767     -0.033181

  FREE ENERGIE OF THE ION-ELECTRON SYSTEM (eV)
  free  energy   TOTEN  =      -143.65539093 eV

  energy  without entropy=     -143.65539093  energy(sigma->0) =     -143.65539093

 stress matrix after NEB project (eV)
     -2.71149      0.00000     -0.00000
      0.00000     -4.11589      0.14048
     -0.00000      0.14048     -0.32012
  FORCES: max atom, RMS     0.011726    0.002690
  FORCE total and by dimension    0.016583    0.007257
  Stress total and by dimension    4.943147    4.115893
|           W    W    AA    RRRRR   N    N  II  N    N   GGGG   !!!           |
|           W    W   A  A   R    R  NN   N  II  NN   N  G    G  !!!           |
|           W    W  A    A  R    R  N N  N  II  N N  N  G       !!!           |
|           W WW W  AAAAAA  RRRRR   N  N N  II  N  N N  G  GGG   !            |
|           WW  WW  A    A  R   R   N   NN  II  N   NN  G    G                |
|           W    W  A    A  R    R  N    N  II  N    N   GGGG   !!!           |
|     Tetrahedron method does not include variations of the Fermi             |
|     occupations, so forces and stress will be inaccurate. We suggest        |
|     using a different smearing scheme ISMEAR = 1 or 2 for metals in         |
|     relaxations.                                                            |

 total charge

# of ion       s       p       d       tot
    1        0.451   0.283   9.189   9.922
    2        0.448   0.285   9.187   9.920
    3        0.448   0.285   9.187   9.920
    4        0.449   0.285   9.186   9.920
    5        0.449   0.286   9.182   9.916
    6        0.449   0.285   9.186   9.920
    7        0.448   0.285   9.186   9.920
    8        0.448   0.285   9.186   9.920
    9        0.448   0.284   9.188   9.920
   10        0.444   0.371   9.177   9.991
   11        0.441   0.366   9.185   9.993
   12        0.444   0.371   9.177   9.991
   13        0.442   0.367   9.183   9.992
   14        0.442   0.367   9.183   9.992
   15        0.437   0.367   9.179   9.984
   16        0.444   0.372   9.175   9.991
   17        0.437   0.368   9.179   9.985
   18        0.437   0.368   9.179   9.985
   19        0.439   0.363   9.184   9.987
   20        0.468   0.406   9.158  10.033
   21        0.468   0.406   9.158  10.033
   22        0.428   0.370   9.182   9.981
   23        0.469   0.415   9.148  10.031
   24        0.428   0.370   9.182   9.981
   25        0.439   0.365   9.184   9.988
   26        0.439   0.365   9.184   9.988
   27        0.430   0.366   9.187   9.982
   28        0.454   0.286   9.186   9.926
   29        0.455   0.309   9.181   9.945
   30        0.455   0.309   9.181   9.945
   31        0.452   0.314   9.181   9.947
   32        0.452   0.314   9.181   9.947
   33        0.455   0.310   9.178   9.943
   34        0.455   0.310   9.178   9.943
   35        0.445   0.290   9.186   9.921
   36        0.605   0.585   4.799   5.988
   37        1.611   3.244   0.000   4.855
   38        1.611   3.244   0.000   4.855
tot         19.465  18.821 326.113 364.399

 BZINTS: Fermi energy:   -0.465937;  404.000000 electrons
         Band energy:-0.142268E+04;  BLOECHL correction:   -0.029798