 vasp.6.2.0 18Jan21 (build Jun 12 2021 23:27:24) complex

 executed on             LinuxIFC date 2022.05.27  05:57:38

 INCAR:
   ISMEAR = -5
   SIGMA = 0.1
   ISPIN = 1
   EDIFF = 1.d-5
   EDIFFG = -0.01
   NSW = 0
   NELM = 150
   ENCUT = 500
   ISIF = 2
   IBRION = 2
   LREAL = Auto
   ALGO = Fast
   ICHARG = 11
   LORBIT = 10
   LCHARG = .F.
   LWAVE = .F.

 POTCAR:    PAW_PBE Cu 22Jun2005
 POTCAR:    PAW_PBE Ti 08Apr2002
 POTCAR:    PAW_PBE O 08Apr2002
 POTCAR:    PAW_PBE H 15Jun2001
|           W    W    AA    RRRRR   N    N  II  N    N   GGGG   !!!           |
|           W    W   A  A   R    R  NN   N  II  NN   N  G    G  !!!           |
|           W    W  A    A  R    R  N N  N  II  N N  N  G       !!!           |
|           W WW W  AAAAAA  RRRRR   N  N N  II  N  N N  G  GGG   !            |
|           WW  WW  A    A  R   R   N   NN  II  N   NN  G    G                |
|           W    W  A    A  R    R  N    N  II  N    N   GGGG   !!!           |
|     For optimal performance we recommend to set                             |
|       NCORE = 2 up to number-of-cores-per-socket                            |
|     This setting can greatly improve the performance of VASP for DFT.       |
|     The default, NCORE=1 might be grossly inefficient on modern             |
|     multi-core architectures or massively parallel machines. Do your        |
|     Unfortunately you need to use the default for GW and RPA                |
|     calculations (for HF NCORE is supported but not extensively tested      |
|     yet).                                                                   |

 POTCAR:    PAW_PBE Cu 22Jun2005
   VRHFIN =Cu: d10 p1

   TITEL  = PAW_PBE Cu 22Jun2005
   POMASS =   63.546; ZVAL   =   11.000    mass and valenz
   ENMAX  =  295.446; ENMIN  =  221.585 eV

 POTCAR:    PAW_PBE Ti 08Apr2002
   VRHFIN =Ti: d3 s1

   TITEL  = PAW_PBE Ti 08Apr2002
   POMASS =   47.880; ZVAL   =    4.000    mass and valenz
   ENMAX  =  178.330; ENMIN  =  133.747 eV

 POTCAR:    PAW_PBE O 08Apr2002
   VRHFIN =O: s2p4

   TITEL  = PAW_PBE O 08Apr2002
   POMASS =   16.000; ZVAL   =    6.000    mass and valenz
   ENMAX  =  400.000; ENMIN  =  300.000 eV

 POTCAR:    PAW_PBE H 15Jun2001
   VRHFIN =H: ultrasoft test

   TITEL  = PAW_PBE H 15Jun2001
   POMASS =    1.000; ZVAL   =    1.000    mass and valenz
   ENMAX  =  250.000; ENMIN  =  200.000 eV

 Optimization of the real space projectors (new method)

 maximal supplied QI-value         = 16.25
 optimisation between [QCUT,QGAM] = [ 11.38, 22.75] = [ 36.24,144.96] Ry
 Optimized for a Real-space Cutoff    1.52 Angstroem

   l    n(q)    QCUT    max X(q) W(low)/X(q) W(high)/X(q)  e(spline)
   2      9    11.376     4.610    0.21E-03    0.10E-03    0.26E-06
   2      9    11.376     8.522    0.33E-03    0.16E-03    0.37E-06
   0     10    11.376    51.609    0.62E-04    0.20E-04    0.13E-06
   0     10    11.376    27.747    0.54E-04    0.20E-04    0.13E-06
   1     10    11.376    20.408    0.13E-04    0.99E-04    0.19E-06
   1     10    11.376    13.425    0.12E-04    0.87E-04    0.17E-06
 Optimization of the real space projectors (new method)

[...]

   l    n(q)    QCUT    max X(q) W(low)/X(q) W(high)/X(q)  e(spline)
   0      7    11.387    20.381    0.39E-03    0.13E-02    0.15E-06
   0      7    11.387    15.268    0.42E-03    0.14E-02    0.17E-06
   1      6    11.387     5.964    0.41E-03    0.11E-02    0.17E-06
   1      6    11.387     5.382    0.39E-03    0.87E-03    0.15E-06
 Optimization of the real space projectors (new method)

 maximal supplied QI-value         = 34.20
 optimisation between [QCUT,QGAM] = [ 11.29, 22.57] = [ 35.68,142.71] Ry
 Optimized for a Real-space Cutoff    1.16 Angstroem

   l    n(q)    QCUT    max X(q) W(low)/X(q) W(high)/X(q)  e(spline)
   0      8    11.287    19.460    0.40E-03    0.73E-03    0.16E-06
   0      8    11.287    12.209    0.38E-03    0.70E-03    0.15E-06
   1      7    11.287     4.655    0.22E-03    0.25E-04    0.22E-06
  PAW_PBE Cu 22Jun2005                  :
  PAW_PBE Ti 08Apr2002                  :
  PAW_PBE O 08Apr2002                   :
  PAW_PBE H 15Jun2001                   :

 POSCAR: Cu-Ti-OH
  positions in direct lattice
  velocities in cartesian coordinates
 exchange correlation table for  LEXCH =        8
   RHO(1)=    0.500       N(1)  =     2000
   RHO(2)=  100.500       N(2)  =     4000

 VTST: version 3.2, (02/03/18)

 CHAIN: initializing optimizer

 OPT: Using VASP Conjugate-Gradient optimizer
 CHAIN: Read ICHAIN            0

 POSCAR: Cu-Ti-OH
  positions in direct lattice
  velocities in cartesian coordinates

 ion  position               nearest neighbor table
   1  0.000  0.000  0.252-   7 2.57   3 2.57   4 2.57   2 2.57   6 2.57   8 2.57  12 2.57  10 2.57
                            16 2.57
   2  0.333  0.000  0.252-   8 2.57   9 2.57   5 2.57   1 2.57   3 2.57  11 2.57   4 2.57  10 2.57
                            17 2.57
   3  0.667  0.000  0.252-   1 2.57   7 2.57   6 2.57   9 2.57   2 2.57  12 2.57   5 2.57  18 2.57
                            11 2.57
   4  0.000  0.333  0.252-   5 2.57   6 2.57   1 2.57   7 2.57   2 2.57  13 2.57   9 2.57  10 2.57
                            15 2.57
   5  0.333  0.333  0.252-   4 2.57   2 2.57   7 2.57  13 2.57   8 2.57   6 2.57   3 2.57  11 2.57
                            14 2.57
   6  0.667  0.333  0.252-   4 2.57   9 2.57  15 2.57   3 2.57   1 2.57   8 2.57  14 2.57   5 2.57
                            12 2.57
   7  0.000  0.667  0.252-   1 2.57   3 2.57  16 2.57  18 2.57   4 2.57   5 2.57   8 2.57   9 2.57
                            13 2.57
   8  0.333  0.667  0.252-   9 2.57   2 2.57  17 2.57   6 2.57   1 2.57   7 2.57   5 2.57  14 2.57
                            16 2.57
   9  0.667  0.667  0.252-   8 2.57   6 2.57   2 2.57  17 2.57   3 2.57   7 2.57   4 2.57  15 2.57
                            18 2.57
  10  0.111  0.111  0.351-  26 2.55  19 2.55  11 2.57  12 2.57  13 2.57   1 2.57   2 2.57   4 2.57
                            15 2.57  16 2.57  17 2.57  20 2.57
  11  0.444  0.111  0.351-  27 2.56  20 2.56  21 2.56  10 2.57  13 2.57   2 2.57  17 2.57  14 2.57
                            12 2.57   5 2.57   3 2.57  18 2.57
  12  0.778  0.111  0.351-  19 2.55  25 2.55  15 2.57  10 2.57  14 2.57  18 2.57   3 2.57   1 2.57
                            16 2.57  11 2.57   6 2.57  21 2.57
  13  0.111  0.444  0.351-  22 2.56  23 2.56  20 2.56  16 2.57  18 2.57  10 2.57  11 2.57  14 2.57
                             5 2.57   4 2.57   7 2.57  15 2.57
  14  0.444  0.444  0.351-  24 2.56  21 2.56  23 2.56  15 2.57  17 2.57  12 2.57  16 2.57  13 2.57
                            11 2.57   6 2.57   8 2.57   5 2.57
  15  0.778  0.444  0.351-  19 2.55  24 2.56  22 2.56  14 2.57  17 2.57  12 2.57   6 2.57  18 2.57
                            10 2.57   9 2.57  13 2.57   4 2.57
  16  0.111  0.778  0.351-  25 2.55  26 2.55  18 2.57  13 2.57   7 2.57  14 2.57  17 2.57  12 2.57
                            10 2.57   8 2.57   1 2.57  23 2.57
  17  0.444  0.778  0.351-  26 2.55  27 2.56  24 2.56  14 2.57  15 2.57   8 2.57   9 2.57  11 2.57
                            16 2.57  18 2.57  10 2.57   2 2.57
  18  0.778  0.778  0.351-  25 2.55  22 2.56  27 2.56  16 2.57  13 2.57   7 2.57  15 2.57  12 2.57
                            17 2.57   9 2.57   3 2.57  11 2.57
  19  0.889  0.222  0.448-  12 2.55  10 2.55  15 2.55  25 2.56  26 2.56  28 2.56  22 2.57  24 2.57
                            21 2.57  20 2.57  32 2.57  31 2.57
  20  0.223  0.223  0.449-  23 2.55  21 2.55  11 2.56  13 2.56  27 2.57  22 2.57  29 2.57  31 2.57
                            10 2.57  26 2.57  19 2.57  36 2.66
  21  0.555  0.223  0.449-  20 2.55  23 2.55  14 2.56  11 2.56  24 2.57  27 2.57  32 2.57  30 2.57
                            12 2.57  19 2.57  25 2.57  36 2.66
  22  0.889  0.556  0.449-  18 2.56  15 2.56  13 2.56  31 2.56  33 2.56  24 2.56  27 2.56  23 2.57
                            20 2.57  19 2.57  25 2.57  35 2.57
  23  0.223  0.555  0.449-  20 2.55  21 2.55  13 2.56  14 2.56  22 2.57  24 2.57  33 2.57  34 2.57
                            16 2.57  25 2.57  26 2.57  36 2.66
  24  0.556  0.556  0.449-  15 2.56  17 2.56  14 2.56  32 2.56  34 2.56  22 2.56  27 2.56  21 2.57
                            23 2.57  19 2.57  26 2.57  35 2.57
  25  0.889  0.889  0.448-  12 2.55  16 2.55  18 2.55  19 2.56  26 2.56  28 2.56  22 2.57  27 2.57
                            21 2.57  23 2.57  33 2.57  30 2.57
  26  0.222  0.889  0.448-  10 2.55  16 2.55  17 2.55  25 2.56  19 2.56  28 2.56  27 2.57  24 2.57
                            20 2.57  23 2.57  29 2.57  34 2.57
  27  0.556  0.889  0.449-  17 2.56  18 2.56  11 2.56  29 2.56  30 2.56  24 2.56  22 2.56  20 2.57
                            21 2.57  26 2.57  25 2.57  35 2.57
  28  0.000  0.000  0.547-  33 2.56  30 2.56  31 2.56  29 2.56  32 2.56  34 2.56  25 2.56  19 2.56
                            26 2.56
  29  0.334  0.998  0.547-  34 2.53  35 2.55  28 2.56  27 2.56  20 2.57  26 2.57  30 2.58  36 2.59
                            31 2.59
  30  0.669  0.998  0.547-  33 2.53  35 2.55  28 2.56  27 2.56  21 2.57  25 2.57  29 2.58  36 2.59
                            32 2.59
  31  0.998  0.334  0.547-  32 2.53  35 2.55  28 2.56  22 2.56  20 2.57  19 2.57  33 2.58  36 2.59
                            29 2.59
  32  0.669  0.334  0.547-  31 2.53  35 2.55  28 2.56  24 2.56  21 2.57  19 2.57  34 2.58  36 2.59
                            30 2.59
  33  0.998  0.669  0.547-  30 2.53  35 2.55  28 2.56  22 2.56  23 2.57  25 2.57  31 2.58  36 2.59
                            34 2.59
  34  0.334  0.669  0.547-  29 2.53  35 2.55  28 2.56  24 2.56  23 2.57  26 2.57  32 2.58  36 2.59
                            33 2.59
  35  0.667  0.667  0.548-  34 2.55  32 2.55  29 2.55  30 2.55  33 2.55  31 2.55  24 2.57  27 2.57
                            22 2.57
  36  0.333  0.333  0.553-  37 1.81  31 2.59  29 2.59  33 2.59  32 2.59  34 2.59  30 2.59  23 2.66
                            20 2.66  21 2.66
  37  0.333  0.333  0.638-  38 0.97  36 1.81
  38  0.333  0.333  0.684-  37 0.97

  LATTYP: Found a hexagonal cell.
 ALAT       =     7.6967864036
 C/A-ratio  =     2.7653617908

  Lattice vectors:

 A1 = (  -3.8483927580,  -6.6656128093,   0.0000000000)
 A2 = (   7.6967864037,   0.0000000000,   0.0000000000)
 A3 = (   0.0000000000,   0.0000000000,  21.2843990326)

Analysis of symmetry for initial positions (statically):
 Subroutine PRICEL returns:
 Original cell was already a primitive cell.

 Routine SETGRP: Setting up the symmetry group for a
 hexagonal supercell.

 Subroutine GETGRP returns: Found  6 space group operations
 (whereof  6 operations were pure point group operations)
 out of a pool of 24 trial point group operations.

The static configuration has the point symmetry C_3v.

Analysis of symmetry for dynamics (positions and initial velocities):
 Subroutine PRICEL returns:
 Original cell was already a primitive cell.

[...]

The dynamic configuration has the point symmetry C_3v.

Analysis of constrained symmetry for selective dynamics:
 Subroutine PRICEL returns:
 Original cell was already a primitive cell.

[...]
     33      -3.7954      2.00000
     34      -3.7859      2.00000
     35      -3.7837      2.00000
     36      -3.7569      2.00000
     37      -3.7205      2.00000
     38      -3.6815      2.00000
     39      -3.6154      2.00000
     40      -3.6077      2.00000
     41      -3.4876      2.00000
     42      -3.4789      2.00000
     43      -3.4092      2.00000
     44      -3.3966      2.00000
     45      -3.3910      2.00000
     46      -3.3678      2.00000
     47      -3.3590      2.00000
     48      -3.3433      2.00000
     49      -3.3393      2.00000
     50      -3.1825      2.00000
     51      -3.1683      2.00000
     52      -3.1545      2.00000
     53      -3.1346      2.00000
     54      -3.0936      2.00000
     55      -3.0831      2.00000
     56      -3.0667      2.00000
     57      -3.0614      2.00000
     58      -3.0479      2.00000
     59      -3.0420      2.00000
     60      -3.0108      2.00000
[...]
    238       6.3376      0.00000
    239       6.6118      0.00000
    240       6.6271      0.00000
    241       6.6872      0.00000
    242       6.7973      0.00000
    243       6.9620      0.00000
    244       6.9969      0.00000
    245       7.1758      0.00000
    246       7.3429      0.00000
    247       7.4654      0.00000
    248       7.5406      0.00000
    249       7.6480      0.00000
    250       7.6887      0.00000
    251       7.9056      0.00000
    252       8.1116      0.00000

 soft charge-density along one line, spin component           1
         0         1         2         3         4         5         6         7         8         9
 total charge-density along one line

------------------------ aborting loop because EDIFF is reached ----------------------------------------

 total charge

# of ion       s       p       d       tot
    1        0.450   0.284   9.187   9.920
    2        0.448   0.285   9.185   9.919
    3        0.448   0.285   9.185   9.919
    4        0.448   0.285   9.185   9.919
    5        0.448   0.286   9.184   9.918
    6        0.448   0.285   9.185   9.919
    7        0.448   0.285   9.185   9.919
    8        0.448   0.285   9.185   9.919
    9        0.448   0.284   9.188   9.920
   10        0.442   0.371   9.178   9.991
   11        0.441   0.366   9.182   9.989
   12        0.442   0.371   9.178   9.991
   13        0.441   0.366   9.182   9.989
   14        0.441   0.366   9.182   9.989
   15        0.439   0.372   9.177   9.987
   16        0.442   0.371   9.178   9.991
   17        0.439   0.372   9.177   9.987
   18        0.439   0.372   9.177   9.987
   19        0.444   0.369   9.181   9.995
   20        0.457   0.385   9.163  10.005
   21        0.457   0.385   9.163  10.005
   22        0.435   0.375   9.178   9.988
   23        0.457   0.385   9.163  10.005
   24        0.435   0.375   9.178   9.988
   25        0.444   0.369   9.181   9.995
   26        0.444   0.369   9.181   9.995
   27        0.435   0.375   9.178   9.988
   28        0.448   0.294   9.180   9.923
   29        0.473   0.304   9.171   9.948
   30        0.473   0.304   9.171   9.948
   31        0.473   0.304   9.171   9.948
   32        0.473   0.304   9.171   9.948
   33        0.473   0.304   9.171   9.948
   34        0.473   0.304   9.171   9.948
   35        0.449   0.299   9.177   9.924
   36        0.559   0.754   2.547   3.859
   37        1.563   3.530   0.000   5.093
   38        0.610   0.124   0.000   0.734
tot         18.478  16.103 323.779 358.360

  FORCE on cell =-STRESS in cart. coord.  units (eV):
  Direction    XX          YY          ZZ          XY          YZ          ZX
  Alpha Z   885.09634   885.09634   885.09634
  Ewald  169272.65810169272.65777************     0.00036     0.00014     0.00017
  Hartree182381.35393182381.35395************     0.00002     0.00007     0.00006
  E(xc)   -2295.43719 -2295.43677 -2299.67351    -0.00037    -0.00004    -0.00007
  Local  ************************364431.75415     0.01881    -0.00063    -0.00096
  n-local  -787.54250  -774.58971  -792.84517     6.70685    -0.16848     0.25279
  augment  3320.40634  3320.42660  3339.83135    -0.01755     0.00022     0.00040
  Kinetic  3302.70564  3303.49482  3298.95928     1.41943     1.97042    -1.32336
  Fock        0.00000     0.00000     0.00000     0.00000     0.00000     0.00000
  Total      -5.54866    -5.54866    -0.23521     0.00000     0.00000    -0.00000
  in kB      -8.14119    -8.14119    -0.34510     0.00000     0.00000    -0.00000

 VOLUME and BASIS-vectors are now :
  energy-cutoff  :      500.00
  volume of cell :     1091.97
      direct lattice vectors                 reciprocal lattice vectors
     7.696786404  0.000000000  0.000000000     0.129924354 -0.075011849  0.000000000
     3.848392758  6.665612809  0.000000000     0.000000000  0.150023716  0.000000000
     0.000000000  0.000000000 21.284399033     0.000000000  0.000000000  0.046982769

  length of vectors
     7.696786404  7.696786404 21.284399033     0.150023716  0.150023716  0.046982769

 FORCES acting on ions
    electron-ion (+dipol)            ewald-force                    non-local-force                 convergence-correction
   -.416E-04 0.154E-06 0.346E+04   0.581E-04 -.428E-05 -.346E+04   -.141E-16 -.450E-17 -.220E+01   -.261E-03 -.127E-03 -.264E+00
   -.953E+00 -.105E+01 0.346E+04   0.918E+00 0.105E+01 -.345E+04   0.266E-01 0.550E-01 -.189E+01   0.768E-02 -.451E-01 -.233E+00
   0.953E+00 -.105E+01 0.346E+04   -.918E+00 0.105E+01 -.345E+04   -.266E-01 0.550E-01 -.189E+01   -.691E-02 -.426E-01 -.232E+00
   -.138E+01 -.301E+00 0.346E+04   0.137E+01 0.271E+00 -.345E+04   0.610E-01 -.447E-02 -.189E+01   -.352E-01 0.291E-01 -.233E+00
   -.656E-04 -.555E-05 0.345E+04   0.116E-03 -.101E-04 -.345E+04   -.686E-17 -.393E-17 -.185E+01   0.122E-01 0.740E-02 -.238E+00
   0.138E+01 -.301E+00 0.346E+04   -.137E+01 0.271E+00 -.345E+04   -.610E-01 -.447E-02 -.189E+01   0.336E-01 0.304E-01 -.231E+00
   -.431E+00 0.135E+01 0.346E+04   0.448E+00 -.132E+01 -.345E+04   0.343E-01 -.506E-01 -.189E+01   -.403E-01 0.153E-01 -.232E+00
   0.431E+00 0.135E+01 0.346E+04   -.448E+00 -.132E+01 -.345E+04   -.343E-01 -.506E-01 -.189E+01   0.438E-01 0.139E-01 -.231E+00
   -.144E-03 -.329E-04 0.346E+04   0.263E-03 0.204E-04 -.345E+04   -.219E-17 -.127E-17 -.207E+01   -.133E-01 -.680E-02 -.247E+00
   -.926E+01 -.534E+01 0.115E+04   0.956E+01 0.552E+01 -.114E+04   -.289E+00 -.167E+00 -.845E+00   0.489E-02 0.264E-02 -.378E+00
   -.906E-04 -.988E+01 0.113E+04   0.189E-03 0.963E+01 -.113E+04   -.166E-07 0.249E+00 -.514E+00   0.116E-01 -.155E-01 -.390E+00
   0.926E+01 -.534E+01 0.115E+04   -.956E+01 0.552E+01 -.114E+04   0.289E+00 -.167E+00 -.845E+00   -.622E-02 0.404E-02 -.379E+00
   -.856E+01 0.494E+01 0.113E+04   0.834E+01 -.481E+01 -.113E+04   0.216E+00 -.125E+00 -.514E+00   -.716E-02 0.182E-01 -.391E+00
   0.856E+01 0.494E+01 0.113E+04   -.834E+01 -.481E+01 -.113E+04   -.216E+00 -.125E+00 -.514E+00   0.308E-01 0.177E-01 -.391E+00
   -.140E-03 -.976E+00 0.115E+04   0.296E-03 0.949E+00 -.115E+04   -.379E-08 0.569E-01 -.845E+00   -.351E-02 -.210E-01 -.381E+00
   -.925E-04 0.107E+02 0.115E+04   0.187E-03 -.110E+02 -.114E+04   -.222E-07 0.334E+00 -.845E+00   -.628E-04 -.847E-02 -.380E+00
   -.845E+00 0.488E+00 0.115E+04   0.822E+00 -.474E+00 -.115E+04   0.493E-01 -.285E-01 -.845E+00   -.193E-01 0.758E-02 -.381E+00
   0.846E+00 0.488E+00 0.115E+04   -.822E+00 -.474E+00 -.115E+04   -.493E-01 -.285E-01 -.845E+00   0.199E-01 0.102E-01 -.381E+00
   -.697E-04 -.913E+01 -.115E+04   0.730E-04 0.901E+01 0.115E+04   -.429E-08 0.645E-01 0.113E+01   0.921E-03 0.412E-01 -.480E+00
   -.649E+02 -.375E+02 -.126E+04   0.658E+02 0.380E+02 0.126E+04   -.919E+00 -.531E+00 -.168E+00   -.897E-01 -.529E-01 -.595E+00
   0.649E+02 -.375E+02 -.126E+04   -.658E+02 0.380E+02 0.126E+04   0.919E+00 -.531E+00 -.168E+00   0.690E-01 -.516E-01 -.595E+00
   -.294E+02 0.170E+02 -.117E+04   0.293E+02 -.169E+02 0.117E+04   0.245E+00 -.141E+00 0.824E+00   -.685E-01 0.378E-01 -.394E+00
   -.724E-04 0.750E+02 -.126E+04   0.155E-03 -.760E+02 0.126E+04   -.707E-07 0.106E+01 -.168E+00   0.118E-01 0.848E-01 -.596E+00
   0.294E+02 0.170E+02 -.117E+04   -.293E+02 -.169E+02 0.117E+04   -.245E+00 -.141E+00 0.824E+00   0.666E-01 0.385E-01 -.395E+00
   0.791E+01 0.457E+01 -.115E+04   -.780E+01 -.450E+01 0.115E+04   -.558E-01 -.322E-01 0.113E+01   -.355E-01 -.195E-01 -.481E+00
   -.791E+01 0.457E+01 -.115E+04   0.780E+01 -.450E+01 0.115E+04   0.558E-01 -.322E-01 0.113E+01   0.367E-01 -.203E-01 -.480E+00
   -.133E-03 -.340E+02 -.117E+04   0.239E-03 0.338E+02 0.117E+04   -.188E-07 0.283E+00 0.824E+00   -.109E-02 -.768E-01 -.394E+00
   -.293E-04 0.217E-04 -.340E+04   0.446E-04 -.320E-04 0.340E+04   -.223E-18 0.163E-17 0.160E+01   0.302E-03 0.165E-03 0.165E+00
   -.416E+02 -.825E+02 -.338E+04   0.419E+02 0.827E+02 0.338E+04   -.286E+00 -.158E+00 0.194E+01   -.132E+00 -.186E+00 -.483E-01
   0.416E+02 -.825E+02 -.338E+04   -.419E+02 0.827E+02 0.338E+04   0.286E+00 -.158E+00 0.194E+01   0.133E+00 -.185E+00 -.479E-01
   -.922E+02 0.522E+01 -.338E+04   0.926E+02 -.503E+01 0.338E+04   -.280E+00 -.169E+00 0.194E+01   -.227E+00 -.220E-01 -.480E-01
   0.922E+02 0.522E+01 -.338E+04   -.926E+02 -.503E+01 0.338E+04   0.280E+00 -.169E+00 0.194E+01   0.227E+00 -.204E-01 -.473E-01
   -.506E+02 0.773E+02 -.338E+04   0.506E+02 -.777E+02 0.338E+04   0.612E-02 0.327E+00 0.194E+01   -.935E-01 0.208E+00 -.471E-01
   0.506E+02 0.773E+02 -.338E+04   -.506E+02 -.777E+02 0.338E+04   -.612E-02 0.327E+00 0.194E+01   0.968E-01 0.207E+00 -.478E-01
   -.124E-03 -.133E-04 -.342E+04   0.250E-03 0.848E-06 0.342E+04   -.171E-16 0.329E-18 0.174E+01   -.131E-01 -.652E-02 0.559E-01
   -.276E-04 -.646E-05 -.117E+04   0.467E-04 0.108E-04 0.117E+04   0.609E-18 -.121E-17 0.822E+00   0.490E-03 0.182E-03 -.143E-01
   0.188E-03 -.783E-04 -.198E+04   0.129E-04 0.660E-05 0.196E+04   0.126E-18 0.111E-18 0.223E+02   0.306E-02 0.184E-02 0.268E+00
   0.542E-05 -.129E-04 -.372E+03   0.486E-06 0.443E-06 0.381E+03   0.222E-19 0.306E-19 -.848E+01   0.168E-03 0.100E-03 0.340E-01
   -.109E-03 -.112E-03 -.105E+01   0.164E-12 0.116E-12 0.233E-11   0.109E-15 -.112E-15 0.109E+02   0.169E-01 -.452E-02 -.978E+01

 POSITION                                       TOTAL-FORCE (eV/Angst)
      0.00000      0.00000      5.37156         0.000000      0.000000     -0.002527
      2.56560      0.00000      5.37156        -0.000055      0.010654      0.051886
      5.13119      0.00000      5.37156         0.000055      0.010654      0.051886
      1.28280      2.22187      5.37156         0.009199     -0.005374      0.051886
      3.84839      2.22187      5.37156         0.000000      0.000000      0.052234
      6.41399      2.22187      5.37156        -0.009199     -0.005374      0.051886
      2.56560      4.44374      5.37156         0.009254     -0.005280      0.051886
      5.13119      4.44374      5.37156        -0.009254     -0.005280      0.051886
      7.69679      4.44374      5.37156        -0.000000      0.000000      0.021738
      1.28280      0.74062      7.46636         0.016299      0.009410     -0.096010
      3.84839      0.74062      7.46636         0.000000     -0.029827     -0.048195
      6.41399      0.74062      7.46636        -0.016299      0.009410     -0.096010
      2.56560      2.96249      7.46636        -0.025831      0.014914     -0.048195
      5.13119      2.96249      7.46636         0.025831      0.014914     -0.048195
      7.69679      2.96249      7.46636        -0.000000      0.008449     -0.014760
      3.84839      5.18437      7.46636         0.000000     -0.018820     -0.096010
      6.41399      5.18437      7.46636         0.007317     -0.004224     -0.014760
      8.97958      5.18437      7.46636        -0.007317     -0.004224     -0.014760
      7.69679      1.47704      9.53921         0.000000     -0.016885      0.023077
      2.57092      1.48432      9.56248        -0.092184     -0.053222     -0.141481
      5.12587      1.48432      9.56248         0.092184     -0.053222     -0.141481
      8.97870      3.70363      9.55579         0.037841     -0.021848      0.024399
      3.84839      3.69697      9.56248        -0.000000      0.106445     -0.141481
      6.41487      3.70363      9.55579        -0.037841     -0.021848      0.024399
     10.26602      5.92709      9.53921         0.014623      0.008443      0.023077
      5.12755      5.92709      9.53921        -0.014623      0.008443      0.023077
      7.69679      5.92397      9.55579        -0.000000      0.043696      0.024399
      0.00000      0.00000     11.63511         0.000000      0.000000     -0.038678
      6.40848      6.64966     11.64831        -0.075084     -0.135848     -0.156346
      8.98509      6.64966     11.64831         0.075084     -0.135848     -0.156346
      8.96302      2.22507     11.64831        -0.155190      0.002900     -0.156346
      6.43055      2.22507     11.64831         0.155190      0.002900     -0.156346
     10.25132      4.45649     11.64831        -0.080106      0.132948     -0.156346
      5.14225      4.45649     11.64831         0.080106      0.132948     -0.156346
      7.69679      4.44374     11.65790        -0.000000      0.000000     -0.030711
      3.84839      2.22187     11.77538         0.000000      0.000000      1.390887
      3.84839      2.22187     13.59007         0.000000      0.000000      0.000939
      3.84839      2.22187     14.55687         0.000000      0.000000     -0.008212
    total drift:                                0.016758     -0.004634      0.086731

  FREE ENERGIE OF THE ION-ELECTRON SYSTEM (eV)
  free  energy   TOTEN  =      -141.59914629 eV

  energy  without entropy=     -141.59914629  energy(sigma->0) =     -141.59914629

 stress matrix after NEB project (eV)
     -5.54866      0.00000     -0.00000
      0.00000     -5.54866      0.00000
     -0.00000      0.00000     -0.23521
  FORCES: max atom, RMS     0.008212    0.001341
  FORCE total and by dimension    0.008265    0.008212
  Stress total and by dimension    7.850514    5.548660
|           W    W    AA    RRRRR   N    N  II  N    N   GGGG   !!!           |
|           W    W   A  A   R    R  NN   N  II  NN   N  G    G  !!!           |
|           W    W  A    A  R    R  N N  N  II  N N  N  G       !!!           |
|           W WW W  AAAAAA  RRRRR   N  N N  II  N  N N  G  GGG   !            |
|           WW  WW  A    A  R   R   N   NN  II  N   NN  G    G                |
|           W    W  A    A  R    R  N    N  II  N    N   GGGG   !!!           |
|     Tetrahedron method does not include variations of the Fermi             |
|     occupations, so forces and stress will be inaccurate. We suggest        |
|     using a different smearing scheme ISMEAR = 1 or 2 for metals in         |
|     relaxations.                                                            |

 total charge

# of ion       s       p       d       tot
    1        0.450   0.284   9.187   9.920
    2        0.448   0.285   9.185   9.919
    3        0.448   0.285   9.185   9.919
    4        0.448   0.285   9.185   9.919
    5        0.448   0.286   9.184   9.918
    6        0.448   0.285   9.185   9.919
    7        0.448   0.285   9.185   9.919
    8        0.448   0.285   9.185   9.919
    9        0.448   0.284   9.188   9.920
   10        0.442   0.371   9.178   9.991
   11        0.441   0.366   9.182   9.989
   12        0.442   0.371   9.178   9.991
   13        0.441   0.366   9.182   9.989
   14        0.441   0.366   9.182   9.989
   15        0.439   0.372   9.177   9.987
   16        0.442   0.371   9.178   9.991
   17        0.439   0.372   9.177   9.987
   18        0.439   0.372   9.177   9.987
   19        0.444   0.369   9.181   9.995
   20        0.457   0.385   9.163  10.005
   21        0.457   0.385   9.163  10.005
   22        0.435   0.375   9.178   9.988
   23        0.457   0.385   9.163  10.005
   24        0.435   0.375   9.178   9.988
   25        0.444   0.369   9.181   9.995
   26        0.444   0.369   9.181   9.995
   27        0.435   0.375   9.178   9.988
   28        0.448   0.294   9.180   9.923
   29        0.473   0.304   9.171   9.948
   30        0.473   0.304   9.171   9.948
   31        0.473   0.304   9.171   9.948
   32        0.473   0.304   9.171   9.948
   33        0.473   0.304   9.171   9.948
   34        0.473   0.304   9.171   9.948
   35        0.449   0.299   9.177   9.924
   36        0.559   0.754   2.547   3.859
   37        1.563   3.530   0.000   5.093
   38        0.610   0.124   0.000   0.734
tot         18.478  16.103 323.779 358.360

 BZINTS: Fermi energy:    0.342607;  396.000000 electrons
         Band energy:-0.105173E+04;  BLOECHL correction:   -0.054159