 vasp.6.2.0 18Jan21 (build Jun 12 2021 23:27:24) complex

 executed on             LinuxIFC date 2022.05.30  16:27:29

 INCAR:
   ISMEAR = -5
   SIGMA = 0.1
   ISPIN = 1
   EDIFF = 1.d-5
   EDIFFG = -0.01
   NSW = 0
   NELM = 150
   ENCUT = 500
   ISIF = 2
   IBRION = 2
   LREAL = Auto
   ALGO = Fast
   ICHARG = 11
   LORBIT = 10
   LCHARG = .F.
   LWAVE = .F.

 POTCAR:    PAW_PBE Au 04Oct2007
 POTCAR:    PAW_PBE Hf 20Jan2003
 POTCAR:    PAW_PBE O 08Apr2002
|           W    W    AA    RRRRR   N    N  II  N    N   GGGG   !!!           |
|           W    W   A  A   R    R  NN   N  II  NN   N  G    G  !!!           |
|           W    W  A    A  R    R  N N  N  II  N N  N  G       !!!           |
|           W WW W  AAAAAA  RRRRR   N  N N  II  N  N N  G  GGG   !            |
|           WW  WW  A    A  R   R   N   NN  II  N   NN  G    G                |
|           W    W  A    A  R    R  N    N  II  N    N   GGGG   !!!           |
|     For optimal performance we recommend to set                             |
|       NCORE = 2 up to number-of-cores-per-socket                            |
|     This setting can greatly improve the performance of VASP for DFT.       |
|     The default, NCORE=1 might be grossly inefficient on modern             |
|     multi-core architectures or massively parallel machines. Do your        |
|     Unfortunately you need to use the default for GW and RPA                |
|     calculations (for HF NCORE is supported but not extensively tested      |
|     yet).                                                                   |

 POTCAR:    PAW_PBE Au 04Oct2007
   VRHFIN =Au: s1d10

   TITEL  = PAW_PBE Au 04Oct2007
   POMASS =  196.966; ZVAL   =   11.000    mass and valenz
   ENMAX  =  229.943; ENMIN  =  172.457 eV

 POTCAR:    PAW_PBE Hf 20Jan2003
   VRHFIN =Hf: 6s5d

   TITEL  = PAW_PBE Hf 20Jan2003
   POMASS =  178.490; ZVAL   =    4.000    mass and valenz
   ENMAX  =  220.334; ENMIN  =  165.250 eV

 POTCAR:    PAW_PBE O 08Apr2002
   VRHFIN =O: s2p4

   TITEL  = PAW_PBE O 08Apr2002
   POMASS =   16.000; ZVAL   =    6.000    mass and valenz
   ENMAX  =  400.000; ENMIN  =  300.000 eV

 Optimization of the real space projectors (new method)

 maximal supplied QI-value         = 15.12
 optimisation between [QCUT,QGAM] = [ 11.34, 22.83] = [ 36.00,145.93] Ry
 Optimized for a Real-space Cutoff    1.39 Angstroem

   l    n(q)    QCUT    max X(q) W(low)/X(q) W(high)/X(q)  e(spline)
   2      9    11.338    60.898    0.39E-03    0.42E-03    0.21E-06
   2      9    11.338    58.894    0.40E-03    0.42E-03    0.22E-06
   0      9    11.338   109.617    0.13E-03    0.20E-04    0.13E-06
   0      9    11.338    75.026    0.13E-03    0.20E-04    0.13E-06
   1      9    11.338    16.344    0.33E-04    0.24E-03    0.18E-06
   1      9    11.338    10.160    0.26E-04    0.19E-03    0.15E-06
 Optimization of the real space projectors (new method)

[...]

   l    n(q)    QCUT    max X(q) W(low)/X(q) W(high)/X(q)  e(spline)
   2     10    11.350    48.111    0.20E-03    0.11E-03    0.41E-06
   2     10    11.350    40.545    0.19E-03    0.10E-03    0.39E-06
   0     11    11.350   121.658    0.22E-04    0.19E-04    0.24E-06
   0     11    11.350    71.177    0.17E-04    0.17E-04    0.23E-06
   1     11    11.350    14.183    0.25E-03    0.43E-03    0.12E-05
   1     11    11.350     8.257    0.17E-03    0.29E-03    0.81E-06
 Optimization of the real space projectors (new method)

 maximal supplied QI-value         = 24.76
 optimisation between [QCUT,QGAM] = [ 11.39, 22.77] = [ 36.31,145.25] Ry
 Optimized for a Real-space Cutoff    1.00 Angstroem

   l    n(q)    QCUT    max X(q) W(low)/X(q) W(high)/X(q)  e(spline)
   0      7    11.387    20.381    0.39E-03    0.13E-02    0.15E-06
   0      7    11.387    15.268    0.42E-03    0.14E-02    0.17E-06
   1      6    11.387     5.964    0.41E-03    0.11E-02    0.17E-06
   1      6    11.387     5.382    0.39E-03    0.87E-03    0.15E-06
  PAW_PBE Au 04Oct2007                  :
  PAW_PBE Hf 20Jan2003                  :
  PAW_PBE O 08Apr2002                   :

 POSCAR: Au-Hf-O2
  positions in direct lattice
  velocities in cartesian coordinates
 exchange correlation table for  LEXCH =        8
   RHO(1)=    0.500       N(1)  =     2000
   RHO(2)=  100.500       N(2)  =     4000

 VTST: version 3.2, (02/03/18)

 CHAIN: initializing optimizer

 OPT: Using VASP Conjugate-Gradient optimizer
 CHAIN: Read ICHAIN            0

 POSCAR: Au-Hf-O2
  positions in direct lattice
  velocities in cartesian coordinates

 ion  position               nearest neighbor table
   1  0.000  0.000  0.217-  16 2.94  12 2.94   6 2.94   8 2.94   7 2.94   3 2.94  10 2.94   4 2.94
                             2 2.94
   2  0.333  0.000  0.217-   9 2.94  11 2.94  17 2.94  10 2.94   8 2.94   4 2.94   5 2.94   1 2.94
                             3 2.94
   3  0.667  0.000  0.217-   7 2.94  18 2.94  12 2.94   1 2.94  11 2.94   5 2.94   6 2.94   9 2.94
                             2 2.94
   4  0.000  0.333  0.217-  10 2.94   6 2.94   5 2.94  13 2.94   2 2.94  15 2.94   9 2.94   1 2.94
                             7 2.94
   5  0.333  0.333  0.217-  13 2.94   7 2.94  11 2.94   4 2.94   2 2.94  14 2.94   3 2.94   8 2.94
                             6 2.94
   6  0.667  0.333  0.217-  15 2.94  14 2.94   1 2.94  12 2.94   4 2.94   9 2.94   8 2.94   3 2.94
                             5 2.94
   7  0.000  0.667  0.217-  18 2.94   3 2.94  16 2.94   5 2.94   1 2.94  13 2.94   8 2.94   4 2.94
                             9 2.94
   8  0.333  0.667  0.217-   9 2.94  17 2.94   1 2.94   2 2.94  14 2.94  16 2.94   6 2.94   7 2.94
                             5 2.94
   9  0.667  0.667  0.217-   2 2.94   8 2.94  17 2.94   6 2.94  15 2.94   4 2.94   3 2.94  18 2.94
                             7 2.94
  10  0.111  0.111  0.316-  20 2.93  26 2.94  19 2.94  11 2.94  17 2.94   2 2.94   4 2.94   1 2.94
                            12 2.94  16 2.94  13 2.94  15 2.94
  11  0.444  0.111  0.316-  20 2.92  21 2.92  13 2.94   2 2.94  10 2.94  17 2.94   5 2.94   3 2.94
                            18 2.94  14 2.94  12 2.94  27 2.94
  12  0.778  0.111  0.316-  21 2.93  25 2.94  19 2.94  16 2.94  18 2.94   1 2.94  14 2.94  15 2.94
                             3 2.94   6 2.94  10 2.94  11 2.94
  13  0.111  0.444  0.316-  23 2.92  20 2.92   5 2.94  18 2.94  11 2.94   7 2.94   4 2.94  16 2.94
                            10 2.94  14 2.94  15 2.94  22 2.94
  14  0.444  0.444  0.316-  21 2.92  23 2.92  15 2.94   6 2.94  12 2.94   8 2.94  17 2.94   5 2.94
                            16 2.94  13 2.94  11 2.94  24 2.94
  15  0.778  0.444  0.316-  24 2.93  22 2.93  19 2.94  14 2.94   6 2.94  17 2.94  12 2.94   9 2.94
                             4 2.94  10 2.94  13 2.94  18 2.94
  16  0.111  0.778  0.316-  23 2.93  25 2.94  26 2.94  18 2.94  12 2.94   7 2.94   1 2.94   8 2.94
                            13 2.94  10 2.94  14 2.94  17 2.94
  17  0.444  0.778  0.316-  27 2.93  24 2.93  26 2.94   9 2.94  15 2.94   2 2.94  10 2.94  11 2.94
                             8 2.94  14 2.94  16 2.94  18 2.94
  18  0.778  0.778  0.316-  22 2.93  27 2.93  25 2.94  16 2.94   7 2.94  13 2.94  12 2.94   3 2.94
                            11 2.94   9 2.94  15 2.94  17 2.94
  19  0.889  0.222  0.414-  15 2.94  10 2.94  12 2.94  24 2.94  22 2.94  26 2.94  25 2.94  21 2.94
                            20 2.94  28 2.96  32 3.04  31 3.04
  20  0.223  0.223  0.414-  36 2.81  11 2.92  13 2.92  23 2.93  21 2.93  10 2.93  26 2.94  19 2.94
                            27 2.95  22 2.95  29 2.99  31 2.99
  21  0.555  0.223  0.414-  36 2.81  14 2.92  11 2.92  20 2.93  23 2.93  12 2.93  25 2.94  19 2.94
                            27 2.95  24 2.95  30 2.99  32 2.99
  22  0.887  0.556  0.414-  24 2.92  27 2.92  18 2.93  15 2.93  25 2.94  19 2.94  13 2.94  23 2.95
                            20 2.95  35 2.96  33 3.01  31 3.01
  23  0.223  0.555  0.414-  36 2.81  13 2.92  14 2.92  20 2.93  21 2.93  16 2.93  25 2.94  26 2.94
                            22 2.95  24 2.95  33 2.99  34 2.99
  24  0.556  0.556  0.414-  27 2.92  22 2.92  15 2.93  17 2.93  26 2.94  19 2.94  14 2.94  21 2.95
                            23 2.95  35 2.96  32 3.01  34 3.01
  25  0.889  0.889  0.414-  18 2.94  16 2.94  12 2.94  22 2.94  27 2.94  19 2.94  26 2.94  23 2.94
                            21 2.94  28 2.96  33 3.04  30 3.04
  26  0.222  0.889  0.414-  17 2.94  10 2.94  16 2.94  27 2.94  24 2.94  19 2.94  25 2.94  20 2.94
                            23 2.94  28 2.96  29 3.04  34 3.04
  27  0.556  0.887  0.414-  24 2.92  22 2.92  17 2.93  18 2.93  26 2.94  25 2.94  11 2.94  20 2.95
                            21 2.95  35 2.96  29 3.01  30 3.01
  28  0.000  0.000  0.514-  25 2.96  19 2.96  26 2.96  34 2.98  32 2.98  33 2.98  30 2.98  31 2.98
                            29 2.98
  29  0.334  0.008  0.517-  30 2.86  31 2.87  36 2.88  35 2.97  28 2.98  20 2.99  27 3.01  26 3.04
                            34 3.08
  30  0.658  0.008  0.517-  29 2.86  32 2.87  36 2.88  35 2.97  28 2.98  21 2.99  27 3.01  25 3.04
                            33 3.08
  31  0.008  0.334  0.517-  37 2.70  33 2.86  29 2.87  36 2.88  35 2.97  28 2.98  20 2.99  22 3.01
                            19 3.04  32 3.08
  32  0.658  0.334  0.517-  38 2.70  34 2.86  30 2.87  36 2.88  35 2.97  28 2.98  21 2.99  24 3.01
                            19 3.04  31 3.08
  33  0.008  0.658  0.517-  31 2.86  34 2.87  36 2.88  35 2.97  28 2.98  23 2.99  22 3.01  25 3.04
                            30 3.08
  34  0.334  0.658  0.517-  32 2.86  33 2.87  36 2.88  35 2.97  28 2.98  23 2.99  24 3.01  26 3.04
                            29 3.08
  35  0.667  0.667  0.514-  24 2.96  27 2.96  22 2.96  29 2.97  34 2.97  32 2.97  31 2.97  30 2.97
                            33 2.97
  36  0.333  0.333  0.506-  37 2.03  38 2.03  20 2.81  23 2.81  21 2.81  33 2.88  31 2.88  29 2.88
                            30 2.88  34 2.88  32 2.88
  37  0.250  0.333  0.584-  38 1.46  36 2.03  31 2.70
  38  0.416  0.333  0.584-  37 1.46  36 2.03  32 2.70

  LATTYP: Found a hexagonal cell.
 ALAT       =     8.8135128021
 C/A-ratio  =     2.7586513333

  Lattice vectors:

 A1 = (  -4.4067569092,  -7.6327256898,   0.0000000000)
 A2 = (   8.8135128021,   0.0000000000,   0.0000000000)
 A3 = (   0.0000000000,   0.0000000000,  24.3134088421)

Analysis of symmetry for initial positions (statically):
 Subroutine PRICEL returns:
 Original cell was already a primitive cell.

 Routine SETGRP: Setting up the symmetry group for a
 hexagonal supercell.

 Subroutine GETGRP returns: Found  2 space group operations
 (whereof  2 operations were pure point group operations)
 out of a pool of 24 trial point group operations.

The static configuration has the point symmetry C_1h.

Analysis of symmetry for dynamics (positions and initial velocities):
 Subroutine PRICEL returns:
 Original cell was already a primitive cell.

[...]

The dynamic configuration has the point symmetry C_1h.

Analysis of constrained symmetry for selective dynamics:
 Subroutine PRICEL returns:
 Original cell was already a primitive cell.

 Routine SETGRP: Setting up the symmetry group for a
[...]
     33      -5.3983      2.00000
     34      -5.3600      2.00000
     35      -5.3309      2.00000
     36      -5.3007      2.00000
     37      -5.2914      2.00000
     38      -5.2751      2.00000
     39      -5.2539      2.00000
     40      -5.1897      2.00000
     41      -5.1824      2.00000
     42      -5.0908      2.00000
     43      -5.0406      2.00000
     44      -4.9947      2.00000
     45      -4.9482      2.00000
     46      -4.9067      2.00000
     47      -4.8952      2.00000
     48      -4.8602      2.00000
     49      -4.8171      2.00000
     50      -4.8062      2.00000
     51      -4.7641      2.00000
     52      -4.7264      2.00000
     53      -4.7080      2.00000
     54      -4.6853      2.00000
     55      -4.6761      2.00000
     56      -4.6599      2.00000
     57      -4.6408      2.00000
     58      -4.6228      2.00000
     59      -4.6005      2.00000
     60      -4.5554      2.00000
[...]
    238       5.6001      0.00000
    239       5.7434      0.00000
    240       5.8490      0.00000
    241       5.9813      0.00000
    242       6.0303      0.00000
    243       6.1054      0.00000
    244       6.1417      0.00000
    245       6.2176      0.00000
    246       6.2791      0.00000
    247       6.4377      0.00000
    248       6.4681      0.00000
    249       6.6336      0.00000
    250       6.7294      0.00000
    251       6.8507      0.00000
    252       6.9294      0.00000

 soft charge-density along one line, spin component           1
         0         1         2         3         4         5         6         7         8         9
 total charge-density along one line

------------------------ aborting loop because EDIFF is reached ----------------------------------------

 total charge

# of ion       s       p       d       tot
    1        0.547   0.239   8.764   9.551
    2        0.542   0.241   8.764   9.547
    3        0.542   0.241   8.764   9.547
    4        0.542   0.241   8.766   9.549
    5        0.541   0.240   8.765   9.545
    6        0.542   0.241   8.766   9.549
    7        0.542   0.241   8.765   9.548
    8        0.542   0.241   8.765   9.548
    9        0.541   0.240   8.767   9.548
   10        0.522   0.307   8.775   9.603
   11        0.517   0.309   8.776   9.601
   12        0.522   0.307   8.775   9.603
   13        0.518   0.308   8.777   9.602
   14        0.518   0.308   8.777   9.602
   15        0.516   0.309   8.772   9.597
   16        0.524   0.306   8.773   9.603
   17        0.516   0.309   8.772   9.597
   18        0.516   0.309   8.772   9.597
   19        0.515   0.297   8.775   9.586
   20        0.561   0.335   8.744   9.640
   21        0.561   0.335   8.744   9.640
   22        0.512   0.304   8.772   9.589
   23        0.563   0.333   8.745   9.641
   24        0.512   0.304   8.772   9.589
   25        0.520   0.296   8.773   9.589
   26        0.520   0.296   8.773   9.589
   27        0.511   0.304   8.773   9.589
   28        0.543   0.229   8.757   9.529
   29        0.579   0.239   8.753   9.571
   30        0.579   0.239   8.753   9.571
   31        0.576   0.231   8.768   9.575
   32        0.576   0.231   8.768   9.575
   33        0.577   0.239   8.754   9.570
   34        0.577   0.239   8.754   9.570
   35        0.541   0.231   8.757   9.528
   36        0.544   0.676   2.191   3.411
   37        1.612   3.255   0.000   4.867
   38        1.612   3.255   0.000   4.867
tot         22.640  16.802 308.979 348.421

  FORCE on cell =-STRESS in cart. coord.  units (eV):
  Direction    XX          YY          ZZ          XY          YZ          ZX
  Alpha Z   940.23796   940.23796   940.23796
  Ewald  147700.27672147357.24726************    -0.00031    -0.24225    -0.00011
  Hartree156042.88846155877.53910************     0.00001    -0.00925    -0.00004
  E(xc)   -1803.52126 -1803.59895 -1812.47115     0.00001     0.02555    -0.00000
  Local  ************************315628.27019     0.00258     0.18428     0.00001
  n-local   -84.31305   -88.81821   -63.93801     4.61039    -0.28815     0.06113
  augment  2373.81188  2378.26425  2396.06877    -0.00141     0.11045     0.00001
  Kinetic  5616.46757  5657.44139  5703.72647     1.10540     0.16343     0.08197
  Fock        0.00000     0.00000     0.00000     0.00000     0.00000     0.00000
  Total     -15.17218   -16.48175     1.30714    -0.00000    -0.05594    -0.00000
  in kB     -14.86223   -16.14505     1.28044    -0.00000    -0.05480    -0.00000

 VOLUME and BASIS-vectors are now :
  energy-cutoff  :      500.00
  volume of cell :     1635.59
      direct lattice vectors                 reciprocal lattice vectors
     8.813512802  0.000000000  0.000000000     0.113462137 -0.065507406  0.000000000
     4.406756909  7.632725690  0.000000000     0.000000000  0.131014796  0.000000000
     0.000000000  0.000000000 24.313408842     0.000000000  0.000000000  0.041129568

  length of vectors
     8.813512802  8.813512802 24.313408842     0.131014796  0.131014796  0.041129568

 FORCES acting on ions
    electron-ion (+dipol)            ewald-force                    non-local-force                 convergence-correction
   -.198E-04 0.773E-01 0.265E+04   0.518E-04 -.263E-01 -.265E+04   -.130E-09 -.195E-02 -.431E+00   -.281E-03 -.559E-01 -.114E+00
   -.245E-01 -.184E+00 0.265E+04   -.878E-01 0.137E+00 -.265E+04   -.105E-01 0.262E-01 -.297E+00   0.108E+00 0.152E-01 -.150E+00
   0.244E-01 -.184E+00 0.265E+04   0.877E-01 0.137E+00 -.265E+04   0.105E-01 0.262E-01 -.297E+00   -.108E+00 0.173E-01 -.149E+00
   -.286E+00 0.118E+00 0.265E+04   0.967E-01 -.158E+00 -.265E+04   0.377E-01 -.392E-01 -.318E+00   0.141E+00 0.714E-01 -.150E+00
   0.766E-05 0.110E-01 0.265E+04   0.951E-04 -.242E-03 -.265E+04   -.558E-09 -.838E-02 -.442E+00   0.439E-02 -.256E-02 -.157E+00
   0.286E+00 0.118E+00 0.265E+04   -.968E-01 -.158E+00 -.265E+04   -.377E-01 -.392E-01 -.318E+00   -.143E+00 0.723E-01 -.149E+00
   -.176E+00 0.762E-01 0.265E+04   0.185E+00 0.213E-01 -.265E+04   0.162E-01 0.271E-02 -.305E+00   -.203E-01 -.813E-01 -.145E+00
   0.176E+00 0.762E-01 0.265E+04   -.186E+00 0.213E-01 -.265E+04   -.162E-01 0.271E-02 -.305E+00   0.222E-01 -.825E-01 -.145E+00
   0.195E-04 -.103E+00 0.265E+04   0.166E-03 0.266E-01 -.265E+04   0.122E-08 0.183E-01 -.449E+00   -.466E-02 0.553E-01 -.149E+00
   0.212E+00 0.374E+00 0.901E+03   -.157E+00 -.302E+00 -.900E+03   -.223E+00 -.111E+00 -.424E+00   0.132E+00 0.195E-01 -.166E+00
   0.167E-04 -.422E+00 0.900E+03   0.148E-03 0.259E+00 -.899E+03   0.304E-08 0.457E-01 -.299E+00   0.426E-02 0.484E-01 -.160E+00
   -.212E+00 0.374E+00 0.901E+03   0.157E+00 -.302E+00 -.900E+03   0.223E+00 -.111E+00 -.424E+00   -.134E+00 0.215E-01 -.165E+00
   -.632E+00 0.195E+00 0.900E+03   0.423E+00 -.946E-01 -.900E+03   0.835E-01 -.392E-01 -.340E+00   0.674E-01 -.197E-01 -.146E+00
   0.632E+00 0.195E+00 0.900E+03   -.423E+00 -.946E-01 -.900E+03   -.835E-01 -.392E-01 -.340E+00   -.591E-01 -.204E-01 -.145E+00
   0.320E-04 0.201E+01 0.903E+03   0.235E-03 -.217E+01 -.902E+03   0.186E-08 0.279E-01 -.442E+00   -.297E-02 0.121E+00 -.141E+00
   -.209E-04 -.333E+00 0.900E+03   0.162E-03 0.243E+00 -.900E+03   0.159E-07 0.239E+00 -.474E+00   0.385E-03 -.109E+00 -.175E+00
   0.190E+01 -.120E+01 0.903E+03   -.199E+01 0.123E+01 -.902E+03   0.171E-01 -.838E-02 -.325E+00   0.558E-01 -.219E-01 -.147E+00
   -.190E+01 -.120E+01 0.903E+03   0.199E+01 0.123E+01 -.902E+03   -.171E-01 -.838E-02 -.325E+00   -.557E-01 -.193E-01 -.147E+00
   -.425E-04 -.379E+01 -.860E+03   0.551E-04 0.340E+01 0.860E+03   0.121E-07 0.182E+00 0.954E+00   -.607E-02 0.148E+00 0.239E-01
   -.150E+02 -.730E+01 -.864E+03   0.157E+02 0.768E+01 0.864E+03   -.110E+01 -.561E+00 -.745E+00   0.108E+00 0.580E-01 -.253E-01
   0.150E+02 -.730E+01 -.864E+03   -.157E+02 0.768E+01 0.864E+03   0.110E+01 -.561E+00 -.745E+00   -.991E-01 0.595E-01 -.264E-01
   -.113E+02 0.510E+01 -.853E+03   0.109E+02 -.488E+01 0.853E+03   0.337E+00 -.249E+00 0.718E+00   0.474E-01 0.114E-01 0.143E-01
   -.313E-05 0.152E+02 -.866E+03   0.138E-03 -.162E+02 0.866E+03   0.892E-07 0.134E+01 -.784E+00   0.561E-02 -.780E-01 -.803E-02
   0.113E+02 0.510E+01 -.853E+03   -.109E+02 -.488E+01 0.853E+03   -.337E+00 -.249E+00 0.718E+00   -.555E-01 0.985E-02 0.146E-01
   0.388E+01 0.294E+01 -.862E+03   -.366E+01 -.269E+01 0.862E+03   -.643E-01 -.992E-01 0.714E+00   -.144E+00 -.120E+00 0.301E-01
   -.388E+01 0.294E+01 -.862E+03   0.366E+01 -.269E+01 0.862E+03   0.643E-01 -.992E-01 0.714E+00   0.139E+00 -.123E+00 0.301E-01
   0.937E-05 -.130E+02 -.855E+03   0.198E-03 0.125E+02 0.855E+03   0.295E-07 0.443E+00 0.870E+00   -.322E-02 0.221E-01 0.127E-01
   -.136E-04 0.555E+01 -.254E+04   0.289E-04 -.552E+01 0.254E+04   0.101E-08 0.151E-01 0.282E+00   -.142E-02 -.675E-01 0.111E+00
   0.191E+02 0.419E+02 -.252E+04   -.182E+02 -.411E+02 0.252E+04   -.124E+01 -.133E+01 0.464E+00   0.666E-01 0.173E-01 0.636E-01
   -.191E+02 0.419E+02 -.252E+04   0.182E+02 -.411E+02 0.252E+04   0.124E+01 -.133E+01 0.464E+00   -.596E-01 0.189E-01 0.632E-01
   0.580E+02 0.369E+01 -.250E+04   -.576E+02 -.364E+01 0.250E+04   -.137E+01 -.984E-01 0.102E+01   0.140E+00 0.641E-01 0.635E-01
   -.580E+02 0.369E+01 -.250E+04   0.576E+02 -.364E+01 0.250E+04   0.137E+01 -.984E-01 0.102E+01   -.135E+00 0.648E-01 0.617E-01
   0.127E+02 -.458E+02 -.252E+04   -.119E+02 0.449E+02 0.252E+04   -.102E+01 0.144E+01 0.505E+00   -.528E-02 -.703E-01 0.650E-01
   -.127E+02 -.458E+02 -.252E+04   0.119E+02 0.449E+02 0.252E+04   0.102E+01 0.144E+01 0.505E+00   0.134E-01 -.711E-01 0.637E-01
   0.316E-04 -.559E+01 -.254E+04   0.143E-03 0.559E+01 0.254E+04   -.346E-09 -.519E-02 0.323E+00   -.586E-02 0.346E-01 0.780E-01
   -.769E-05 0.478E-01 -.755E+03   0.408E-04 -.690E-01 0.759E+03   0.646E-09 0.970E-02 -.169E+01   0.136E-03 0.427E-02 0.401E-01
   0.169E+03 0.199E+00 -.163E+04   -.200E+03 -.156E+00 0.164E+04   0.308E+02 -.504E-01 -.178E+02   0.393E-01 -.103E-03 0.914E-02
   -.169E+03 0.199E+00 -.163E+04   0.200E+03 -.156E+00 0.164E+04   -.308E+02 -.504E-01 -.178E+02   -.395E-01 -.168E-04 0.927E-02
   -.483E-03 -.918E-01 0.391E+02   0.000E+00 0.689E-13 -.500E-11   0.377E-08 0.566E-01 -.368E+02   0.142E-01 0.117E-01 -.201E+01

 POSITION                                       TOTAL-FORCE (eV/Angst)
      0.00000      0.00000      5.28038        -0.000000     -0.006278     -0.112710
      2.93784      0.00000      5.28038        -0.014608     -0.004215     -0.011253
      5.87568      0.00000      5.28038         0.014608     -0.004215     -0.011253
      1.46892      2.54424      5.28038        -0.009792     -0.006670     -0.022612
      4.40676      2.54424      5.28038         0.000000      0.000416     -0.041519
      7.34459      2.54424      5.28038         0.009792     -0.006670     -0.022612
      2.93784      5.08848      5.28038         0.004100      0.019021     -0.014401
      5.87568      5.08848      5.28038        -0.004100      0.019021     -0.014401
      8.81351      5.08848      5.28038        -0.000000     -0.002359     -0.027368
      1.46892      0.84808      7.67911        -0.034870     -0.017852      0.006420
      4.40676      0.84808      7.67911        -0.000000     -0.068843     -0.018199
      7.34459      0.84808      7.67911         0.034870     -0.017852      0.006420
      2.93784      3.39232      7.67911        -0.062456      0.041870     -0.025748
      5.87568      3.39232      7.67911         0.062456      0.041870     -0.025748
      8.81351      3.39232      7.67911        -0.000000     -0.016791      0.079143
      4.40676      5.93656      7.67911         0.000000      0.041709      0.006461
      7.34459      5.93656      7.67911        -0.019943      0.006222      0.083821
     10.28243      5.93656      7.67911         0.019943      0.006222      0.083821
      8.81351      1.69636     10.07469        -0.000000     -0.059932      0.074924
      2.94338      1.69936     10.06127        -0.245400     -0.119453     -0.234079
      5.87013      1.69936     10.06127         0.245399     -0.119453     -0.234079
     10.27220      4.24631     10.06987         0.047555     -0.012479      0.077077
      4.40676      4.23400     10.06127         0.000000      0.238508     -0.198384
      7.35483      4.24631     10.06987        -0.047555     -0.012479      0.077077
     11.75117      6.78454     10.07469         0.013928      0.030062      0.054452
      5.87585      6.78454     10.07469        -0.013928      0.030062      0.054452
      8.81351      6.77283     10.06987         0.000000      0.040755      0.084975
      0.00000      0.00000     12.49672        -0.000000     -0.022390     -0.075393
      2.97727      0.06002     12.55884        -0.242551     -0.462630     -0.272556
      5.83624      0.06002     12.55884         0.242551     -0.462630     -0.272556
      1.54061      2.54838     12.55884        -0.889367      0.009299     -0.507520
      7.27290      2.54838     12.55884         0.889367      0.009299     -0.507520
      2.97010      5.02433     12.55884        -0.256961      0.436338     -0.281632
      5.84341      5.02433     12.55884         0.256961      0.436338     -0.281632
      8.81351      5.08848     12.50791         0.000000      0.036047     -0.004505
      4.40676      2.54424     12.31155        -0.000000     -0.006586      2.528562
      3.67430      2.54513     14.20613         0.018266     -0.006642      0.000038
      5.13921      2.54513     14.20613        -0.018266     -0.006642      0.000038
    total drift:                                0.013684     -0.023528      0.295543

  FREE ENERGIE OF THE ION-ELECTRON SYSTEM (eV)
  free  energy   TOTEN  =      -129.81691546 eV

  energy  without entropy=     -129.81691546  energy(sigma->0) =     -129.81691546

 stress matrix after NEB project (eV)
    -15.17218     -0.00000     -0.00000
     -0.00000    -16.48175     -0.05594
     -0.00000     -0.05594      1.30714
  FORCES: max atom, RMS     0.019436    0.004459
  FORCE total and by dimension    0.027487    0.018266
  Stress total and by dimension   22.440097   16.481750
|           W    W    AA    RRRRR   N    N  II  N    N   GGGG   !!!           |
|           W    W   A  A   R    R  NN   N  II  NN   N  G    G  !!!           |
|           W    W  A    A  R    R  N N  N  II  N N  N  G       !!!           |
|           W WW W  AAAAAA  RRRRR   N  N N  II  N  N N  G  GGG   !            |
|           WW  WW  A    A  R   R   N   NN  II  N   NN  G    G                |
|           W    W  A    A  R    R  N    N  II  N    N   GGGG   !!!           |
|     Tetrahedron method does not include variations of the Fermi             |
|     occupations, so forces and stress will be inaccurate. We suggest        |
|     using a different smearing scheme ISMEAR = 1 or 2 for metals in         |
|     relaxations.                                                            |

 total charge

# of ion       s       p       d       tot
    1        0.547   0.239   8.764   9.551
    2        0.542   0.241   8.764   9.547
    3        0.542   0.241   8.764   9.547
    4        0.542   0.241   8.766   9.549
    5        0.541   0.240   8.765   9.545
    6        0.542   0.241   8.766   9.549
    7        0.542   0.241   8.765   9.548
    8        0.542   0.241   8.765   9.548
    9        0.541   0.240   8.767   9.548
   10        0.522   0.307   8.775   9.603
   11        0.517   0.309   8.776   9.601
   12        0.522   0.307   8.775   9.603
   13        0.518   0.308   8.777   9.602
   14        0.518   0.308   8.777   9.602
   15        0.516   0.309   8.772   9.597
   16        0.524   0.306   8.773   9.603
   17        0.516   0.309   8.772   9.597
   18        0.516   0.309   8.772   9.597
   19        0.515   0.297   8.775   9.586
   20        0.561   0.335   8.744   9.640
   21        0.561   0.335   8.744   9.640
   22        0.512   0.304   8.772   9.589
   23        0.563   0.333   8.745   9.641
   24        0.512   0.304   8.772   9.589
   25        0.520   0.296   8.773   9.589
   26        0.520   0.296   8.773   9.589
   27        0.511   0.304   8.773   9.589
   28        0.543   0.229   8.757   9.529
   29        0.579   0.239   8.753   9.571
   30        0.579   0.239   8.753   9.571
   31        0.576   0.231   8.768   9.575
   32        0.576   0.231   8.768   9.575
   33        0.577   0.239   8.754   9.570
   34        0.577   0.239   8.754   9.570
   35        0.541   0.231   8.757   9.528
   36        0.544   0.676   2.191   3.411
   37        1.612   3.255   0.000   4.867
   38        1.612   3.255   0.000   4.867
tot         22.640  16.802 308.979 348.421

 BZINTS: Fermi energy:    0.129349;  401.000000 electrons
         Band energy:-0.152001E+04;  BLOECHL correction:   -0.078696