 vasp.6.2.0 18Jan21 (build Jun 12 2021 23:27:24) complex

 executed on             LinuxIFC date 2022.05.26  19:28:51

 INCAR:
   ISMEAR = -5
   SIGMA = 0.1
   ISPIN = 1
   EDIFF = 1.d-5
   EDIFFG = -0.01
   NSW = 0
   NELM = 150
   ENCUT = 500
   ISIF = 2
   IBRION = 2
   LREAL = Auto
   ALGO = Fast
   ICHARG = 11
   LORBIT = 10
   LCHARG = .F.
   LWAVE = .F.

 POTCAR:    PAW_PBE Au 04Oct2007
 POTCAR:    PAW_PBE Pd 04Jan2005
 POTCAR:    PAW_PBE H 15Jun2001
|           W    W    AA    RRRRR   N    N  II  N    N   GGGG   !!!           |
|           W    W   A  A   R    R  NN   N  II  NN   N  G    G  !!!           |
|           W    W  A    A  R    R  N N  N  II  N N  N  G       !!!           |
|           W WW W  AAAAAA  RRRRR   N  N N  II  N  N N  G  GGG   !            |
|           WW  WW  A    A  R   R   N   NN  II  N   NN  G    G                |
|           W    W  A    A  R    R  N    N  II  N    N   GGGG   !!!           |
|     For optimal performance we recommend to set                             |
|       NCORE = 2 up to number-of-cores-per-socket                            |
|     This setting can greatly improve the performance of VASP for DFT.       |
|     The default, NCORE=1 might be grossly inefficient on modern             |
|     multi-core architectures or massively parallel machines. Do your        |
|     Unfortunately you need to use the default for GW and RPA                |
|     calculations (for HF NCORE is supported but not extensively tested      |
|     yet).                                                                   |

 POTCAR:    PAW_PBE Au 04Oct2007
   VRHFIN =Au: s1d10

   TITEL  = PAW_PBE Au 04Oct2007
   POMASS =  196.966; ZVAL   =   11.000    mass and valenz
   ENMAX  =  229.943; ENMIN  =  172.457 eV

 POTCAR:    PAW_PBE Pd 04Jan2005
   VRHFIN =Pd : s1 d9

   TITEL  = PAW_PBE Pd 04Jan2005
   POMASS =  106.420; ZVAL   =   10.000    mass and valenz
   ENMAX  =  250.925; ENMIN  =  188.194 eV

 POTCAR:    PAW_PBE H 15Jun2001
   VRHFIN =H: ultrasoft test

   TITEL  = PAW_PBE H 15Jun2001
   POMASS =    1.000; ZVAL   =    1.000    mass and valenz
   ENMAX  =  250.000; ENMIN  =  200.000 eV

 Optimization of the real space projectors (new method)

 maximal supplied QI-value         = 15.12
 optimisation between [QCUT,QGAM] = [ 11.34, 22.83] = [ 36.00,145.93] Ry
 Optimized for a Real-space Cutoff    1.39 Angstroem

   l    n(q)    QCUT    max X(q) W(low)/X(q) W(high)/X(q)  e(spline)
   2      9    11.338    60.898    0.39E-03    0.42E-03    0.21E-06
   2      9    11.338    58.894    0.40E-03    0.42E-03    0.22E-06
   0      9    11.338   109.617    0.13E-03    0.20E-04    0.13E-06
   0      9    11.338    75.026    0.13E-03    0.20E-04    0.13E-06
   1      9    11.338    16.344    0.33E-04    0.24E-03    0.18E-06
   1      9    11.338    10.160    0.26E-04    0.19E-03    0.15E-06
 Optimization of the real space projectors (new method)

[...]

   l    n(q)    QCUT    max X(q) W(low)/X(q) W(high)/X(q)  e(spline)
   2      9    11.346    59.108    0.74E-04    0.81E-04    0.26E-06
   2      9    11.346    58.101    0.74E-04    0.83E-04    0.27E-06
   0     10    11.346   102.235    0.26E-04    0.31E-04    0.16E-06
   0     10    11.346    58.388    0.23E-04    0.29E-04    0.15E-06
   1     10    11.346    22.191    0.23E-03    0.26E-03    0.14E-06
   1     10    11.346    15.590    0.19E-03    0.22E-03    0.12E-06
 Optimization of the real space projectors (new method)

 maximal supplied QI-value         = 34.20
 optimisation between [QCUT,QGAM] = [ 11.29, 22.57] = [ 35.68,142.71] Ry
 Optimized for a Real-space Cutoff    1.16 Angstroem

   l    n(q)    QCUT    max X(q) W(low)/X(q) W(high)/X(q)  e(spline)
   0      8    11.287    19.460    0.40E-03    0.73E-03    0.16E-06
   0      8    11.287    12.209    0.38E-03    0.70E-03    0.15E-06
   1      7    11.287     4.655    0.22E-03    0.25E-04    0.22E-06
  PAW_PBE Au 04Oct2007                  :
  PAW_PBE Pd 04Jan2005                  :
  PAW_PBE H 15Jun2001                   :

 POSCAR: Au-Pd-H
  positions in direct lattice
  velocities in cartesian coordinates
 exchange correlation table for  LEXCH =        8
   RHO(1)=    0.500       N(1)  =     2000
   RHO(2)=  100.500       N(2)  =     4000

 VTST: version 3.2, (02/03/18)

 CHAIN: initializing optimizer

 OPT: Using VASP Conjugate-Gradient optimizer
 CHAIN: Read ICHAIN            0

 POSCAR: Au-Pd-H
  positions in direct lattice
  velocities in cartesian coordinates

 ion  position               nearest neighbor table
   1  0.000  0.000  0.238-  16 2.94  12 2.94   6 2.94   8 2.94   7 2.94   3 2.94  10 2.94   4 2.94
                             2 2.94
   2  0.333  0.000  0.238-   9 2.94  11 2.94  17 2.94  10 2.94   8 2.94   4 2.94   5 2.94   1 2.94
                             3 2.94
   3  0.667  0.000  0.238-   7 2.94  18 2.94  12 2.94   1 2.94  11 2.94   5 2.94   6 2.94   9 2.94
                             2 2.94
   4  0.000  0.333  0.238-  10 2.94   6 2.94   5 2.94  13 2.94   2 2.94  15 2.94   9 2.94   1 2.94
                             7 2.94
   5  0.333  0.333  0.238-  13 2.94   7 2.94  11 2.94   4 2.94   2 2.94  14 2.94   3 2.94   8 2.94
                             6 2.94
   6  0.667  0.333  0.238-  15 2.94  14 2.94   1 2.94  12 2.94   4 2.94   9 2.94   8 2.94   3 2.94
                             5 2.94
   7  0.000  0.667  0.238-  18 2.94   3 2.94  16 2.94   5 2.94   1 2.94  13 2.94   8 2.94   4 2.94
                             9 2.94
   8  0.333  0.667  0.238-   9 2.94  17 2.94   1 2.94   2 2.94  14 2.94  16 2.94   6 2.94   7 2.94
                             5 2.94
   9  0.667  0.667  0.238-   2 2.94   8 2.94  17 2.94   6 2.94  15 2.94   4 2.94   3 2.94  18 2.94
                             7 2.94
  10  0.111  0.111  0.346-  26 2.92  19 2.92  20 2.93  11 2.94  17 2.94   2 2.94   4 2.94   1 2.94
                            12 2.94  16 2.94  13 2.94  15 2.94
  11  0.444  0.111  0.346-  27 2.93  20 2.93  21 2.93  13 2.94   2 2.94  10 2.94  17 2.94   5 2.94
                             3 2.94  18 2.94  14 2.94  12 2.94
  12  0.778  0.111  0.346-  25 2.92  19 2.92  21 2.93  16 2.94  18 2.94   1 2.94  14 2.94  15 2.94
                             3 2.94   6 2.94  10 2.94  11 2.94
  13  0.111  0.444  0.346-  22 2.93  23 2.93  20 2.93   5 2.94  18 2.94  11 2.94   7 2.94   4 2.94
                            16 2.94  10 2.94  14 2.94  15 2.94
  14  0.444  0.444  0.346-  24 2.93  21 2.93  23 2.93  15 2.94   6 2.94  12 2.94   8 2.94  17 2.94
                             5 2.94  16 2.94  13 2.94  11 2.94
  15  0.778  0.444  0.346-  19 2.93  24 2.93  22 2.93  14 2.94   6 2.94  17 2.94  12 2.94   9 2.94
                             4 2.94  10 2.94  13 2.94  18 2.94
  16  0.111  0.778  0.346-  25 2.92  26 2.92  23 2.93  18 2.94  12 2.94   7 2.94   1 2.94   8 2.94
                            13 2.94  10 2.94  14 2.94  17 2.94
  17  0.444  0.778  0.346-  26 2.93  27 2.93  24 2.93   9 2.94  15 2.94   2 2.94  10 2.94  11 2.94
                             8 2.94  14 2.94  16 2.94  18 2.94
  18  0.778  0.778  0.346-  25 2.93  22 2.93  27 2.93  16 2.94   7 2.94  13 2.94  12 2.94   3 2.94
                            11 2.94   9 2.94  15 2.94  17 2.94
  19  0.889  0.222  0.453-  10 2.92  12 2.92  15 2.93  26 2.93  25 2.93  21 2.94  20 2.94  24 2.94
                            22 2.94  28 2.96  32 2.97  31 2.97
  20  0.222  0.222  0.454-  36 2.83  10 2.93  11 2.93  13 2.93  26 2.94  19 2.94  27 2.94  22 2.94
                            23 2.94  21 2.94  29 2.95  31 2.95
  21  0.556  0.222  0.454-  36 2.83  12 2.93  14 2.93  11 2.93  25 2.94  19 2.94  24 2.94  27 2.94
                            20 2.94  23 2.94  30 2.95  32 2.95
  22  0.889  0.556  0.454-  18 2.93  15 2.93  13 2.93  24 2.94  27 2.94  23 2.94  20 2.94  25 2.94
                            19 2.94  33 2.96  31 2.96  35 2.96
  23  0.222  0.556  0.454-  36 2.83  16 2.93  13 2.93  14 2.93  25 2.94  26 2.94  22 2.94  24 2.94
                            20 2.94  21 2.94  33 2.95  34 2.95
  24  0.556  0.556  0.454-  15 2.93  17 2.93  14 2.93  27 2.94  22 2.94  21 2.94  23 2.94  26 2.94
                            19 2.94  32 2.96  34 2.96  35 2.96
  25  0.889  0.889  0.453-  16 2.92  12 2.92  18 2.93  19 2.93  26 2.93  23 2.94  21 2.94  22 2.94
                            27 2.94  28 2.96  33 2.97  30 2.97
  26  0.222  0.889  0.453-  10 2.92  16 2.92  17 2.93  19 2.93  25 2.93  20 2.94  23 2.94  27 2.94
                            24 2.94  28 2.96  29 2.97  34 2.97
  27  0.556  0.889  0.454-  17 2.93  18 2.93  11 2.93  24 2.94  22 2.94  20 2.94  21 2.94  26 2.94
                            25 2.94  29 2.96  30 2.96  35 2.96
  28  0.000  0.000  0.563-  34 2.94  32 2.94  33 2.94  30 2.94  31 2.94  29 2.94  25 2.96  19 2.96
                            26 2.96
  29  0.333  0.001  0.563-  30 2.93  31 2.93  36 2.93  35 2.94  28 2.94  20 2.95  34 2.95  27 2.96
                            26 2.97
  30  0.666  0.001  0.563-  29 2.93  32 2.93  36 2.93  35 2.94  28 2.94  21 2.95  33 2.95  27 2.96
                            25 2.97
  31  0.001  0.333  0.563-  33 2.93  29 2.93  36 2.93  35 2.94  28 2.94  20 2.95  32 2.95  22 2.96
                            19 2.97
  32  0.666  0.333  0.563-  34 2.93  30 2.93  36 2.93  35 2.94  28 2.94  21 2.95  31 2.95  24 2.96
                            19 2.97
  33  0.001  0.666  0.563-  31 2.93  34 2.93  36 2.93  35 2.94  28 2.94  23 2.95  30 2.95  22 2.96
                            25 2.97
  34  0.333  0.666  0.563-  32 2.93  33 2.93  36 2.93  35 2.94  28 2.94  23 2.95  29 2.95  24 2.96
                            26 2.97
  35  0.667  0.667  0.563-  29 2.94  34 2.94  32 2.94  31 2.94  30 2.94  33 2.94  24 2.96  27 2.96
                            22 2.96
  36  0.333  0.333  0.556-  37 1.56  20 2.83  23 2.83  21 2.83  33 2.93  31 2.93  29 2.93  30 2.93
                            34 2.93  32 2.93
  37  0.333  0.333  0.626-  36 1.56

  LATTYP: Found a hexagonal cell.
 ALAT       =     8.8135128021
 C/A-ratio  =     2.5184286595

  Lattice vectors:

 A1 = (  -4.4067569092,  -7.6327256898,   0.0000000000)
 A2 = (   8.8135128021,   0.0000000000,   0.0000000000)
 A3 = (   0.0000000000,   0.0000000000,  22.1962032318)

Analysis of symmetry for initial positions (statically):
 Subroutine PRICEL returns:
 Original cell was already a primitive cell.

 Routine SETGRP: Setting up the symmetry group for a
 hexagonal supercell.

 Subroutine GETGRP returns: Found  6 space group operations
 (whereof  6 operations were pure point group operations)
 out of a pool of 24 trial point group operations.

The static configuration has the point symmetry C_3v.

Analysis of symmetry for dynamics (positions and initial velocities):
 Subroutine PRICEL returns:
 Original cell was already a primitive cell.

[...]

The dynamic configuration has the point symmetry C_3v.

Analysis of constrained symmetry for selective dynamics:
 Subroutine PRICEL returns:
 Original cell was already a primitive cell.

 Routine SETGRP: Setting up the symmetry group for a
 hexagonal supercell.

 Subroutine GETGRP returns: Found  6 space group operations
 (whereof  6 operations were pure point group operations)
[...]
     24      -5.0007      2.00000
     25      -4.9968      2.00000
     26      -4.9537      2.00000
     27      -4.8831      2.00000
     28      -4.8029      2.00000
     29      -4.7308      2.00000
     30      -4.7248      2.00000
     31      -4.6988      2.00000
     32      -4.6979      2.00000
     33      -4.6892      2.00000
     34      -4.6560      2.00000
     35      -4.5636      2.00000
     36      -4.5454      2.00000
     37      -4.5181      2.00000
     38      -4.4948      2.00000
     39      -4.4495      2.00000
     40      -4.3485      2.00000
     41      -4.3365      2.00000
     42      -4.2846      2.00000
     43      -4.2594      2.00000
     44      -4.2505      2.00000
     45      -4.2395      2.00000
     46      -4.1657      2.00000
     47      -4.1290      2.00000
     48      -4.0860      2.00000
     49      -4.0684      2.00000
     50      -4.0665      2.00000
     51      -4.0519      2.00000
     52      -4.0476      2.00000
     53      -3.9956      2.00000
     54      -3.9760      2.00000
     55      -3.9545      2.00000
     56      -3.8998      2.00000
     57      -3.8980      2.00000
     58      -3.8917      2.00000
     59      -3.8812      2.00000
     60      -3.8735      2.00000
[...]
    238       6.6740      0.00000
    239       6.7319      0.00000
    240       6.7980      0.00000
    241       6.8546      0.00000
    242       6.8857      0.00000
    243       7.1732      0.00000
    244       7.2064      0.00000
    245       7.3045      0.00000
    246       7.5808      0.00000
    247       7.6019      0.00000
    248       7.6646      0.00000
    249       7.7135      0.00000
    250       7.8530      0.00000
    251       7.9707      0.00000
    252       8.0353      0.00000

 soft charge-density along one line, spin component           1
         0         1         2         3         4         5         6         7         8         9
 total charge-density along one line

------------------------ aborting loop because EDIFF is reached ----------------------------------------

 total charge

# of ion       s       p       d       tot
    1        0.544   0.238   8.771   9.554
    2        0.545   0.240   8.766   9.551
    3        0.545   0.240   8.766   9.551
    4        0.545   0.240   8.766   9.551
    5        0.544   0.242   8.760   9.546
    6        0.545   0.240   8.766   9.551
    7        0.545   0.240   8.766   9.551
    8        0.545   0.240   8.766   9.551
    9        0.542   0.239   8.769   9.551
   10        0.518   0.308   8.771   9.597
   11        0.521   0.304   8.778   9.603
   12        0.518   0.308   8.771   9.597
   13        0.521   0.304   8.778   9.603
   14        0.521   0.304   8.778   9.603
   15        0.515   0.308   8.775   9.598
   16        0.518   0.308   8.771   9.597
   17        0.515   0.308   8.775   9.598
   18        0.515   0.308   8.775   9.598
   19        0.516   0.304   8.773   9.594
   20        0.534   0.310   8.766   9.610
   21        0.534   0.310   8.766   9.610
   22        0.512   0.305   8.771   9.588
   23        0.534   0.310   8.766   9.610
   24        0.512   0.305   8.771   9.588
   25        0.516   0.304   8.773   9.594
   26        0.516   0.304   8.773   9.594
   27        0.512   0.305   8.771   9.588
   28        0.544   0.232   8.770   9.545
   29        0.540   0.233   8.767   9.540
   30        0.540   0.233   8.767   9.540
   31        0.540   0.233   8.767   9.540
   32        0.540   0.233   8.767   9.540
   33        0.540   0.233   8.767   9.540
   34        0.540   0.233   8.767   9.540
   35        0.542   0.233   8.769   9.544
   36        0.466   0.440   8.505   9.411
   37        0.491   0.020   0.000   0.511
tot         19.532   9.997 315.449 344.978

  FORCE on cell =-STRESS in cart. coord.  units (eV):
  Direction    XX          YY          ZZ          XY          YZ          ZX
  Alpha Z  1000.83953  1000.83953  1000.83953
  Ewald  119773.52154119773.52194************    -0.00034    -0.00009    -0.00015
  Hartree128473.19988128473.19988************    -0.00000    -0.00002    -0.00004
  E(xc)   -1783.15534 -1783.15532 -1789.83442    -0.00002    -0.00000    -0.00000
  Local  ************************260924.41621     0.00176     0.00004     0.00006
  n-local   -92.34380   -39.07615   -38.86703    23.99056    -1.32359     1.51299
  augment  2443.47535  2443.47692  2452.30957    -0.00136     0.00001     0.00004
  Kinetic  5488.76408  5502.23549  5535.21137     5.85880     0.04130     0.40743
  Fock        0.00000     0.00000     0.00000     0.00000     0.00000     0.00000
  Total     -19.66158   -19.66158     1.25075    -0.00000     0.00000     0.00000
  in kB     -21.09705   -21.09705     1.34206    -0.00000     0.00000     0.00000

 VOLUME and BASIS-vectors are now :
  energy-cutoff  :      500.00
  volume of cell :     1493.16
      direct lattice vectors                 reciprocal lattice vectors
     8.813512802  0.000000000  0.000000000     0.113462137 -0.065507406  0.000000000
     4.406756909  7.632725690  0.000000000     0.000000000  0.131014796  0.000000000
     0.000000000  0.000000000 22.196203232     0.000000000  0.000000000  0.045052750

  length of vectors
     8.813512802  8.813512802 22.196203232     0.131014796  0.131014796  0.045052750

 FORCES acting on ions
    electron-ion (+dipol)            ewald-force                    non-local-force                 convergence-correction
   -.198E-04 -.163E-04 0.248E+04   0.518E-04 0.433E-04 -.248E+04   0.348E-17 0.145E-17 -.849E+00   -.254E-03 -.160E-03 -.246E+00
   -.191E+00 -.132E-01 0.248E+04   0.107E+00 -.663E-01 -.248E+04   0.490E-01 0.651E-01 -.363E+00   0.369E-01 0.305E-01 -.284E+00
   0.191E+00 -.132E-01 0.248E+04   -.107E+00 -.663E-01 -.248E+04   -.490E-01 0.651E-01 -.363E+00   -.366E-01 0.323E-01 -.283E+00
   -.107E+00 -.159E+00 0.248E+04   -.423E-02 0.125E+00 -.248E+04   0.809E-01 0.986E-02 -.363E+00   0.449E-01 0.167E-01 -.284E+00
   0.705E-05 -.241E-04 0.248E+04   0.952E-04 0.169E-05 -.248E+04   0.244E-17 0.147E-17 -.157E+00   0.420E-02 0.256E-02 -.271E+00
   0.107E+00 -.159E+00 0.248E+04   0.414E-02 0.125E+00 -.248E+04   -.809E-01 0.986E-02 -.363E+00   -.464E-01 0.176E-01 -.283E+00
   0.842E-01 0.172E+00 0.248E+04   -.111E+00 -.591E-01 -.248E+04   0.319E-01 -.750E-01 -.363E+00   0.972E-02 -.479E-01 -.283E+00
   -.843E-01 0.172E+00 0.248E+04   0.111E+00 -.591E-01 -.248E+04   -.319E-01 -.750E-01 -.363E+00   -.797E-02 -.489E-01 -.283E+00
   0.194E-04 -.416E-04 0.248E+04   0.166E-03 -.200E-04 -.248E+04   -.333E-18 0.717E-18 -.611E+00   -.449E-02 -.232E-02 -.268E+00
   -.499E+00 -.288E+00 0.832E+03   0.733E+00 0.423E+00 -.831E+03   -.184E+00 -.106E+00 -.588E+00   -.233E-01 -.136E-01 -.276E-01
   0.142E-04 0.617E+00 0.831E+03   0.149E-03 -.612E+00 -.831E+03   0.398E-08 0.598E-01 -.203E+00   0.410E-02 -.741E-01 -.677E-01
   0.499E+00 -.288E+00 0.832E+03   -.733E+00 0.423E+00 -.831E+03   0.184E+00 -.106E+00 -.588E+00   0.220E-01 -.131E-01 -.283E-01
   0.534E+00 -.308E+00 0.831E+03   -.530E+00 0.306E+00 -.831E+03   0.518E-01 -.299E-01 -.203E+00   -.618E-01 0.409E-01 -.677E-01
   -.534E+00 -.308E+00 0.831E+03   0.530E+00 0.306E+00 -.831E+03   -.518E-01 -.299E-01 -.203E+00   0.687E-01 0.395E-01 -.701E-01
   0.314E-04 -.106E+01 0.830E+03   0.236E-03 0.998E+00 -.830E+03   0.113E-08 0.170E-01 -.500E+00   -.182E-02 0.503E-01 0.171E-01
   -.212E-04 0.576E+00 0.832E+03   0.162E-03 -.846E+00 -.831E+03   0.142E-07 0.213E+00 -.588E+00   -.636E-03 0.256E-01 -.283E-01
   -.922E+00 0.532E+00 0.830E+03   0.865E+00 -.499E+00 -.830E+03   0.147E-01 -.848E-02 -.500E+00   0.429E-01 -.263E-01 0.171E-01
   0.922E+00 0.532E+00 0.830E+03   -.865E+00 -.499E+00 -.830E+03   -.147E-01 -.848E-02 -.500E+00   -.421E-01 -.246E-01 0.187E-01
   -.400E-04 -.210E+01 -.839E+03   0.534E-04 0.200E+01 0.838E+03   0.430E-08 0.646E-01 0.718E+00   0.712E-03 0.664E-01 0.179E+00
   0.713E+01 0.412E+01 -.833E+03   -.642E+01 -.371E+01 0.833E+03   -.666E+00 -.385E+00 -.493E+00   -.221E-01 -.129E-01 0.248E+00
   -.713E+01 0.412E+01 -.833E+03   0.642E+01 -.371E+01 0.833E+03   0.666E+00 -.385E+00 -.493E+00   0.159E-01 -.147E-01 0.247E+00
   0.253E+01 -.146E+01 -.840E+03   -.250E+01 0.145E+01 0.839E+03   0.722E-01 -.417E-01 0.530E+00   -.773E-01 0.497E-01 0.192E+00
   -.138E-04 -.823E+01 -.833E+03   0.144E-03 0.741E+01 0.833E+03   0.512E-07 0.770E+00 -.493E+00   -.507E-02 0.211E-01 0.247E+00
   -.253E+01 -.146E+01 -.840E+03   0.250E+01 0.145E+01 0.839E+03   -.722E-01 -.417E-01 0.530E+00   0.854E-01 0.494E-01 0.192E+00
   0.182E+01 0.105E+01 -.839E+03   -.173E+01 -.998E+00 0.838E+03   -.560E-01 -.323E-01 0.718E+00   -.591E-01 -.342E-01 0.179E+00
   -.182E+01 0.105E+01 -.839E+03   0.173E+01 -.998E+00 0.838E+03   0.560E-01 -.323E-01 0.718E+00   0.582E-01 -.326E-01 0.179E+00
   0.485E-05 0.293E+01 -.840E+03   0.201E-03 -.289E+01 0.839E+03   0.555E-08 0.834E-01 0.530E+00   0.379E-02 -.918E-01 0.192E+00
   -.856E-05 -.112E-04 -.248E+04   0.259E-04 0.318E-04 0.248E+04   0.491E-17 0.442E-18 0.470E+00   -.873E-04 -.680E-04 0.240E+00
   0.140E+01 0.743E+00 -.248E+04   -.138E+01 -.643E+00 0.248E+04   -.764E-01 -.854E-01 0.641E+00   0.471E-01 -.213E-01 0.208E+00
   -.140E+01 0.743E+00 -.248E+04   0.138E+01 -.643E+00 0.248E+04   0.764E-01 -.854E-01 0.641E+00   -.470E-01 -.205E-01 0.208E+00
   0.134E+01 0.844E+00 -.248E+04   -.124E+01 -.870E+00 0.248E+04   -.112E+00 -.235E-01 0.641E+00   0.516E-02 0.514E-01 0.208E+00
   -.134E+01 0.844E+00 -.248E+04   0.124E+01 -.870E+00 0.248E+04   0.112E+00 -.235E-01 0.641E+00   -.557E-02 0.520E-01 0.209E+00
   -.584E-01 -.159E+01 -.248E+04   0.131E+00 0.151E+01 0.248E+04   -.357E-01 0.109E+00 0.641E+00   -.412E-01 -.305E-01 0.208E+00
   0.584E-01 -.159E+01 -.248E+04   -.131E+00 0.151E+01 0.248E+04   0.357E-01 0.109E+00 0.641E+00   0.422E-01 -.308E-01 0.209E+00
   0.274E-04 -.311E-04 -.248E+04   0.150E-03 -.468E-04 0.248E+04   -.771E-18 -.375E-18 0.499E+00   -.393E-02 -.198E-02 0.178E+00
   -.903E-05 -.259E-04 -.215E+04   0.992E-04 0.867E-05 0.216E+04   0.433E-17 0.259E-17 -.470E+01   0.393E-02 0.241E-02 0.923E-01
   0.631E-05 -.413E-05 -.297E+03   0.432E-05 0.272E-06 0.299E+03   -.337E-19 -.381E-19 -.251E+01   0.122E-03 0.742E-04 -.101E-01
   -.768E-03 -.799E-03 0.787E+01   -.178E-13 0.105E-14 -.279E-11   -.107E-15 -.256E-16 -.780E+01   0.928E-02 0.603E-02 0.881E+00

 POSITION                                       TOTAL-FORCE (eV/Angst)
      0.00000      0.00000      5.28038        -0.000000      0.000000     -0.102584
      2.93784      0.00000      5.28038         0.001544      0.017015     -0.047070
      5.87568      0.00000      5.28038        -0.001544      0.017015     -0.047070
      1.46892      2.54424      5.28038         0.015507     -0.007170     -0.047070
      4.40676      2.54424      5.28038        -0.000000     -0.000000     -0.049652
      7.34459      2.54424      5.28038        -0.015507     -0.007170     -0.047070
      2.93784      5.08848      5.28038         0.013963     -0.009845     -0.047070
      5.87568      5.08848      5.28038        -0.013963     -0.009845     -0.047070
      8.81351      5.08848      5.28038        -0.000000      0.000000     -0.060545
      1.46892      0.84808      7.67911         0.026939      0.015553      0.069754
      4.40676      0.84808      7.67911        -0.000000     -0.010973      0.087263
      7.34459      0.84808      7.67911        -0.026939      0.015553      0.069754
      2.93784      3.39232      7.67911        -0.009503      0.005486      0.087263
      5.87568      3.39232      7.67911         0.009503      0.005486      0.087263
      8.81351      3.39232      7.67911         0.000000      0.000633      0.085229
      4.40676      5.93656      7.67911        -0.000000     -0.031107      0.069754
      7.34459      5.93656      7.67911         0.000548     -0.000317      0.085229
     10.28243      5.93656      7.67911        -0.000548     -0.000317      0.085229
      8.81351      1.69299     10.06281         0.000000      0.023438      0.028108
      2.93673      1.69552     10.07074         0.024444      0.014113     -0.150518
      5.87678      1.69552     10.07074        -0.024444      0.014113     -0.150518
     10.28200      4.24065     10.07064         0.022365     -0.012912      0.000701
      4.40676      4.24168     10.07074        -0.000000     -0.028226     -0.150518
      7.34503      4.24065     10.07064        -0.022365     -0.012912      0.000701
     11.75410      6.78623     10.06281        -0.020298     -0.011719      0.028108
      5.87293      6.78623     10.06281         0.020298     -0.011719      0.028108
      8.81351      6.78414     10.07064         0.000000      0.025825      0.000701
      0.00000      0.00000     12.49359        -0.000000      0.000000     -0.046246
      2.94266      0.00661     12.49157        -0.001548     -0.006680     -0.013949
      5.87086      0.00661     12.49157         0.001548     -0.006680     -0.013949
      1.47706      2.54511     12.49157        -0.006559      0.001999     -0.013949
      7.33646      2.54511     12.49157         0.006559      0.001999     -0.013949
      2.94116      5.08100     12.49157        -0.005011      0.004681     -0.013949
      5.87236      5.08100     12.49157         0.005011      0.004681     -0.013949
      8.81351      5.08848     12.49778        -0.000000      0.000000     -0.038201
      4.40676      2.54424     12.34091        -0.000000     -0.000000      0.329115
      4.40676      2.54424     13.89683        -0.000000      0.000000     -0.027384
    total drift:                                0.008514      0.005227      0.947578

  FREE ENERGIE OF THE ION-ELECTRON SYSTEM (eV)
  free  energy   TOTEN  =      -115.19103760 eV

  energy  without entropy=     -115.19103760  energy(sigma->0) =     -115.19103760

 stress matrix after NEB project (eV)
    -19.66158     -0.00000      0.00000
     -0.00000    -19.66158      0.00000
     -0.00000      0.00000      1.25075
  FORCES: max atom, RMS     0.027384    0.004502
  FORCE total and by dimension    0.027384    0.027384
  Stress total and by dimension   27.833792   19.661583
|           W    W    AA    RRRRR   N    N  II  N    N   GGGG   !!!           |
|           W    W   A  A   R    R  NN   N  II  NN   N  G    G  !!!           |
|           W    W  A    A  R    R  N N  N  II  N N  N  G       !!!           |
|           W WW W  AAAAAA  RRRRR   N  N N  II  N  N N  G  GGG   !            |
|           WW  WW  A    A  R   R   N   NN  II  N   NN  G    G                |
|           W    W  A    A  R    R  N    N  II  N    N   GGGG   !!!           |
|     Tetrahedron method does not include variations of the Fermi             |
|     occupations, so forces and stress will be inaccurate. We suggest        |
|     using a different smearing scheme ISMEAR = 1 or 2 for metals in         |
|     relaxations.                                                            |

 total charge

# of ion       s       p       d       tot
    1        0.544   0.238   8.771   9.554
    2        0.545   0.240   8.766   9.551
    3        0.545   0.240   8.766   9.551
    4        0.545   0.240   8.766   9.551
    5        0.544   0.242   8.760   9.546
    6        0.545   0.240   8.766   9.551
    7        0.545   0.240   8.766   9.551
    8        0.545   0.240   8.766   9.551
    9        0.542   0.239   8.769   9.551
   10        0.518   0.308   8.771   9.597
   11        0.521   0.304   8.778   9.603
   12        0.518   0.308   8.771   9.597
   13        0.521   0.304   8.778   9.603
   14        0.521   0.304   8.778   9.603
   15        0.515   0.308   8.775   9.598
   16        0.518   0.308   8.771   9.597
   17        0.515   0.308   8.775   9.598
   18        0.515   0.308   8.775   9.598
   19        0.516   0.304   8.773   9.594
   20        0.534   0.310   8.766   9.610
   21        0.534   0.310   8.766   9.610
   22        0.512   0.305   8.771   9.588
   23        0.534   0.310   8.766   9.610
   24        0.512   0.305   8.771   9.588
   25        0.516   0.304   8.773   9.594
   26        0.516   0.304   8.773   9.594
   27        0.512   0.305   8.771   9.588
   28        0.544   0.232   8.770   9.545
   29        0.540   0.233   8.767   9.540
   30        0.540   0.233   8.767   9.540
   31        0.540   0.233   8.767   9.540
   32        0.540   0.233   8.767   9.540
   33        0.540   0.233   8.767   9.540
   34        0.540   0.233   8.767   9.540
   35        0.542   0.233   8.769   9.544
   36        0.466   0.440   8.505   9.411
   37        0.491   0.020   0.000   0.511
tot         19.532   9.997 315.449 344.978

 BZINTS: Fermi energy:    0.682960;  396.000000 electrons
         Band energy:-0.117379E+04;  BLOECHL correction:   -0.115579