 vasp.6.2.0 18Jan21 (build Jun 12 2021 23:27:24) complex

 executed on             LinuxIFC date 2022.05.27  05:04:51

 INCAR:
   ISMEAR = -5
   SIGMA = 0.1
   ISPIN = 1
   EDIFF = 1.d-5
   EDIFFG = -0.01
   NSW = 0
   NELM = 150
   ENCUT = 500
   ISIF = 2
   IBRION = 2
   LREAL = Auto
   ALGO = Fast
   ICHARG = 11
   LORBIT = 10
   LCHARG = .F.
   LWAVE = .F.

 POTCAR:    PAW_PBE Au 04Oct2007
 POTCAR:    PAW_PBE Co 02Aug2007
 POTCAR:    PAW_PBE N 08Apr2002
|           W    W    AA    RRRRR   N    N  II  N    N   GGGG   !!!           |
|           W    W   A  A   R    R  NN   N  II  NN   N  G    G  !!!           |
|           W    W  A    A  R    R  N N  N  II  N N  N  G       !!!           |
|           W WW W  AAAAAA  RRRRR   N  N N  II  N  N N  G  GGG   !            |
|           WW  WW  A    A  R   R   N   NN  II  N   NN  G    G                |
|           W    W  A    A  R    R  N    N  II  N    N   GGGG   !!!           |
|     For optimal performance we recommend to set                             |
|       NCORE = 2 up to number-of-cores-per-socket                            |
|     This setting can greatly improve the performance of VASP for DFT.       |
|     The default, NCORE=1 might be grossly inefficient on modern             |
|     multi-core architectures or massively parallel machines. Do your        |
|     Unfortunately you need to use the default for GW and RPA                |
|     calculations (for HF NCORE is supported but not extensively tested      |
|     yet).                                                                   |

 POTCAR:    PAW_PBE Au 04Oct2007
   VRHFIN =Au: s1d10

   TITEL  = PAW_PBE Au 04Oct2007
   POMASS =  196.966; ZVAL   =   11.000    mass and valenz
   ENMAX  =  229.943; ENMIN  =  172.457 eV

 POTCAR:    PAW_PBE Co 02Aug2007
   VRHFIN =Co: d8 s1

   TITEL  = PAW_PBE Co 02Aug2007
   POMASS =   58.933; ZVAL   =    9.000    mass and valenz
   ENMAX  =  267.968; ENMIN  =  200.976 eV

 POTCAR:    PAW_PBE N 08Apr2002
   VRHFIN =N: s2p3

   TITEL  = PAW_PBE N 08Apr2002
   POMASS =   14.001; ZVAL   =    5.000    mass and valenz
   ENMAX  =  400.000; ENMIN  =  300.000 eV

 Optimization of the real space projectors (new method)

 maximal supplied QI-value         = 15.12
 optimisation between [QCUT,QGAM] = [ 11.34, 22.83] = [ 36.00,145.93] Ry
 Optimized for a Real-space Cutoff    1.39 Angstroem

   l    n(q)    QCUT    max X(q) W(low)/X(q) W(high)/X(q)  e(spline)
   2      9    11.338    60.898    0.39E-03    0.42E-03    0.21E-06
   2      9    11.338    58.894    0.40E-03    0.42E-03    0.22E-06
   0      9    11.338   109.617    0.13E-03    0.20E-04    0.13E-06
   0      9    11.338    75.026    0.13E-03    0.20E-04    0.13E-06
   1      9    11.338    16.344    0.33E-04    0.24E-03    0.18E-06
   1      9    11.338    10.160    0.26E-04    0.19E-03    0.15E-06
 Optimization of the real space projectors (new method)

[...]

   l    n(q)    QCUT    max X(q) W(low)/X(q) W(high)/X(q)  e(spline)
   2      8    11.376    65.824    0.20E-03    0.32E-04    0.13E-06
   2      8    11.376    61.429    0.20E-03    0.33E-04    0.14E-06
   0      9    11.376    56.174    0.76E-04    0.11E-03    0.19E-06
   0      9    11.376    31.263    0.69E-04    0.99E-04    0.17E-06
   1      9    11.376    19.828    0.35E-03    0.11E-03    0.12E-06
   1      9    11.376    15.139    0.29E-03    0.94E-04    0.10E-06
 Optimization of the real space projectors (new method)

 maximal supplied QI-value         = 25.13
 optimisation between [QCUT,QGAM] = [ 11.31, 22.87] = [ 35.82,146.48] Ry
 Optimized for a Real-space Cutoff    1.27 Angstroem

   l    n(q)    QCUT    max X(q) W(low)/X(q) W(high)/X(q)  e(spline)
   0      9    11.310    79.467    0.75E-04    0.16E-03    0.36E-06
   0      9    11.310    66.151    0.74E-04    0.16E-03    0.36E-06
   1      8    11.310    17.416    0.35E-03    0.12E-03    0.95E-06
   1      8    11.310    12.382    0.37E-03    0.13E-03    0.98E-06
  PAW_PBE Au 04Oct2007                  :
  PAW_PBE Co 02Aug2007                  :
  PAW_PBE N 08Apr2002                   :

 POSCAR: Au-Co-N2
  positions in direct lattice
  velocities in cartesian coordinates
 exchange correlation table for  LEXCH =        8
   RHO(1)=    0.500       N(1)  =     2000
   RHO(2)=  100.500       N(2)  =     4000

 VTST: version 3.2, (02/03/18)

 CHAIN: initializing optimizer

 OPT: Using VASP Conjugate-Gradient optimizer
 CHAIN: Read ICHAIN            0

 POSCAR: Au-Co-N2
  positions in direct lattice
  velocities in cartesian coordinates

 ion  position               nearest neighbor table
   1  0.000  0.000  0.203-  16 2.94  12 2.94   6 2.94   8 2.94   7 2.94   3 2.94  10 2.94   4 2.94
                             2 2.94
   2  0.333  0.000  0.203-   9 2.94  11 2.94  17 2.94  10 2.94   8 2.94   4 2.94   5 2.94   1 2.94
                             3 2.94
   3  0.667  0.000  0.203-   7 2.94  18 2.94  12 2.94   1 2.94  11 2.94   5 2.94   6 2.94   9 2.94
                             2 2.94
   4  0.000  0.333  0.203-  10 2.94   6 2.94   5 2.94  13 2.94   2 2.94  15 2.94   9 2.94   1 2.94
                             7 2.94
   5  0.333  0.333  0.203-  13 2.94   7 2.94  11 2.94   4 2.94   2 2.94  14 2.94   3 2.94   8 2.94
                             6 2.94
   6  0.667  0.333  0.203-  15 2.94  14 2.94   1 2.94  12 2.94   4 2.94   9 2.94   8 2.94   3 2.94
                             5 2.94
   7  0.000  0.667  0.203-  18 2.94   3 2.94  16 2.94   5 2.94   1 2.94  13 2.94   8 2.94   4 2.94
                             9 2.94
   8  0.333  0.667  0.203-   9 2.94  17 2.94   1 2.94   2 2.94  14 2.94  16 2.94   6 2.94   7 2.94
                             5 2.94
   9  0.667  0.667  0.203-   2 2.94   8 2.94  17 2.94   6 2.94  15 2.94   4 2.94   3 2.94  18 2.94
                             7 2.94
  10  0.111  0.111  0.295-  20 2.92  26 2.93  19 2.93  11 2.94  17 2.94   2 2.94   4 2.94   1 2.94
                            12 2.94  16 2.94  13 2.94  15 2.94
  11  0.444  0.111  0.295-  20 2.91  21 2.91  27 2.93  13 2.94   2 2.94  10 2.94  17 2.94   5 2.94
                             3 2.94  18 2.94  14 2.94  12 2.94
  12  0.778  0.111  0.295-  21 2.92  25 2.93  19 2.93  16 2.94  18 2.94   1 2.94  14 2.94  15 2.94
                             3 2.94   6 2.94  10 2.94  11 2.94
  13  0.111  0.444  0.295-  23 2.91  20 2.91  22 2.93   5 2.94  18 2.94  11 2.94   7 2.94   4 2.94
                            16 2.94  10 2.94  14 2.94  15 2.94
  14  0.444  0.444  0.295-  21 2.91  23 2.91  24 2.93  15 2.94   6 2.94  12 2.94   8 2.94  17 2.94
                             5 2.94  16 2.94  13 2.94  11 2.94
  15  0.778  0.444  0.295-  24 2.92  22 2.92  19 2.93  14 2.94   6 2.94  17 2.94  12 2.94   9 2.94
                             4 2.94  10 2.94  13 2.94  18 2.94
  16  0.111  0.778  0.295-  23 2.92  25 2.93  26 2.93  18 2.94  12 2.94   7 2.94   1 2.94   8 2.94
                            13 2.94  10 2.94  14 2.94  17 2.94
  17  0.444  0.778  0.295-  27 2.92  24 2.92  26 2.93   9 2.94  15 2.94   2 2.94  10 2.94  11 2.94
                             8 2.94  14 2.94  16 2.94  18 2.94
  18  0.778  0.778  0.295-  22 2.92  27 2.92  25 2.93  16 2.94   7 2.94  13 2.94  12 2.94   3 2.94
                            11 2.94   9 2.94  15 2.94  17 2.94
  19  0.889  0.222  0.387-  10 2.93  12 2.93  15 2.93  26 2.94  25 2.94  24 2.94  22 2.94  28 2.94
                            21 2.95  20 2.95  32 2.96  31 2.96
  20  0.223  0.223  0.386-  36 2.69  29 2.91  31 2.91  11 2.91  13 2.91  23 2.91  21 2.91  10 2.92
                            27 2.95  22 2.95  26 2.95  19 2.95
  21  0.554  0.223  0.386-  36 2.69  30 2.91  32 2.91  14 2.91  11 2.91  20 2.91  23 2.91  12 2.92
                            27 2.95  24 2.95  25 2.95  19 2.95
  22  0.887  0.557  0.386-  24 2.91  27 2.91  18 2.92  15 2.92  13 2.93  25 2.94  19 2.94  33 2.94
                            31 2.94  23 2.95  20 2.95  35 2.96
  23  0.223  0.554  0.386-  36 2.69  33 2.91  34 2.91  13 2.91  14 2.91  20 2.91  21 2.91  16 2.92
                            22 2.95  24 2.95  25 2.95  26 2.95
  24  0.557  0.557  0.386-  27 2.91  22 2.91  15 2.92  17 2.92  14 2.93  26 2.94  19 2.94  32 2.94
                            34 2.94  21 2.95  23 2.95  35 2.96
  25  0.889  0.889  0.387-  16 2.93  12 2.93  18 2.93  19 2.94  26 2.94  22 2.94  27 2.94  28 2.94
                            23 2.95  21 2.95  33 2.96  30 2.96
  26  0.222  0.889  0.387-  10 2.93  16 2.93  17 2.93  19 2.94  25 2.94  27 2.94  24 2.94  28 2.94
                            20 2.95  23 2.95  29 2.96  34 2.96
  27  0.557  0.887  0.386-  24 2.91  22 2.91  17 2.92  18 2.92  11 2.93  26 2.94  25 2.94  29 2.94
                            30 2.94  20 2.95  21 2.95  35 2.96
  28  0.000  0.000  0.479-  25 2.94  19 2.94  26 2.94  34 2.98  32 2.98  33 2.98  30 2.98  31 2.98
                            29 2.98
  29  0.334  0.008  0.478-  30 2.86  31 2.87  36 2.88  20 2.91  27 2.94  26 2.96  35 2.98  28 2.98
                            34 3.09
  30  0.658  0.008  0.478-  29 2.86  32 2.87  36 2.88  21 2.91  27 2.94  25 2.96  35 2.98  28 2.98
                            33 3.09
  31  0.008  0.334  0.478-  33 2.86  29 2.87  36 2.88  20 2.91  22 2.94  19 2.96  35 2.98  28 2.98
                            32 3.09
  32  0.658  0.334  0.478-  34 2.86  30 2.87  36 2.88  21 2.91  24 2.94  19 2.96  35 2.98  28 2.98
                            31 3.09
  33  0.008  0.658  0.478-  31 2.86  34 2.87  36 2.88  23 2.91  22 2.94  25 2.96  35 2.98  28 2.98
                            30 3.09
  34  0.334  0.658  0.478-  32 2.86  33 2.87  36 2.88  23 2.91  24 2.94  26 2.96  35 2.98  28 2.98
                            29 3.09
  35  0.667  0.667  0.480-  24 2.96  27 2.96  22 2.96  29 2.98  34 2.98  32 2.98  31 2.98  30 2.98
                            33 2.98
  36  0.333  0.333  0.467-  20 2.69  23 2.69  21 2.69  33 2.88  31 2.88  29 2.88  30 2.88  34 2.88
                            32 2.88
  37  0.273  0.328  0.627-  38 1.11
  38  0.399  0.328  0.627-  37 1.11

  LATTYP: Found a hexagonal cell.
 ALAT       =     8.8135128021
 C/A-ratio  =     2.9548556058

  Lattice vectors:

 A1 = (  -4.4067569092,  -7.6327256898,   0.0000000000)
 A2 = (   8.8135128021,   0.0000000000,   0.0000000000)
 A3 = (   0.0000000000,   0.0000000000,  26.0426577102)

Analysis of symmetry for initial positions (statically):
 Subroutine PRICEL returns:
 Original cell was already a primitive cell.

 Routine SETGRP: Setting up the symmetry group for a
 hexagonal supercell.

 Subroutine GETGRP returns: Found  2 space group operations
 (whereof  2 operations were pure point group operations)
 out of a pool of 24 trial point group operations.

The static configuration has the point symmetry C_1h.

Analysis of symmetry for dynamics (positions and initial velocities):
 Subroutine PRICEL returns:
 Original cell was already a primitive cell.

[...]

The dynamic configuration has the point symmetry C_1h.

Analysis of constrained symmetry for selective dynamics:
 Subroutine PRICEL returns:
 Original cell was already a primitive cell.

 Routine SETGRP: Setting up the symmetry group for a
 hexagonal supercell.

[...]
     33      -5.5606      2.00000
     34      -5.5542      2.00000
     35      -5.5412      2.00000
     36      -5.5364      2.00000
     37      -5.5215      2.00000
     38      -5.4539      2.00000
     39      -5.3587      2.00000
     40      -5.3371      2.00000
     41      -5.3306      2.00000
     42      -5.3261      2.00000
     43      -5.2742      2.00000
     44      -5.1897      2.00000
     45      -5.1547      2.00000
     46      -5.0995      2.00000
     47      -5.0965      2.00000
     48      -5.0756      2.00000
     49      -5.0744      2.00000
     50      -5.0662      2.00000
     51      -4.9598      2.00000
     52      -4.9510      2.00000
     53      -4.9158      2.00000
     54      -4.8989      2.00000
     55      -4.8941      2.00000
     56      -4.8844      2.00000
     57      -4.8627      2.00000
     58      -4.8311      2.00000
     59      -4.7898      2.00000
     60      -4.7816      2.00000
[...]
    242       5.6479      0.00000
    243       5.6751      0.00000
    244       5.7052      0.00000
    245       5.8352      0.00000
    246       6.0008      0.00000
    247       6.0323      0.00000
    248       6.0494      0.00000
    249       6.1264      0.00000
    250       6.2789      0.00000
    251       6.2883      0.00000
    252       6.3337      0.00000
    253       6.3457      0.00000
    254       6.3800      0.00000
    255       6.4080      0.00000
    256       6.5230      0.00000

 soft charge-density along one line, spin component           1
         0         1         2         3         4         5         6         7         8         9
 total charge-density along one line

------------------------ aborting loop because EDIFF is reached ----------------------------------------

 total charge

# of ion       s       p       d       tot
    1        0.545   0.239   8.766   9.550
    2        0.545   0.241   8.765   9.550
    3        0.545   0.241   8.765   9.550
    4        0.545   0.241   8.765   9.550
    5        0.542   0.242   8.763   9.546
    6        0.545   0.241   8.765   9.550
    7        0.545   0.241   8.765   9.550
    8        0.545   0.241   8.765   9.550
    9        0.543   0.239   8.768   9.551
   10        0.522   0.308   8.769   9.599
   11        0.521   0.308   8.779   9.608
   12        0.522   0.308   8.769   9.599
   13        0.521   0.308   8.779   9.608
   14        0.521   0.308   8.779   9.608
   15        0.518   0.309   8.776   9.603
   16        0.522   0.308   8.769   9.599
   17        0.518   0.309   8.776   9.603
   18        0.518   0.309   8.776   9.603
   19        0.517   0.303   8.776   9.596
   20        0.539   0.328   8.757   9.624
   21        0.539   0.328   8.757   9.624
   22        0.512   0.311   8.776   9.599
   23        0.539   0.328   8.757   9.624
   24        0.512   0.311   8.776   9.599
   25        0.517   0.303   8.776   9.596
   26        0.517   0.303   8.776   9.596
   27        0.512   0.311   8.776   9.599
   28        0.539   0.226   8.768   9.533
   29        0.555   0.237   8.756   9.548
   30        0.555   0.237   8.756   9.548
   31        0.555   0.237   8.756   9.548
   32        0.555   0.237   8.756   9.548
   33        0.555   0.237   8.756   9.548
   34        0.555   0.237   8.756   9.548
   35        0.535   0.224   8.769   9.529
   36        0.316   0.224   7.257   7.796
   37        1.373   2.469   0.000   3.842
   38        1.373   2.469   0.000   3.842
tot         21.754  14.797 314.113 350.663

  FORCE on cell =-STRESS in cart. coord.  units (eV):
  Direction    XX          YY          ZZ          XY          YZ          ZX
  Alpha Z   875.45036   875.45036   875.45036
  Ewald  174034.62754173713.70718************    -0.00032     0.51950    -0.00015
  Hartree182347.32349182233.22479************     0.00001     0.41089    -0.00004
  E(xc)   -1814.24547 -1815.48627 -1822.53757    -0.00004    -0.00001    -0.00000
  Local  ************************368394.94471     0.00252    -0.93812     0.00005
  n-local   -95.86519   -83.32514   -59.60495     4.52113     0.00167     0.29619
  augment  2523.94371  2523.63757  2539.31734    -0.00145     0.00253     0.00004
  Kinetic  5597.51286  5615.59020  5668.12300     1.09172     0.00382     0.25321
  Fock        0.00000     0.00000     0.00000     0.00000     0.00000     0.00000
  Total     -25.56110   -25.55473     0.33131    -0.00000     0.00028     0.00000
  in kB     -23.37632   -23.37049     0.30299    -0.00000     0.00026     0.00000

 VOLUME and BASIS-vectors are now :
  energy-cutoff  :      500.00
  volume of cell :     1751.92
      direct lattice vectors                 reciprocal lattice vectors
     8.813512802  0.000000000  0.000000000     0.113462137 -0.065507406  0.000000000
     4.406756909  7.632725690  0.000000000     0.000000000  0.131014796  0.000000000
     0.000000000  0.000000000 26.042657710     0.000000000  0.000000000  0.038398539

  length of vectors
     8.813512802  8.813512802 26.042657710     0.131014796  0.131014796  0.038398539

 FORCES acting on ions
    electron-ion (+dipol)            ewald-force                    non-local-force                 convergence-correction
   -.200E-04 0.289E-02 0.278E+04   0.519E-04 -.309E-02 -.278E+04   -.320E-10 -.481E-03 -.741E+00   -.174E-03 0.434E-03 -.330E+00
   0.594E+00 0.388E+00 0.278E+04   -.597E+00 -.409E+00 -.278E+04   0.118E-01 0.139E-01 -.333E+00   -.109E-01 0.932E-02 -.350E+00
   -.594E+00 0.388E+00 0.278E+04   0.597E+00 -.409E+00 -.278E+04   -.118E-01 0.139E-01 -.333E+00   0.111E-01 0.113E-01 -.349E+00
   0.631E+00 0.315E+00 0.278E+04   -.650E+00 -.312E+00 -.278E+04   0.185E-01 0.305E-02 -.335E+00   0.210E-02 -.935E-02 -.347E+00
   0.746E-05 -.943E-02 0.278E+04   0.951E-04 0.165E-02 -.278E+04   -.224E-11 -.336E-04 -.301E+00   0.427E-02 0.797E-02 -.327E+00
   -.631E+00 0.315E+00 0.278E+04   0.650E+00 -.312E+00 -.278E+04   -.185E-01 0.305E-02 -.335E+00   -.363E-02 -.836E-02 -.346E+00
   0.372E-01 -.703E+00 0.278E+04   -.532E-01 0.721E+00 -.278E+04   0.637E-02 -.170E-01 -.333E+00   0.146E-01 -.626E-03 -.346E+00
   -.373E-01 -.703E+00 0.278E+04   0.530E-01 0.721E+00 -.278E+04   -.637E-02 -.170E-01 -.333E+00   -.127E-01 -.169E-02 -.345E+00
   0.197E-04 0.638E-02 0.278E+04   0.166E-03 0.148E-02 -.278E+04   0.426E-10 0.639E-03 -.432E+00   -.464E-02 -.848E-02 -.367E+00
   0.455E+01 0.264E+01 0.959E+03   -.428E+01 -.249E+01 -.958E+03   -.195E+00 -.112E+00 -.662E+00   -.338E-01 -.146E-01 0.213E+00
   0.145E-04 0.556E+01 0.967E+03   0.147E-03 -.567E+01 -.967E+03   0.606E-09 0.910E-02 -.406E+00   0.364E-02 0.677E-01 0.343E+00
   -.455E+01 0.264E+01 0.959E+03   0.428E+01 -.249E+01 -.958E+03   0.195E+00 -.112E+00 -.662E+00   0.325E-01 -.134E-01 0.212E+00
   0.481E+01 -.280E+01 0.967E+03   -.490E+01 0.285E+01 -.967E+03   0.783E-02 -.434E-02 -.407E+00   0.547E-01 -.240E-01 0.344E+00
   -.481E+01 -.280E+01 0.967E+03   0.490E+01 0.285E+01 -.967E+03   -.783E-02 -.434E-02 -.407E+00   -.471E-01 -.242E-01 0.344E+00
   0.313E-04 0.298E+01 0.961E+03   0.236E-03 -.302E+01 -.961E+03   0.935E-09 0.140E-01 -.502E+00   -.216E-02 -.136E-01 0.215E+00
   -.217E-04 -.524E+01 0.959E+03   0.163E-03 0.494E+01 -.958E+03   0.150E-07 0.225E+00 -.661E+00   0.340E-03 0.305E-01 0.211E+00
   0.260E+01 -.149E+01 0.961E+03   -.263E+01 0.151E+01 -.961E+03   0.122E-01 -.717E-02 -.499E+00   -.145E-01 -.119E-02 0.210E+00
   -.260E+01 -.149E+01 0.961E+03   0.263E+01 0.151E+01 -.961E+03   -.122E-01 -.717E-02 -.499E+00   0.144E-01 0.584E-03 0.210E+00
   -.397E-04 0.186E+01 -.894E+03   0.540E-04 -.196E+01 0.893E+03   0.178E-08 0.267E-01 0.466E+00   0.348E-02 0.799E-01 0.792E+00
   0.284E+02 0.164E+02 -.851E+03   -.284E+02 -.164E+02 0.850E+03   -.683E+00 -.393E+00 -.606E+00   0.655E+00 0.389E+00 0.174E+01
   -.284E+02 0.164E+02 -.851E+03   0.284E+02 -.164E+02 0.850E+03   0.683E+00 -.393E+00 -.606E+00   -.656E+00 0.391E+00 0.174E+01
   0.576E+01 -.345E+01 -.880E+03   -.637E+01 0.382E+01 0.879E+03   0.304E+00 -.178E+00 0.553E+00   0.307E+00 -.194E+00 0.950E+00
   -.113E-04 -.329E+02 -.851E+03   0.143E-03 0.329E+02 0.850E+03   0.524E-07 0.787E+00 -.606E+00   0.164E-02 -.765E+00 0.174E+01
   -.576E+01 -.345E+01 -.880E+03   0.637E+01 0.382E+01 0.879E+03   -.304E+00 -.178E+00 0.553E+00   -.314E+00 -.193E+00 0.950E+00
   -.162E+01 -.807E+00 -.894E+03   0.168E+01 0.849E+00 0.893E+03   -.209E-01 -.119E-01 0.462E+00   -.478E-01 -.316E-01 0.791E+00
   0.162E+01 -.807E+00 -.894E+03   -.168E+01 0.849E+00 0.893E+03   0.209E-01 -.119E-01 0.462E+00   0.498E-01 -.322E-01 0.791E+00
   0.107E-04 0.676E+01 -.880E+03   0.198E-03 -.747E+01 0.879E+03   0.234E-07 0.352E+00 0.552E+00   -.451E-02 0.355E+00 0.950E+00
   -.115E-04 0.954E+00 -.270E+04   0.291E-04 -.957E+00 0.270E+04   -.505E-11 -.759E-04 0.601E+00   0.402E-03 0.280E-02 0.786E+00
   0.195E+02 0.321E+02 -.268E+04   -.194E+02 -.321E+02 0.268E+04   -.629E+00 -.947E+00 0.317E+00   0.547E+00 0.907E+00 0.704E+00
   -.195E+02 0.321E+02 -.268E+04   0.194E+02 -.321E+02 0.268E+04   0.629E+00 -.947E+00 0.317E+00   -.548E+00 0.909E+00 0.705E+00
   0.370E+02 0.958E+00 -.268E+04   -.369E+02 -.912E+00 0.268E+04   -.113E+01 -.691E-01 0.350E+00   0.106E+01 0.269E-01 0.699E+00
   -.370E+02 0.958E+00 -.268E+04   0.369E+02 -.912E+00 0.268E+04   0.113E+01 -.691E-01 0.350E+00   -.106E+01 0.283E-01 0.699E+00
   0.168E+02 -.330E+02 -.268E+04   -.168E+02 0.329E+02 0.268E+04   -.509E+00 0.102E+01 0.317E+00   0.510E+00 -.934E+00 0.702E+00
   -.168E+02 -.330E+02 -.268E+04   0.168E+02 0.329E+02 0.268E+04   0.509E+00 0.102E+01 0.317E+00   -.508E+00 -.935E+00 0.701E+00
   0.342E-04 -.495E+00 -.271E+04   0.143E-03 0.507E+00 0.270E+04   0.639E-11 0.960E-04 0.569E+00   -.468E-02 -.119E-01 0.746E+00
   -.390E-04 -.453E+00 -.207E+04   0.951E-04 0.448E+00 0.207E+04   -.176E-09 -.265E-02 0.254E+01   0.586E-02 0.836E-02 0.955E+00
   0.240E+03 -.858E-01 -.112E+04   -.286E+03 0.854E-01 0.112E+04   0.456E+02 -.258E-03 -.323E-01   0.305E-01 -.283E-03 -.232E+00
   -.240E+03 -.858E-01 -.112E+04   0.286E+03 0.854E-01 0.112E+04   -.456E+02 -.258E-03 -.323E-01   -.305E-01 -.266E-03 -.232E+00
   -.609E-03 -.865E-02 -.145E+02   0.171E-12 0.152E-12 0.000E+00   -.198E-09 -.297E-02 -.134E+01   0.588E-02 0.101E-01 0.159E+02

 POSITION                                       TOTAL-FORCE (eV/Angst)
      0.00000      0.00000      5.28038        -0.000000     -0.000211     -0.080557
      2.93784      0.00000      5.28038        -0.001825      0.003631     -0.070729
      5.87568      0.00000      5.28038         0.001825      0.003631     -0.070729
      1.46892      2.54424      5.28038         0.002353     -0.003394     -0.071057
      4.40676      2.54424      5.28038         0.000000      0.000187     -0.101444
      7.34459      2.54424      5.28038        -0.002353     -0.003394     -0.071057
      2.93784      5.08848      5.28038         0.004198     -0.000113     -0.071004
      5.87568      5.08848      5.28038        -0.004198     -0.000113     -0.071004
      8.81351      5.08848      5.28038         0.000000      0.000062     -0.080245
      1.46892      0.84808      7.67911         0.037334      0.021883      0.094695
      4.40676      0.84808      7.67911        -0.000000     -0.033422      0.006884
      7.34459      0.84808      7.67911        -0.037334      0.021883      0.094695
      2.93784      3.39232      7.67911        -0.029330      0.017159      0.006616
      5.87568      3.39232      7.67911         0.029330      0.017159      0.006616
      8.81351      3.39232      7.67911        -0.000000     -0.037961      0.069517
      4.40676      5.93656      7.67911        -0.000000     -0.043465      0.094767
      7.34459      5.93656      7.67911        -0.032906      0.018715      0.069877
     10.28243      5.93656      7.67911         0.032906      0.018715      0.069877
      8.81351      1.69524     10.07173         0.000000      0.005510      0.001807
      2.95099      1.70376     10.05075         0.004331      0.002527      0.002900
      5.86252      1.70376     10.05075        -0.004331      0.002527      0.002900
     10.26977      4.24772     10.05674         0.002903     -0.001713      0.032716
      4.40676      4.22522     10.05075        -0.000000     -0.005079      0.002448
      7.35726      4.24772     10.05674        -0.002903     -0.001713      0.032716
     11.75215      6.78511     10.07173        -0.004537     -0.002480      0.000136
      5.87488      6.78511     10.07173         0.004537     -0.002480      0.000136
      8.81351      6.77002     10.05674         0.000000      0.003276      0.031698
      0.00000      0.00000     12.47665        -0.000000     -0.000485     -0.029697
      2.97645      0.06424     12.45579         0.001409     -0.007466      0.019569
      5.83706      0.06424     12.45579        -0.001409     -0.007466      0.019569
      1.54386      2.54556     12.45579        -0.004984      0.004888      0.020286
      7.26966      2.54556     12.45579         0.004984      0.004888      0.020286
      2.97417      5.02293     12.45579        -0.006487      0.002520      0.019792
      5.83935      5.02293     12.45579         0.006487      0.002520      0.019792
      8.81351      5.08848     12.49078         0.000000      0.000387     -0.062804
      4.40676      2.54424     12.15093         0.000000      0.000546      0.033295
      3.84987      2.50488     16.32304         0.000780     -0.000831      0.003369
      4.96365      2.50488     16.32304        -0.000780     -0.000831      0.003369
    total drift:                                0.005273     -0.001489      0.046017

  FREE ENERGIE OF THE ION-ELECTRON SYSTEM (eV)
  free  energy   TOTEN  =      -128.71865707 eV

  energy  without entropy=     -128.71865707  energy(sigma->0) =     -128.71865707

 stress matrix after NEB project (eV)
    -25.56110     -0.00000      0.00000
     -0.00000    -25.55473      0.00028
      0.00000      0.00028      0.33131
  FORCES: max atom, RMS     0.003556    0.000816
  FORCE total and by dimension    0.005029    0.003369
  Stress total and by dimension   36.145866   25.561101
|           W    W    AA    RRRRR   N    N  II  N    N   GGGG   !!!           |
|           W    W   A  A   R    R  NN   N  II  NN   N  G    G  !!!           |
|           W    W  A    A  R    R  N N  N  II  N N  N  G       !!!           |
|           W WW W  AAAAAA  RRRRR   N  N N  II  N  N N  G  GGG   !            |
|           WW  WW  A    A  R   R   N   NN  II  N   NN  G    G                |
|           W    W  A    A  R    R  N    N  II  N    N   GGGG   !!!           |
|     Tetrahedron method does not include variations of the Fermi             |
|     occupations, so forces and stress will be inaccurate. We suggest        |
|     using a different smearing scheme ISMEAR = 1 or 2 for metals in         |
|     relaxations.                                                            |

 total charge

# of ion       s       p       d       tot
    1        0.545   0.239   8.766   9.550
    2        0.545   0.241   8.765   9.550
    3        0.545   0.241   8.765   9.550
    4        0.545   0.241   8.765   9.550
    5        0.542   0.242   8.763   9.546
    6        0.545   0.241   8.765   9.550
    7        0.545   0.241   8.765   9.550
    8        0.545   0.241   8.765   9.550
    9        0.543   0.239   8.768   9.551
   10        0.522   0.308   8.769   9.599
   11        0.521   0.308   8.779   9.608
   12        0.522   0.308   8.769   9.599
   13        0.521   0.308   8.779   9.608
   14        0.521   0.308   8.779   9.608
   15        0.518   0.309   8.776   9.603
   16        0.522   0.308   8.769   9.599
   17        0.518   0.309   8.776   9.603
   18        0.518   0.309   8.776   9.603
   19        0.517   0.303   8.776   9.596
   20        0.539   0.328   8.757   9.624
   21        0.539   0.328   8.757   9.624
   22        0.512   0.311   8.776   9.599
   23        0.539   0.328   8.757   9.624
   24        0.512   0.311   8.776   9.599
   25        0.517   0.303   8.776   9.596
   26        0.517   0.303   8.776   9.596
   27        0.512   0.311   8.776   9.599
   28        0.539   0.226   8.768   9.533
   29        0.555   0.237   8.756   9.548
   30        0.555   0.237   8.756   9.548
   31        0.555   0.237   8.756   9.548
   32        0.555   0.237   8.756   9.548
   33        0.555   0.237   8.756   9.548
   34        0.555   0.237   8.756   9.548
   35        0.535   0.224   8.769   9.529
   36        0.316   0.224   7.257   7.796
   37        1.373   2.469   0.000   3.842
   38        1.373   2.469   0.000   3.842
tot         21.754  14.797 314.113 350.663

 BZINTS: Fermi energy:   -0.120848;  404.000000 electrons
         Band energy:-0.158173E+04;  BLOECHL correction:   -0.074806