 vasp.6.2.0 18Jan21 (build Jun 12 2021 23:27:24) complex

 executed on             LinuxIFC date 2022.05.30  16:06:25

 INCAR:
   ISMEAR = -5
   SIGMA = 0.1
   ISPIN = 1
   EDIFF = 1.d-5
   EDIFFG = -0.01
   NSW = 0
   NELM = 150
   ENCUT = 500
   ISIF = 2
   IBRION = 2
   LREAL = Auto
   ALGO = Fast
   ICHARG = 11
   LORBIT = 10
   LCHARG = .F.
   LWAVE = .F.

 POTCAR:    PAW_PBE Au 04Oct2007
 POTCAR:    PAW_PBE Mo 08Apr2002
 POTCAR:    PAW_PBE O 08Apr2002
|           W    W    AA    RRRRR   N    N  II  N    N   GGGG   !!!           |
|           W    W   A  A   R    R  NN   N  II  NN   N  G    G  !!!           |
|           W    W  A    A  R    R  N N  N  II  N N  N  G       !!!           |
|           W WW W  AAAAAA  RRRRR   N  N N  II  N  N N  G  GGG   !            |
|           WW  WW  A    A  R   R   N   NN  II  N   NN  G    G                |
|           W    W  A    A  R    R  N    N  II  N    N   GGGG   !!!           |
|     For optimal performance we recommend to set                             |
|       NCORE = 2 up to number-of-cores-per-socket                            |
|     This setting can greatly improve the performance of VASP for DFT.       |
|     The default, NCORE=1 might be grossly inefficient on modern             |
|     multi-core architectures or massively parallel machines. Do your        |
|     Unfortunately you need to use the default for GW and RPA                |
|     calculations (for HF NCORE is supported but not extensively tested      |
|     yet).                                                                   |

 POTCAR:    PAW_PBE Au 04Oct2007
   VRHFIN =Au: s1d10

   TITEL  = PAW_PBE Au 04Oct2007
   POMASS =  196.966; ZVAL   =   11.000    mass and valenz
   ENMAX  =  229.943; ENMIN  =  172.457 eV

 POTCAR:    PAW_PBE Mo 08Apr2002
   VRHFIN =Mo: 4p5s4d

   TITEL  = PAW_PBE Mo 08Apr2002
   POMASS =   95.940; ZVAL   =    6.000    mass and valenz
   ENMAX  =  224.584; ENMIN  =  168.438 eV

 POTCAR:    PAW_PBE O 08Apr2002
   VRHFIN =O: s2p4

   TITEL  = PAW_PBE O 08Apr2002
   POMASS =   16.000; ZVAL   =    6.000    mass and valenz
   ENMAX  =  400.000; ENMIN  =  300.000 eV

 Optimization of the real space projectors (new method)

 maximal supplied QI-value         = 15.12
 optimisation between [QCUT,QGAM] = [ 11.34, 22.83] = [ 36.00,145.93] Ry
 Optimized for a Real-space Cutoff    1.39 Angstroem

   l    n(q)    QCUT    max X(q) W(low)/X(q) W(high)/X(q)  e(spline)
   2      9    11.338    60.898    0.39E-03    0.42E-03    0.21E-06
   2      9    11.338    58.894    0.40E-03    0.42E-03    0.22E-06
   0      9    11.338   109.617    0.13E-03    0.20E-04    0.13E-06
   0      9    11.338    75.026    0.13E-03    0.20E-04    0.13E-06
   1      9    11.338    16.344    0.33E-04    0.24E-03    0.18E-06
   1      9    11.338    10.160    0.26E-04    0.19E-03    0.15E-06
 Optimization of the real space projectors (new method)

[...]

   l    n(q)    QCUT    max X(q) W(low)/X(q) W(high)/X(q)  e(spline)
   2     10    11.429    80.908    0.27E-03    0.78E-03    0.13E-05
   2     10    11.429    79.000    0.27E-03    0.78E-03    0.13E-05
   0     11    11.429    52.066    0.33E-04    0.97E-04    0.72E-06
   0     11    11.429    24.514    0.27E-04    0.80E-04    0.60E-06
   1     10    11.429    16.033    0.31E-04    0.17E-03    0.36E-06
   1     10    11.429    11.179    0.22E-04    0.13E-03    0.29E-06
 Optimization of the real space projectors (new method)

 maximal supplied QI-value         = 24.76
 optimisation between [QCUT,QGAM] = [ 11.39, 22.77] = [ 36.31,145.25] Ry
 Optimized for a Real-space Cutoff    1.00 Angstroem

   l    n(q)    QCUT    max X(q) W(low)/X(q) W(high)/X(q)  e(spline)
   0      7    11.387    20.381    0.39E-03    0.13E-02    0.15E-06
   0      7    11.387    15.268    0.42E-03    0.14E-02    0.17E-06
   1      6    11.387     5.964    0.41E-03    0.11E-02    0.17E-06
   1      6    11.387     5.382    0.39E-03    0.87E-03    0.15E-06
  PAW_PBE Au 04Oct2007                  :
  PAW_PBE Mo 08Apr2002                  :
  PAW_PBE O 08Apr2002                   :

 POSCAR: Au-Mo-O2
  positions in direct lattice
  velocities in cartesian coordinates
 exchange correlation table for  LEXCH =        8
   RHO(1)=    0.500       N(1)  =     2000
   RHO(2)=  100.500       N(2)  =     4000

 VTST: version 3.2, (02/03/18)

 CHAIN: initializing optimizer

 OPT: Using VASP Conjugate-Gradient optimizer
 CHAIN: Read ICHAIN            0

 POSCAR: Au-Mo-O2
  positions in direct lattice
  velocities in cartesian coordinates

 ion  position               nearest neighbor table
   1  0.000  0.000  0.217-  16 2.94  12 2.94   6 2.94   8 2.94   7 2.94   3 2.94  10 2.94   4 2.94
                             2 2.94
   2  0.333  0.000  0.217-   9 2.94  11 2.94  17 2.94  10 2.94   8 2.94   4 2.94   5 2.94   1 2.94
                             3 2.94
   3  0.667  0.000  0.217-   7 2.94  18 2.94  12 2.94   1 2.94  11 2.94   5 2.94   6 2.94   9 2.94
                             2 2.94
   4  0.000  0.333  0.217-  10 2.94   6 2.94   5 2.94  13 2.94   2 2.94  15 2.94   9 2.94   1 2.94
                             7 2.94
   5  0.333  0.333  0.217-  13 2.94   7 2.94  11 2.94   4 2.94   2 2.94  14 2.94   3 2.94   8 2.94
                             6 2.94
   6  0.667  0.333  0.217-  15 2.94  14 2.94   1 2.94  12 2.94   4 2.94   9 2.94   8 2.94   3 2.94
                             5 2.94
   7  0.000  0.667  0.217-  18 2.94   3 2.94  16 2.94   5 2.94   1 2.94  13 2.94   8 2.94   4 2.94
                             9 2.94
   8  0.333  0.667  0.217-   9 2.94  17 2.94   1 2.94   2 2.94  14 2.94  16 2.94   6 2.94   7 2.94
                             5 2.94
   9  0.667  0.667  0.217-   2 2.94   8 2.94  17 2.94   6 2.94  15 2.94   4 2.94   3 2.94  18 2.94
                             7 2.94
  10  0.111  0.111  0.316-  20 2.91  11 2.94  17 2.94   2 2.94   4 2.94   1 2.94  12 2.94  16 2.94
                            13 2.94  15 2.94  26 2.95  19 2.95
  11  0.444  0.111  0.316-  20 2.91  21 2.91  13 2.94   2 2.94  10 2.94  17 2.94   5 2.94   3 2.94
                            18 2.94  14 2.94  12 2.94  27 2.94
  12  0.778  0.111  0.316-  21 2.91  16 2.94  18 2.94   1 2.94  14 2.94  15 2.94   3 2.94   6 2.94
                            10 2.94  11 2.94  25 2.95  19 2.95
  13  0.111  0.444  0.316-  23 2.91  20 2.91   5 2.94  18 2.94  11 2.94   7 2.94   4 2.94  16 2.94
                            10 2.94  14 2.94  15 2.94  22 2.94
  14  0.444  0.444  0.316-  21 2.91  23 2.91  15 2.94   6 2.94  12 2.94   8 2.94  17 2.94   5 2.94
                            16 2.94  13 2.94  11 2.94  24 2.94
  15  0.778  0.444  0.316-  24 2.93  22 2.93  14 2.94   6 2.94  17 2.94  12 2.94   9 2.94   4 2.94
                            10 2.94  13 2.94  18 2.94  19 2.95
  16  0.111  0.778  0.316-  23 2.91  18 2.94  12 2.94   7 2.94   1 2.94   8 2.94  13 2.94  10 2.94
                            14 2.94  17 2.94  25 2.95  26 2.95
  17  0.444  0.778  0.316-  27 2.93  24 2.93   9 2.94  15 2.94   2 2.94  10 2.94  11 2.94   8 2.94
                            14 2.94  16 2.94  18 2.94  26 2.95
  18  0.778  0.778  0.316-  22 2.93  27 2.93  16 2.94   7 2.94  13 2.94  12 2.94   3 2.94  11 2.94
                             9 2.94  15 2.94  17 2.94  25 2.95
  19  0.889  0.223  0.415-  24 2.93  22 2.93  21 2.94  20 2.94  28 2.95  26 2.95  25 2.95  15 2.95
                            10 2.95  12 2.95  32 3.02  31 3.02
  20  0.222  0.222  0.413-  36 2.77  11 2.91  13 2.91  10 2.91  23 2.94  21 2.94  26 2.94  19 2.94
                            27 2.95  22 2.95  29 2.98  31 2.98
  21  0.555  0.222  0.413-  36 2.77  14 2.91  11 2.91  12 2.91  20 2.94  23 2.94  25 2.94  19 2.94
                            27 2.95  24 2.95  30 2.98  32 2.98
  22  0.887  0.557  0.414-  24 2.91  27 2.91  18 2.93  15 2.93  25 2.93  19 2.93  13 2.94  35 2.95
                            23 2.95  20 2.95  33 3.00  31 3.00
  23  0.222  0.555  0.413-  36 2.77  13 2.91  14 2.91  16 2.91  20 2.94  21 2.94  25 2.94  26 2.94
                            22 2.95  24 2.95  33 2.98  34 2.98
  24  0.557  0.557  0.414-  27 2.91  22 2.91  15 2.93  17 2.93  26 2.93  19 2.93  14 2.94  35 2.95
                            21 2.95  23 2.95  32 3.00  34 3.00
  25  0.889  0.889  0.415-  22 2.93  27 2.93  23 2.94  21 2.94  28 2.95  19 2.95  26 2.95  18 2.95
                            16 2.95  12 2.95  33 3.02  30 3.02
  26  0.223  0.889  0.415-  27 2.93  24 2.93  20 2.94  23 2.94  28 2.95  19 2.95  25 2.95  17 2.95
                            10 2.95  16 2.95  29 3.02  34 3.02
  27  0.557  0.887  0.414-  24 2.91  22 2.91  17 2.93  18 2.93  26 2.93  25 2.93  11 2.94  35 2.95
                            20 2.95  21 2.95  29 3.00  30 3.00
  28  0.000  0.000  0.514-  25 2.95  19 2.95  26 2.95  34 2.98  32 2.98  33 2.98  30 2.98  31 2.98
                            29 2.98
  29  0.333  0.010  0.516-  30 2.85  31 2.85  36 2.87  20 2.98  35 2.98  28 2.98  27 3.00  26 3.02
                            34 3.11
  30  0.657  0.010  0.516-  29 2.85  32 2.85  36 2.87  21 2.98  35 2.98  28 2.98  27 3.00  25 3.02
                            33 3.11
  31  0.010  0.333  0.516-  37 2.67  33 2.85  29 2.85  36 2.87  20 2.98  35 2.98  28 2.98  22 3.00
                            19 3.02  32 3.11
  32  0.657  0.333  0.516-  38 2.67  34 2.85  30 2.85  36 2.87  21 2.98  35 2.98  28 2.98  24 3.00
                            19 3.02  31 3.11
  33  0.010  0.657  0.516-  31 2.85  34 2.85  36 2.87  23 2.98  35 2.98  28 2.98  22 3.00  25 3.02
                            30 3.11
  34  0.333  0.657  0.516-  32 2.85  33 2.85  36 2.87  23 2.98  35 2.98  28 2.98  24 3.00  26 3.02
                            29 3.11
  35  0.667  0.667  0.514-  24 2.95  27 2.95  22 2.95  29 2.98  34 2.98  32 2.98  31 2.98  30 2.98
                            33 2.98
  36  0.333  0.333  0.503-  38 2.03  37 2.03  20 2.77  23 2.77  21 2.77  33 2.87  31 2.87  29 2.87
                            30 2.87  34 2.87  32 2.87
  37  0.254  0.333  0.581-  38 1.41  36 2.03  31 2.67
  38  0.413  0.333  0.581-  37 1.41  36 2.03  32 2.67

  LATTYP: Found a hexagonal cell.
 ALAT       =     8.8135128021
 C/A-ratio  =     2.7586513333

  Lattice vectors:

 A1 = (  -4.4067569092,  -7.6327256898,   0.0000000000)
 A2 = (   8.8135128021,   0.0000000000,   0.0000000000)
 A3 = (   0.0000000000,   0.0000000000,  24.3134088421)

Analysis of symmetry for initial positions (statically):
 Subroutine PRICEL returns:
 Original cell was already a primitive cell.

 Routine SETGRP: Setting up the symmetry group for a
 hexagonal supercell.

 Subroutine GETGRP returns: Found  2 space group operations
 (whereof  2 operations were pure point group operations)
 out of a pool of 24 trial point group operations.

The static configuration has the point symmetry C_1h.

Analysis of symmetry for dynamics (positions and initial velocities):
 Subroutine PRICEL returns:
 Original cell was already a primitive cell.

[...]

The dynamic configuration has the point symmetry C_1h.

Analysis of constrained symmetry for selective dynamics:
 Subroutine PRICEL returns:
 Original cell was already a primitive cell.

 Routine SETGRP: Setting up the symmetry group for a
[...]
     33      -5.4034      2.00000
     34      -5.3260      2.00000
     35      -5.2986      2.00000
     36      -5.2575      2.00000
     37      -5.2375      2.00000
     38      -5.2255      2.00000
     39      -5.2041      2.00000
     40      -5.1708      2.00000
     41      -5.1545      2.00000
     42      -5.0286      2.00000
     43      -5.0240      2.00000
     44      -4.9643      2.00000
     45      -4.9062      2.00000
     46      -4.8722      2.00000
     47      -4.8471      2.00000
     48      -4.8126      2.00000
     49      -4.8070      2.00000
     50      -4.7758      2.00000
     51      -4.6918      2.00000
     52      -4.6638      2.00000
     53      -4.6469      2.00000
     54      -4.6232      2.00000
     55      -4.6150      2.00000
     56      -4.6025      2.00000
     57      -4.5810      2.00000
     58      -4.5714      2.00000
     59      -4.5245      2.00000
     60      -4.4908      2.00000
[...]
    238       5.6227      0.00000
    239       5.6876      0.00000
    240       5.9016      0.00000
    241       5.9984      0.00000
    242       6.0546      0.00000
    243       6.0665      0.00000
    244       6.1140      0.00000
    245       6.2460      0.00000
    246       6.2692      0.00000
    247       6.3474      0.00000
    248       6.3917      0.00000
    249       6.4686      0.00000
    250       6.7199      0.00000
    251       6.8283      0.00000
    252       6.9227      0.00000

 soft charge-density along one line, spin component           1
         0         1         2         3         4         5         6         7         8         9
 total charge-density along one line

------------------------ aborting loop because EDIFF is reached ----------------------------------------

 total charge

# of ion       s       p       d       tot
    1        0.548   0.237   8.766   9.552
    2        0.541   0.242   8.764   9.548
    3        0.541   0.242   8.764   9.548
    4        0.544   0.241   8.764   9.549
    5        0.544   0.241   8.762   9.547
    6        0.544   0.241   8.764   9.549
    7        0.542   0.241   8.765   9.548
    8        0.542   0.241   8.765   9.548
    9        0.542   0.240   8.767   9.549
   10        0.523   0.305   8.770   9.599
   11        0.518   0.308   8.781   9.607
   12        0.523   0.305   8.770   9.599
   13        0.519   0.309   8.777   9.605
   14        0.519   0.309   8.777   9.605
   15        0.514   0.308   8.774   9.595
   16        0.525   0.307   8.764   9.597
   17        0.514   0.308   8.775   9.597
   18        0.514   0.308   8.775   9.597
   19        0.514   0.294   8.776   9.585
   20        0.562   0.337   8.736   9.635
   21        0.562   0.337   8.736   9.635
   22        0.507   0.308   8.773   9.588
   23        0.571   0.343   8.725   9.638
   24        0.507   0.308   8.773   9.588
   25        0.517   0.295   8.775   9.587
   26        0.517   0.295   8.775   9.587
   27        0.507   0.305   8.779   9.592
   28        0.544   0.226   8.760   9.530
   29        0.566   0.242   8.752   9.560
   30        0.566   0.242   8.752   9.560
   31        0.560   0.243   8.759   9.562
   32        0.560   0.243   8.759   9.562
   33        0.564   0.241   8.754   9.560
   34        0.564   0.241   8.754   9.560
   35        0.538   0.227   8.762   9.527
   36        0.415   0.490   4.132   5.036
   37        1.615   3.251   0.000   4.866
   38        1.615   3.251   0.000   4.866
tot         22.428  16.656 310.878 349.962

  FORCE on cell =-STRESS in cart. coord.  units (eV):
  Direction    XX          YY          ZZ          XY          YZ          ZX
  Alpha Z   952.77942   952.77942   952.77942
  Ewald  149624.72198149246.89663************    -0.00030     0.36591    -0.00011
  Hartree158027.83470157847.37423************     0.00001     0.57825    -0.00003
  E(xc)   -1813.90153 -1814.41951 -1821.74671     0.00000     0.10408    -0.00000
  Local  ************************319597.62188     0.00263    -0.76355    -0.00001
  n-local  -111.20920  -115.07635   -84.79956     4.91894     0.92334     0.11879
  augment  2383.43332  2387.26491  2403.32965    -0.00134    -0.10452     0.00004
  Kinetic  5658.90818  5701.86187  5731.97249     1.44921    -0.74938    -0.02554
  Fock        0.00000     0.00000     0.00000     0.00000     0.00000     0.00000
  Total     -17.59385   -19.50469     0.78251    -0.00000     0.35412     0.00000
  in kB     -17.23443   -19.10623     0.76652    -0.00000     0.34688     0.00000

 VOLUME and BASIS-vectors are now :
  energy-cutoff  :      500.00
  volume of cell :     1635.59
      direct lattice vectors                 reciprocal lattice vectors
     8.813512802  0.000000000  0.000000000     0.113462137 -0.065507406  0.000000000
     4.406756909  7.632725690  0.000000000     0.000000000  0.131014796  0.000000000
     0.000000000  0.000000000 24.313408842     0.000000000  0.000000000  0.041129568

  length of vectors
     8.813512802  8.813512802 24.313408842     0.131014796  0.131014796  0.041129568

 FORCES acting on ions
    electron-ion (+dipol)            ewald-force                    non-local-force                 convergence-correction
   -.199E-04 -.182E-01 0.266E+04   0.520E-04 -.261E-01 -.266E+04   0.442E-08 0.664E-01 -.761E+00   -.280E-03 -.330E-01 -.126E+00
   0.647E+00 0.223E+00 0.266E+04   -.654E+00 -.318E+00 -.266E+04   0.239E-01 0.916E-01 -.278E+00   -.229E-01 0.552E-02 -.203E+00
   -.647E+00 0.223E+00 0.266E+04   0.654E+00 -.318E+00 -.266E+04   -.239E-01 0.916E-01 -.278E+00   0.233E-01 0.756E-02 -.202E+00
   0.516E+00 0.443E+00 0.266E+04   -.580E+00 -.420E+00 -.266E+04   0.623E-01 -.443E-01 -.283E+00   0.488E-02 0.165E-01 -.166E+00
   0.799E-05 -.120E+00 0.267E+04   0.951E-04 0.486E-03 -.266E+04   0.251E-08 0.377E-01 -.163E+00   0.439E-02 0.818E-01 -.140E+00
   -.516E+00 0.443E+00 0.266E+04   0.580E+00 -.420E+00 -.266E+04   -.623E-01 -.443E-01 -.283E+00   -.653E-02 0.174E-01 -.165E+00
   -.226E+00 -.630E+00 0.266E+04   0.746E-01 0.738E+00 -.266E+04   0.747E-01 -.725E-01 -.273E+00   0.780E-01 -.274E-01 -.202E+00
   0.226E+00 -.630E+00 0.266E+04   -.747E-01 0.738E+00 -.266E+04   -.747E-01 -.725E-01 -.273E+00   -.761E-01 -.286E-01 -.201E+00
   0.196E-04 0.330E-01 0.266E+04   0.166E-03 0.256E-01 -.266E+04   -.158E-08 -.237E-01 -.466E+00   -.466E-02 -.375E-01 -.145E+00
   0.637E+01 0.382E+01 0.919E+03   -.595E+01 -.364E+01 -.918E+03   -.386E+00 -.185E+00 -.563E+00   -.540E-01 -.130E-02 0.656E-02
   0.174E-04 0.414E+01 0.926E+03   0.148E-03 -.433E+01 -.926E+03   0.383E-08 0.575E-01 -.205E+00   0.425E-02 0.413E-01 0.107E+00
   -.637E+01 0.382E+01 0.919E+03   0.595E+01 -.364E+01 -.918E+03   0.386E+00 -.185E+00 -.563E+00   0.520E-01 0.673E-03 0.778E-02
   0.338E+01 -.213E+01 0.926E+03   -.356E+01 0.221E+01 -.926E+03   0.844E-01 -.533E-01 -.266E+00   0.212E-01 0.161E-01 0.332E-01
   -.338E+01 -.213E+01 0.926E+03   0.356E+01 0.221E+01 -.926E+03   -.844E-01 -.533E-01 -.266E+00   -.129E-01 0.154E-01 0.341E-01
   0.313E-04 0.415E+01 0.923E+03   0.236E-03 -.423E+01 -.922E+03   -.608E-09 -.913E-02 -.473E+00   -.297E-02 0.206E-01 0.272E-01
   -.215E-04 -.745E+01 0.919E+03   0.163E-03 0.693E+01 -.918E+03   0.349E-07 0.525E+00 -.686E+00   0.397E-03 0.352E-02 -.396E-01
   0.374E+01 -.213E+01 0.922E+03   -.377E+01 0.225E+01 -.922E+03   -.377E-02 -.496E-01 -.434E+00   -.500E-02 -.440E-01 -.960E-03
   -.374E+01 -.213E+01 0.922E+03   0.377E+01 0.225E+01 -.922E+03   0.377E-02 -.496E-01 -.434E+00   0.507E-02 -.413E-01 -.738E-03
   -.428E-04 0.234E+01 -.854E+03   0.540E-04 -.260E+01 0.853E+03   0.209E-08 0.313E-01 0.745E+00   -.590E-02 0.136E+00 0.217E+00
   0.621E+01 0.475E+01 -.811E+03   -.545E+01 -.449E+01 0.811E+03   -.118E+01 -.476E+00 -.959E+00   0.373E+00 0.128E+00 0.733E+00
   -.621E+01 0.475E+01 -.811E+03   0.545E+01 -.449E+01 0.811E+03   0.118E+01 -.476E+00 -.959E+00   -.364E+00 0.130E+00 0.733E+00
   -.384E+01 0.993E+00 -.835E+03   0.349E+01 -.617E+00 0.834E+03   0.374E+00 -.279E+00 0.733E+00   0.460E-01 -.103E+00 0.275E+00
   -.489E-05 -.938E+01 -.812E+03   0.140E-03 0.816E+01 0.813E+03   0.107E-06 0.161E+01 -.126E+01   0.579E-02 -.359E+00 0.669E+00
   0.384E+01 0.993E+00 -.835E+03   -.349E+01 -.617E+00 0.834E+03   -.374E+00 -.279E+00 0.733E+00   -.541E-01 -.105E+00 0.275E+00
   -.140E+01 -.211E+00 -.856E+03   0.157E+01 0.301E+00 0.855E+03   -.606E-01 -.180E-01 0.616E+00   -.931E-01 -.231E-01 0.245E+00
   0.140E+01 -.211E+00 -.856E+03   -.157E+01 0.301E+00 0.855E+03   0.606E-01 -.180E-01 0.616E+00   0.881E-01 -.268E-01 0.245E+00
   0.120E-04 -.480E+01 -.837E+03   0.197E-03 0.396E+01 0.836E+03   0.465E-07 0.698E+00 0.807E+00   -.309E-02 0.201E+00 0.340E+00
   -.156E-04 0.540E+01 -.256E+04   0.305E-04 -.531E+01 0.256E+04   -.464E-08 -.697E-01 0.385E+00   -.266E-03 -.311E-01 0.361E+00
   0.369E+02 0.781E+02 -.253E+04   -.365E+02 -.781E+02 0.253E+04   -.101E+01 -.101E+01 0.393E+00   0.371E+00 0.510E+00 0.226E+00
   -.369E+02 0.781E+02 -.253E+04   0.365E+02 -.781E+02 0.253E+04   0.101E+01 -.101E+01 0.393E+00   -.370E+00 0.512E+00 0.225E+00
   0.985E+02 0.858E+00 -.251E+04   -.988E+02 -.731E+00 0.251E+04   -.117E+01 -.147E+00 0.855E+00   0.547E+00 0.332E-01 0.267E+00
   -.985E+02 0.858E+00 -.251E+04   0.988E+02 -.731E+00 0.251E+04   0.117E+01 -.147E+00 0.855E+00   -.548E+00 0.339E-01 0.265E+00
   0.351E+02 -.789E+02 -.253E+04   -.349E+02 0.787E+02 0.253E+04   -.725E+00 0.112E+01 0.402E+00   0.302E+00 -.533E+00 0.342E+00
   -.351E+02 -.789E+02 -.253E+04   0.349E+02 0.787E+02 0.253E+04   0.725E+00 0.112E+01 0.402E+00   -.300E+00 -.534E+00 0.341E+00
   0.331E-04 -.537E+01 -.256E+04   0.141E-03 0.523E+01 0.256E+04   0.814E-08 0.122E+00 0.609E+00   -.471E-02 0.196E-01 0.341E+00
   -.110E-04 -.172E+00 -.112E+04   0.625E-04 0.195E+00 0.112E+04   0.121E-07 0.181E+00 0.989E+00   0.103E-02 -.304E-01 0.249E+00
   0.197E+03 0.509E-01 -.168E+04   -.233E+03 0.678E-01 0.170E+04   0.355E+02 -.153E+00 -.177E+02   0.354E+00 0.356E-01 -.467E+00
   -.197E+03 0.509E-01 -.168E+04   0.233E+03 0.678E-01 0.170E+04   -.355E+02 -.153E+00 -.177E+02   -.354E+00 0.357E-01 -.467E+00
   -.476E-03 -.712E+00 0.321E+02   0.000E+00 -.576E-13 0.227E-11   0.448E-07 0.673E+00 -.359E+02   -.836E-03 0.437E-01 0.404E+01

 POSITION                                       TOTAL-FORCE (eV/Angst)
      0.00000      0.00000      5.28038        -0.000000     -0.010982     -0.129288
      2.93784      0.00000      5.28038        -0.006332      0.003062     -0.018312
      5.87568      0.00000      5.28038         0.006332      0.003062     -0.018312
      1.46892      2.54424      5.28038         0.003857     -0.004062     -0.031282
      4.40676      2.54424      5.28038        -0.000000     -0.000107     -0.058369
      7.34459      2.54424      5.28038        -0.003857     -0.004062     -0.031282
      2.93784      5.08848      5.28038         0.000425      0.007120     -0.024718
      5.87568      5.08848      5.28038        -0.000425      0.007120     -0.024718
      8.81351      5.08848      5.28038        -0.000000     -0.002681     -0.058934
      1.46892      0.84808      7.67911        -0.023789     -0.005159      0.078606
      4.40676      0.84808      7.67911        -0.000000     -0.090529     -0.044769
      7.34459      0.84808      7.67911         0.023789     -0.005159      0.078606
      2.93784      3.39232      7.67911        -0.076663      0.036032     -0.018308
      5.87568      3.39232      7.67911         0.076663      0.036032     -0.018308
      8.81351      3.39232      7.67911        -0.000000     -0.063872      0.096599
      4.40676      5.93656      7.67911         0.000000      0.006296      0.117372
      7.34459      5.93656      7.67911        -0.040769      0.025792      0.087077
     10.28243      5.93656      7.67911         0.040769      0.025792      0.087077
      8.81351      1.70181     10.09390        -0.000000     -0.096035     -0.072756
      2.93906      1.69686     10.04479        -0.043154     -0.088635     -0.142258
      5.87446      1.69686     10.04479         0.043154     -0.088635     -0.142258
     10.26694      4.24935     10.06849         0.069030     -0.007825      0.062322
      4.40676      4.23900     10.04479         0.000000      0.031127      0.004962
      7.36009      4.24935     10.06849        -0.069030     -0.007825      0.062322
     11.74646      6.78182     10.09390         0.014134      0.046993     -0.036476
      5.88057      6.78182     10.09390        -0.014134      0.046993     -0.036476
      8.81351      6.76675     10.06849         0.000000      0.061026      0.052284
      0.00000      0.00000     12.49934        -0.000000     -0.007875     -0.027054
      2.98260      0.07565     12.53968        -0.188698     -0.464081     -0.293189
      5.83091      0.07565     12.53968         0.188697     -0.464081     -0.293189
      1.55682      2.54518     12.53968        -0.911122      0.013894     -0.601404
      7.25669      2.54518     12.53968         0.911122      0.013894     -0.601404
      2.98097      5.01189     12.53968        -0.217492      0.435245     -0.283869
      5.83254      5.01189     12.53968         0.217492      0.435245     -0.283869
      8.81351      5.08848     12.49853         0.000000      0.000080      0.053122
      4.40676      2.54424     12.23451         0.000000      0.173729      2.539491
      3.70399      2.54258     14.13382        -0.010997      0.001537     -0.014520
      5.10952      2.54258     14.13382         0.010997      0.001537     -0.014520
    total drift:                               -0.001311      0.004711      0.235187

  FREE ENERGIE OF THE ION-ELECTRON SYSTEM (eV)
  free  energy   TOTEN  =      -126.83427790 eV

  energy  without entropy=     -126.83427790  energy(sigma->0) =     -126.83427790

 stress matrix after NEB project (eV)
    -17.59385     -0.00000      0.00000
     -0.00000    -19.50469      0.35412
      0.00000      0.35412      0.78251
  FORCES: max atom, RMS     0.018279    0.004194
  FORCE total and by dimension    0.025851    0.014520
  Stress total and by dimension   26.283827   19.504686
|           W    W    AA    RRRRR   N    N  II  N    N   GGGG   !!!           |
|           W    W   A  A   R    R  NN   N  II  NN   N  G    G  !!!           |
|           W    W  A    A  R    R  N N  N  II  N N  N  G       !!!           |
|           W WW W  AAAAAA  RRRRR   N  N N  II  N  N N  G  GGG   !            |
|           WW  WW  A    A  R   R   N   NN  II  N   NN  G    G                |
|           W    W  A    A  R    R  N    N  II  N    N   GGGG   !!!           |
|     Tetrahedron method does not include variations of the Fermi             |
|     occupations, so forces and stress will be inaccurate. We suggest        |
|     using a different smearing scheme ISMEAR = 1 or 2 for metals in         |
|     relaxations.                                                            |

 total charge

# of ion       s       p       d       tot
    1        0.548   0.237   8.766   9.552
    2        0.541   0.242   8.764   9.548
    3        0.541   0.242   8.764   9.548
    4        0.544   0.241   8.764   9.549
    5        0.544   0.241   8.762   9.547
    6        0.544   0.241   8.764   9.549
    7        0.542   0.241   8.765   9.548
    8        0.542   0.241   8.765   9.548
    9        0.542   0.240   8.767   9.549
   10        0.523   0.305   8.770   9.599
   11        0.518   0.308   8.781   9.607
   12        0.523   0.305   8.770   9.599
   13        0.519   0.309   8.777   9.605
   14        0.519   0.309   8.777   9.605
   15        0.514   0.308   8.774   9.595
   16        0.525   0.307   8.764   9.597
   17        0.514   0.308   8.775   9.597
   18        0.514   0.308   8.775   9.597
   19        0.514   0.294   8.776   9.585
   20        0.562   0.337   8.736   9.635
   21        0.562   0.337   8.736   9.635
   22        0.507   0.308   8.773   9.588
   23        0.571   0.343   8.725   9.638
   24        0.507   0.308   8.773   9.588
   25        0.517   0.295   8.775   9.587
   26        0.517   0.295   8.775   9.587
   27        0.507   0.305   8.779   9.592
   28        0.544   0.226   8.760   9.530
   29        0.566   0.242   8.752   9.560
   30        0.566   0.242   8.752   9.560
   31        0.560   0.243   8.759   9.562
   32        0.560   0.243   8.759   9.562
   33        0.564   0.241   8.754   9.560
   34        0.564   0.241   8.754   9.560
   35        0.538   0.227   8.762   9.527
   36        0.415   0.490   4.132   5.036
   37        1.615   3.251   0.000   4.866
   38        1.615   3.251   0.000   4.866
tot         22.428  16.656 310.878 349.962

 BZINTS: Fermi energy:    0.172866;  403.000000 electrons
         Band energy:-0.150352E+04;  BLOECHL correction:   -0.034998