 vasp.6.2.0 18Jan21 (build Jun 12 2021 23:27:24) complex

 executed on             LinuxIFC date 2022.05.27  05:11:53

 INCAR:
   ISMEAR = -5
   SIGMA = 0.1
   ISPIN = 1
   EDIFF = 1.d-5
   EDIFFG = -0.01
   NSW = 0
   NELM = 150
   ENCUT = 500
   ISIF = 2
   IBRION = 2
   LREAL = Auto
   ALGO = Fast
   ICHARG = 11
   LORBIT = 10
   LCHARG = .F.
   LWAVE = .F.

 POTCAR:    PAW_PBE Au 04Oct2007
 POTCAR:    PAW_PBE Pd 04Jan2005
 POTCAR:    PAW_PBE O 08Apr2002
 POTCAR:    PAW_PBE H 15Jun2001
|           W    W    AA    RRRRR   N    N  II  N    N   GGGG   !!!           |
|           W    W   A  A   R    R  NN   N  II  NN   N  G    G  !!!           |
|           W    W  A    A  R    R  N N  N  II  N N  N  G       !!!           |
|           W WW W  AAAAAA  RRRRR   N  N N  II  N  N N  G  GGG   !            |
|           WW  WW  A    A  R   R   N   NN  II  N   NN  G    G                |
|           W    W  A    A  R    R  N    N  II  N    N   GGGG   !!!           |
|     For optimal performance we recommend to set                             |
|       NCORE = 2 up to number-of-cores-per-socket                            |
|     This setting can greatly improve the performance of VASP for DFT.       |
|     The default, NCORE=1 might be grossly inefficient on modern             |
|     multi-core architectures or massively parallel machines. Do your        |
|     Unfortunately you need to use the default for GW and RPA                |
|     calculations (for HF NCORE is supported but not extensively tested      |
|     yet).                                                                   |

 POTCAR:    PAW_PBE Au 04Oct2007
   VRHFIN =Au: s1d10

   TITEL  = PAW_PBE Au 04Oct2007
   POMASS =  196.966; ZVAL   =   11.000    mass and valenz
   ENMAX  =  229.943; ENMIN  =  172.457 eV

 POTCAR:    PAW_PBE Pd 04Jan2005
   VRHFIN =Pd : s1 d9

   TITEL  = PAW_PBE Pd 04Jan2005
   POMASS =  106.420; ZVAL   =   10.000    mass and valenz
   ENMAX  =  250.925; ENMIN  =  188.194 eV

 POTCAR:    PAW_PBE O 08Apr2002
   VRHFIN =O: s2p4

   TITEL  = PAW_PBE O 08Apr2002
   POMASS =   16.000; ZVAL   =    6.000    mass and valenz
   ENMAX  =  400.000; ENMIN  =  300.000 eV

 POTCAR:    PAW_PBE H 15Jun2001
   VRHFIN =H: ultrasoft test

   TITEL  = PAW_PBE H 15Jun2001
   POMASS =    1.000; ZVAL   =    1.000    mass and valenz
   ENMAX  =  250.000; ENMIN  =  200.000 eV

 Optimization of the real space projectors (new method)

 maximal supplied QI-value         = 15.12
 optimisation between [QCUT,QGAM] = [ 11.34, 22.83] = [ 36.00,145.93] Ry
 Optimized for a Real-space Cutoff    1.39 Angstroem

   l    n(q)    QCUT    max X(q) W(low)/X(q) W(high)/X(q)  e(spline)
   2      9    11.338    60.898    0.39E-03    0.42E-03    0.21E-06
   2      9    11.338    58.894    0.40E-03    0.42E-03    0.22E-06
   0      9    11.338   109.617    0.13E-03    0.20E-04    0.13E-06
   0      9    11.338    75.026    0.13E-03    0.20E-04    0.13E-06
   1      9    11.338    16.344    0.33E-04    0.24E-03    0.18E-06
   1      9    11.338    10.160    0.26E-04    0.19E-03    0.15E-06
 Optimization of the real space projectors (new method)

[...]

   l    n(q)    QCUT    max X(q) W(low)/X(q) W(high)/X(q)  e(spline)
   0      7    11.387    20.381    0.39E-03    0.13E-02    0.15E-06
   0      7    11.387    15.268    0.42E-03    0.14E-02    0.17E-06
   1      6    11.387     5.964    0.41E-03    0.11E-02    0.17E-06
   1      6    11.387     5.382    0.39E-03    0.87E-03    0.15E-06
 Optimization of the real space projectors (new method)

 maximal supplied QI-value         = 34.20
 optimisation between [QCUT,QGAM] = [ 11.29, 22.57] = [ 35.68,142.71] Ry
 Optimized for a Real-space Cutoff    1.16 Angstroem

   l    n(q)    QCUT    max X(q) W(low)/X(q) W(high)/X(q)  e(spline)
   0      8    11.287    19.460    0.40E-03    0.73E-03    0.16E-06
   0      8    11.287    12.209    0.38E-03    0.70E-03    0.15E-06
   1      7    11.287     4.655    0.22E-03    0.25E-04    0.22E-06
  PAW_PBE Au 04Oct2007                  :
  PAW_PBE Pd 04Jan2005                  :
  PAW_PBE O 08Apr2002                   :
  PAW_PBE H 15Jun2001                   :

 POSCAR: Au-Pd-OH
  positions in direct lattice
  velocities in cartesian coordinates
 exchange correlation table for  LEXCH =        8
   RHO(1)=    0.500       N(1)  =     2000
   RHO(2)=  100.500       N(2)  =     4000

 VTST: version 3.2, (02/03/18)

 CHAIN: initializing optimizer

 OPT: Using VASP Conjugate-Gradient optimizer
 CHAIN: Read ICHAIN            0

 POSCAR: Au-Pd-OH
  positions in direct lattice
  velocities in cartesian coordinates

 ion  position               nearest neighbor table
   1  0.000  0.000  0.211-  16 2.94  12 2.94   6 2.94   8 2.94   7 2.94   3 2.94  10 2.94   4 2.94
                             2 2.94
   2  0.333  0.000  0.211-   9 2.94  11 2.94  17 2.94  10 2.94   8 2.94   4 2.94   5 2.94   1 2.94
                             3 2.94
   3  0.667  0.000  0.211-   7 2.94  18 2.94  12 2.94   1 2.94  11 2.94   5 2.94   6 2.94   9 2.94
                             2 2.94
   4  0.000  0.333  0.211-  10 2.94   6 2.94   5 2.94  13 2.94   2 2.94  15 2.94   9 2.94   1 2.94
                             7 2.94
   5  0.333  0.333  0.211-  13 2.94   7 2.94  11 2.94   4 2.94   2 2.94  14 2.94   3 2.94   8 2.94
                             6 2.94
   6  0.667  0.333  0.211-  15 2.94  14 2.94   1 2.94  12 2.94   4 2.94   9 2.94   8 2.94   3 2.94
                             5 2.94
   7  0.000  0.667  0.211-  18 2.94   3 2.94  16 2.94   5 2.94   1 2.94  13 2.94   8 2.94   4 2.94
                             9 2.94
   8  0.333  0.667  0.211-   9 2.94  17 2.94   1 2.94   2 2.94  14 2.94  16 2.94   6 2.94   7 2.94
                             5 2.94
   9  0.667  0.667  0.211-   2 2.94   8 2.94  17 2.94   6 2.94  15 2.94   4 2.94   3 2.94  18 2.94
                             7 2.94
  10  0.111  0.111  0.307-  26 2.92  19 2.92  20 2.93  11 2.94  17 2.94   2 2.94   4 2.94   1 2.94
                            12 2.94  16 2.94  13 2.94  15 2.94
  11  0.444  0.111  0.307-  27 2.93  20 2.93  21 2.93  13 2.94   2 2.94  10 2.94  17 2.94   5 2.94
                             3 2.94  18 2.94  14 2.94  12 2.94
  12  0.778  0.111  0.307-  25 2.92  19 2.92  21 2.93  16 2.94  18 2.94   1 2.94  14 2.94  15 2.94
                             3 2.94   6 2.94  10 2.94  11 2.94
  13  0.111  0.444  0.307-  22 2.93  23 2.93  20 2.93   5 2.94  18 2.94  11 2.94   7 2.94   4 2.94
                            16 2.94  10 2.94  14 2.94  15 2.94
  14  0.444  0.444  0.307-  24 2.93  21 2.93  23 2.93  15 2.94   6 2.94  12 2.94   8 2.94  17 2.94
                             5 2.94  16 2.94  13 2.94  11 2.94
  15  0.778  0.444  0.307-  19 2.93  24 2.93  22 2.93  14 2.94   6 2.94  17 2.94  12 2.94   9 2.94
                             4 2.94  10 2.94  13 2.94  18 2.94
  16  0.111  0.778  0.307-  25 2.92  26 2.92  23 2.93  18 2.94  12 2.94   7 2.94   1 2.94   8 2.94
                            13 2.94  10 2.94  14 2.94  17 2.94
  17  0.444  0.778  0.307-  26 2.93  27 2.93  24 2.93   9 2.94  15 2.94   2 2.94  10 2.94  11 2.94
                             8 2.94  14 2.94  16 2.94  18 2.94
  18  0.778  0.778  0.307-  25 2.93  22 2.93  27 2.93  16 2.94   7 2.94  13 2.94  12 2.94   3 2.94
                            11 2.94   9 2.94  15 2.94  17 2.94
  19  0.889  0.222  0.402-  10 2.92  12 2.92  15 2.93  26 2.93  25 2.93  21 2.94  20 2.94  24 2.94
                            22 2.94  28 2.96  32 2.97  31 2.97
  20  0.222  0.222  0.403-  36 2.83  10 2.93  11 2.93  13 2.93  26 2.94  19 2.94  27 2.94  22 2.94
                            23 2.94  21 2.94  29 2.95  31 2.95
  21  0.556  0.222  0.403-  36 2.83  12 2.93  14 2.93  11 2.93  25 2.94  19 2.94  24 2.94  27 2.94
                            20 2.94  23 2.94  30 2.95  32 2.95
  22  0.889  0.556  0.403-  18 2.93  15 2.93  13 2.93  24 2.94  27 2.94  23 2.94  20 2.94  25 2.94
                            19 2.94  33 2.96  31 2.96  35 2.96
  23  0.222  0.556  0.403-  36 2.83  16 2.93  13 2.93  14 2.93  25 2.94  26 2.94  22 2.94  24 2.94
                            20 2.94  21 2.94  33 2.95  34 2.95
  24  0.556  0.556  0.403-  15 2.93  17 2.93  14 2.93  27 2.94  22 2.94  21 2.94  23 2.94  26 2.94
                            19 2.94  32 2.96  34 2.96  35 2.96
  25  0.889  0.889  0.402-  16 2.92  12 2.92  18 2.93  19 2.93  26 2.93  23 2.94  21 2.94  22 2.94
                            27 2.94  28 2.96  33 2.97  30 2.97
  26  0.222  0.889  0.402-  10 2.92  16 2.92  17 2.93  19 2.93  25 2.93  20 2.94  23 2.94  27 2.94
                            24 2.94  28 2.96  29 2.97  34 2.97
  27  0.556  0.889  0.403-  17 2.93  18 2.93  11 2.93  24 2.94  22 2.94  20 2.94  21 2.94  26 2.94
                            25 2.94  29 2.96  30 2.96  35 2.96
  28  0.000  0.000  0.500-  34 2.94  32 2.94  33 2.94  30 2.94  31 2.94  29 2.94  25 2.96  19 2.96
                            26 2.96
  29  0.333  0.001  0.499-  30 2.93  31 2.93  36 2.93  35 2.94  28 2.94  20 2.95  34 2.95  27 2.96
                            26 2.97
  30  0.666  0.001  0.499-  29 2.93  32 2.93  36 2.93  35 2.94  28 2.94  21 2.95  33 2.95  27 2.96
                            25 2.97
  31  0.001  0.333  0.499-  33 2.93  29 2.93  36 2.93  35 2.94  28 2.94  20 2.95  32 2.95  22 2.96
                            19 2.97
  32  0.666  0.333  0.499-  34 2.93  30 2.93  36 2.93  35 2.94  28 2.94  21 2.95  31 2.95  24 2.96
                            19 2.97
  33  0.001  0.666  0.499-  31 2.93  34 2.93  36 2.93  35 2.94  28 2.94  23 2.95  30 2.95  22 2.96
                            25 2.97
  34  0.333  0.666  0.499-  32 2.93  33 2.93  36 2.93  35 2.94  28 2.94  23 2.95  29 2.95  24 2.96
                            26 2.97
  35  0.667  0.667  0.500-  29 2.94  34 2.94  32 2.94  31 2.94  30 2.94  33 2.94  24 2.96  27 2.96
                            22 2.96
  36  0.333  0.333  0.493-  37 2.01  20 2.83  23 2.83  21 2.83  33 2.93  31 2.93  29 2.93  30 2.93
                            34 2.93  32 2.93
  37  0.333  0.333  0.574-  38 0.97  36 2.01
  38  0.333  0.333  0.612-  37 0.97

  LATTYP: Found a hexagonal cell.
 ALAT       =     8.8135128021
 C/A-ratio  =     2.8375446135

  Lattice vectors:

 A1 = (  -4.4067569092,  -7.6327256898,   0.0000000000)
 A2 = (   8.8135128021,   0.0000000000,   0.0000000000)
 A3 = (   0.0000000000,   0.0000000000,  25.0087357774)

Analysis of symmetry for initial positions (statically):
 Subroutine PRICEL returns:
 Original cell was already a primitive cell.

 Routine SETGRP: Setting up the symmetry group for a
 hexagonal supercell.

 Subroutine GETGRP returns: Found  6 space group operations
 (whereof  6 operations were pure point group operations)
 out of a pool of 24 trial point group operations.

The static configuration has the point symmetry C_3v.

Analysis of symmetry for dynamics (positions and initial velocities):
 Subroutine PRICEL returns:
 Original cell was already a primitive cell.

[...]

The dynamic configuration has the point symmetry C_3v.

Analysis of constrained symmetry for selective dynamics:
 Subroutine PRICEL returns:
 Original cell was already a primitive cell.

[...]
     33      -5.3197      2.00000
     34      -5.3182      2.00000
     35      -5.3076      2.00000
     36      -5.2513      2.00000
     37      -5.1626      2.00000
     38      -5.1427      2.00000
     39      -5.1197      2.00000
     40      -5.0847      2.00000
     41      -5.0201      2.00000
     42      -4.9699      2.00000
     43      -4.9432      2.00000
     44      -4.8992      2.00000
     45      -4.8782      2.00000
     46      -4.8649      2.00000
     47      -4.8443      2.00000
     48      -4.7571      2.00000
     49      -4.7140      2.00000
     50      -4.6954      2.00000
     51      -4.6919      2.00000
     52      -4.6792      2.00000
     53      -4.6723      2.00000
     54      -4.6540      2.00000
     55      -4.6201      2.00000
     56      -4.5785      2.00000
     57      -4.5519      2.00000
     58      -4.5221      2.00000
     59      -4.5162      2.00000
     60      -4.5058      2.00000
[...]
    238       5.8274      0.00000
    239       5.8705      0.00000
    240       5.9049      0.00000
    241       5.9388      0.00000
    242       6.0717      0.00000
    243       6.1883      0.00000
    244       6.2543      0.00000
    245       6.2905      0.00000
    246       6.3926      0.00000
    247       6.6088      0.00000
    248       6.6249      0.00000
    249       6.6442      0.00000
    250       6.6700      0.00000
    251       6.6845      0.00000
    252       6.8387      0.00000

 soft charge-density along one line, spin component           1
         0         1         2         3         4         5         6         7         8         9
 total charge-density along one line

------------------------ aborting loop because EDIFF is reached ----------------------------------------

 total charge

# of ion       s       p       d       tot
    1        0.542   0.239   8.771   9.552
    2        0.546   0.240   8.765   9.551
    3        0.546   0.240   8.765   9.551
    4        0.546   0.240   8.765   9.551
    5        0.541   0.242   8.764   9.547
    6        0.546   0.240   8.765   9.551
    7        0.546   0.240   8.765   9.551
    8        0.546   0.240   8.765   9.551
    9        0.541   0.241   8.765   9.547
   10        0.518   0.309   8.770   9.597
   11        0.520   0.305   8.775   9.600
   12        0.518   0.309   8.770   9.597
   13        0.520   0.305   8.775   9.600
   14        0.520   0.305   8.775   9.600
   15        0.515   0.307   8.778   9.601
   16        0.518   0.309   8.770   9.597
   17        0.515   0.307   8.778   9.601
   18        0.515   0.307   8.778   9.601
   19        0.514   0.305   8.773   9.591
   20        0.527   0.313   8.765   9.604
   21        0.527   0.313   8.765   9.604
   22        0.513   0.304   8.773   9.589
   23        0.527   0.313   8.765   9.604
   24        0.513   0.304   8.773   9.589
   25        0.514   0.305   8.773   9.591
   26        0.514   0.305   8.773   9.591
   27        0.513   0.304   8.773   9.589
   28        0.546   0.232   8.768   9.546
   29        0.533   0.227   8.777   9.538
   30        0.533   0.227   8.777   9.538
   31        0.533   0.227   8.777   9.538
   32        0.533   0.227   8.777   9.538
   33        0.533   0.227   8.777   9.538
   34        0.533   0.227   8.777   9.538
   35        0.543   0.234   8.764   9.542
   36        0.384   0.421   8.425   9.230
   37        1.545   3.500   0.000   5.045
   38        0.609   0.126   0.000   0.734
tot         21.046  13.566 315.411 350.023

  FORCE on cell =-STRESS in cart. coord.  units (eV):
  Direction    XX          YY          ZZ          XY          YZ          ZX
  Alpha Z   907.27579   907.27579   907.27579
  Ewald  161685.80287161685.80330************    -0.00033    -0.00008    -0.00012
  Hartree170242.53795170242.53796************     0.00001    -0.00002    -0.00003
  E(xc)   -1813.41456 -1813.41461 -1818.92252     0.00004    -0.00000    -0.00001
  Local  ************************344412.08351     0.00209     0.00000    -0.00003
  n-local  -119.77905   -66.13447   -73.36014    23.03759    -1.15421     1.19174
  augment  2450.29334  2450.29493  2461.08866    -0.00138     0.00004     0.00005
  Kinetic  5627.14994  5643.36075  5651.80674     6.54874     0.13128     0.39854
  Fock        0.00000     0.00000     0.00000     0.00000     0.00000     0.00000
  Total     -20.41708   -20.41708     0.98729    -0.00000     0.00000    -0.00000
  in kB     -19.44392   -19.44392     0.94023    -0.00000     0.00000    -0.00000

 VOLUME and BASIS-vectors are now :
  energy-cutoff  :      500.00
  volume of cell :     1682.37
      direct lattice vectors                 reciprocal lattice vectors
     8.813512802  0.000000000  0.000000000     0.113462137 -0.065507406  0.000000000
     4.406756909  7.632725690  0.000000000     0.000000000  0.131014796  0.000000000
     0.000000000  0.000000000 25.008735777     0.000000000  0.000000000  0.039986028

  length of vectors
     8.813512802  8.813512802 25.008735777     0.131014796  0.131014796  0.039986028

 FORCES acting on ions
    electron-ion (+dipol)            ewald-force                    non-local-force                 convergence-correction
   -.201E-04 -.165E-04 0.272E+04   0.518E-04 0.433E-04 -.272E+04   -.102E-17 0.633E-18 -.922E+00   -.254E-03 -.160E-03 -.507E+00
   -.787E-01 0.137E+00 0.272E+04   0.426E-01 -.177E+00 -.272E+04   0.170E-01 0.335E-01 -.306E+00   0.169E-01 0.168E-01 -.485E+00
   0.786E-01 0.137E+00 0.272E+04   -.427E-01 -.177E+00 -.272E+04   -.170E-01 0.335E-01 -.306E+00   -.166E-01 0.187E-01 -.484E+00
   0.792E-01 -.137E+00 0.272E+04   -.132E+00 0.125E+00 -.272E+04   0.375E-01 -.208E-02 -.306E+00   0.231E-01 0.617E-02 -.485E+00
   0.969E-05 -.225E-04 0.272E+04   0.952E-04 0.169E-05 -.272E+04   0.123E-17 0.783E-20 -.231E+00   0.420E-02 0.256E-02 -.357E+00
   -.793E-01 -.137E+00 0.272E+04   0.132E+00 0.125E+00 -.272E+04   -.375E-01 -.208E-02 -.306E+00   -.246E-01 0.702E-02 -.484E+00
   0.158E+00 -.342E-03 0.272E+04   -.175E+00 0.515E-01 -.272E+04   0.206E-01 -.315E-01 -.306E+00   0.793E-02 -.237E-01 -.484E+00
   -.158E+00 -.346E-03 0.272E+04   0.175E+00 0.515E-01 -.272E+04   -.206E-01 -.315E-01 -.306E+00   -.619E-02 -.248E-01 -.484E+00
   0.195E-04 -.414E-04 0.272E+04   0.166E-03 -.200E-04 -.272E+04   0.170E-17 0.376E-17 -.532E+00   -.449E-02 -.232E-02 -.547E+00
   0.279E+00 0.161E+00 0.943E+03   0.430E-01 0.249E-01 -.942E+03   -.208E+00 -.120E+00 -.629E+00   -.453E-01 -.263E-01 -.412E-01
   0.145E-04 0.160E+01 0.943E+03   0.148E-03 -.162E+01 -.943E+03   -.973E-09 -.146E-01 -.344E+00   0.410E-02 0.267E-01 -.498E-02
   -.279E+00 0.161E+00 0.943E+03   -.431E-01 0.249E-01 -.942E+03   0.208E+00 -.120E+00 -.629E+00   0.440E-01 -.258E-01 -.419E-01
   0.138E+01 -.798E+00 0.943E+03   -.141E+01 0.812E+00 -.943E+03   -.127E-01 0.731E-02 -.344E+00   0.255E-01 -.952E-02 -.499E-02
   -.138E+01 -.798E+00 0.943E+03   0.141E+01 0.812E+00 -.943E+03   0.127E-01 0.731E-02 -.344E+00   -.185E-01 -.108E-01 -.732E-02
   0.314E-04 -.114E+01 0.941E+03   0.236E-03 0.117E+01 -.940E+03   0.565E-09 0.848E-02 -.462E+00   -.182E-02 -.230E-01 -.826E-01
   -.211E-04 -.322E+00 0.943E+03   0.162E-03 -.497E-01 -.942E+03   0.160E-07 0.240E+00 -.629E+00   -.635E-03 0.510E-01 -.419E-01
   -.989E+00 0.571E+00 0.941E+03   0.101E+01 -.586E+00 -.940E+03   0.735E-02 -.424E-02 -.462E+00   -.206E-01 0.104E-01 -.825E-01
   0.989E+00 0.571E+00 0.941E+03   -.101E+01 -.586E+00 -.940E+03   -.735E-02 -.424E-02 -.462E+00   0.214E-01 0.121E-01 -.809E-01
   -.407E-04 -.107E+01 -.857E+03   0.528E-04 0.947E+00 0.856E+03   0.925E-08 0.139E+00 0.717E+00   0.693E-03 0.415E-02 0.218E+00
   0.135E+02 0.779E+01 -.840E+03   -.131E+02 -.756E+01 0.840E+03   -.498E+00 -.287E+00 -.563E+00   0.160E+00 0.921E-01 0.467E+00
   -.135E+02 0.779E+01 -.840E+03   0.131E+02 -.756E+01 0.840E+03   0.498E+00 -.287E+00 -.563E+00   -.166E+00 0.903E-01 0.466E+00
   0.700E+01 -.404E+01 -.857E+03   -.714E+01 0.412E+01 0.856E+03   0.128E+00 -.741E-01 0.543E+00   0.376E-01 -.167E-01 0.301E+00
   -.146E-04 -.156E+02 -.840E+03   0.145E-03 0.151E+02 0.840E+03   0.383E-07 0.575E+00 -.563E+00   -.505E-02 -.189E+00 0.466E+00
   -.700E+01 -.404E+01 -.857E+03   0.714E+01 0.412E+01 0.856E+03   -.128E+00 -.741E-01 0.543E+00   -.295E-01 -.170E-01 0.301E+00
   0.923E+00 0.533E+00 -.857E+03   -.821E+00 -.474E+00 0.856E+03   -.120E+00 -.695E-01 0.717E+00   -.518E-02 -.306E-02 0.217E+00
   -.923E+00 0.533E+00 -.857E+03   0.820E+00 -.474E+00 0.856E+03   0.120E+00 -.695E-01 0.717E+00   0.426E-02 -.144E-02 0.218E+00
   0.539E-05 0.808E+01 -.857E+03   0.200E-03 -.824E+01 0.856E+03   0.987E-08 0.148E+00 0.543E+00   0.379E-02 0.408E-01 0.301E+00
   -.114E-04 -.131E-04 -.265E+04   0.276E-04 0.343E-04 0.265E+04   -.433E-17 0.115E-17 0.309E+00   -.129E-03 -.935E-04 0.416E+00
   0.209E+02 0.343E+02 -.263E+04   -.211E+02 -.348E+02 0.263E+04   0.603E-01 0.216E+00 0.934E+00   0.877E-01 0.130E+00 0.362E+00
   -.209E+02 0.343E+02 -.263E+04   0.211E+02 -.348E+02 0.263E+04   -.603E-01 0.216E+00 0.934E+00   -.875E-01 0.131E+00 0.362E+00
   0.402E+02 0.919E+00 -.263E+04   -.407E+02 -.857E+00 0.263E+04   0.217E+00 -.558E-01 0.934E+00   0.157E+00 0.107E-01 0.362E+00
   -.402E+02 0.919E+00 -.263E+04   0.407E+02 -.857E+00 0.263E+04   -.217E+00 -.558E-01 0.934E+00   -.157E+00 0.113E-01 0.363E+00
   0.193E+02 -.352E+02 -.263E+04   -.196E+02 0.357E+02 0.263E+04   0.157E+00 -.160E+00 0.934E+00   0.700E-01 -.141E+00 0.362E+00
   -.193E+02 -.352E+02 -.263E+04   0.196E+02 0.357E+02 0.263E+04   -.157E+00 -.160E+00 0.934E+00   -.689E-01 -.142E+00 0.363E+00
   0.286E-04 -.277E-04 -.265E+04   0.148E-03 -.493E-04 0.265E+04   0.353E-18 0.862E-18 0.367E+00   -.397E-02 -.200E-02 0.376E+00
   0.228E-04 -.151E-04 -.216E+04   0.992E-04 0.867E-05 0.216E+04   0.209E-17 -.340E-17 -.477E+00   0.422E-02 0.260E-02 -.551E-01
   0.199E-03 -.963E-04 -.172E+04   0.167E-04 0.113E-05 0.170E+04   -.420E-17 0.123E-18 0.233E+02   0.367E-02 0.225E-02 -.483E+00
   0.791E-05 -.134E-04 -.341E+03   0.915E-06 0.844E-07 0.349E+03   -.951E-19 -.839E-19 -.824E+01   0.202E-03 0.123E-03 0.596E-01
   -.475E-03 -.857E-03 -.155E+02   0.309E-16 -.949E-13 -.188E-11   0.537E-16 -.303E-16 0.152E+02   0.131E-01 0.834E-02 0.738E+00

 POSITION                                       TOTAL-FORCE (eV/Angst)
      0.00000      0.00000      5.28038         0.000000      0.000000      0.012935
      2.93784      0.00000      5.28038        -0.001724      0.011219     -0.010424
      5.87568      0.00000      5.28038         0.001724      0.011219     -0.010424
      1.46892      2.54424      5.28038         0.008854     -0.007103     -0.010424
      4.40676      2.54424      5.28038         0.000000      0.000000     -0.021995
      7.34459      2.54424      5.28038        -0.008854     -0.007103     -0.010424
      2.93784      5.08848      5.28038         0.010578     -0.004117     -0.010424
      5.87568      5.08848      5.28038        -0.010578     -0.004117     -0.010424
      8.81351      5.08848      5.28038         0.000000      0.000000     -0.010269
      1.46892      0.84808      7.67911         0.069799      0.040298      0.101809
      4.40676      0.84808      7.67911        -0.000000     -0.017951      0.072209
      7.34459      0.84808      7.67911        -0.069799      0.040298      0.101809
      2.93784      3.39232      7.67911        -0.015546      0.008976      0.072209
      5.87568      3.39232      7.67911         0.015546      0.008976      0.072209
      8.81351      3.39232      7.67911         0.000000      0.014313      0.100745
      4.40676      5.93656      7.67911        -0.000000     -0.080597      0.101809
      7.34459      5.93656      7.67911         0.012395     -0.007156      0.100745
     10.28243      5.93656      7.67911        -0.012395     -0.007156      0.100745
      8.81351      1.69299     10.06281         0.000000      0.024877      0.012123
      2.93673      1.69552     10.07074         0.055175      0.031855     -0.072355
      5.87678      1.69552     10.07074        -0.055175      0.031855     -0.072355
     10.28200      4.24065     10.07064         0.020364     -0.011757     -0.048673
      4.40676      4.24168     10.07074        -0.000000     -0.063710     -0.072355
      7.34503      4.24065     10.07064        -0.020364     -0.011757     -0.048673
     11.75410      6.78623     10.06281        -0.021544     -0.012438      0.012123
      5.87293      6.78623     10.06281         0.021544     -0.012438      0.012123
      8.81351      6.78414     10.07064         0.000000      0.023515     -0.048673
      0.00000      0.00000     12.49359         0.000000      0.000000     -0.016085
      2.94266      0.00661     12.49157        -0.069761     -0.154442     -0.089679
      5.87086      0.00661     12.49157         0.069761     -0.154442     -0.089679
      1.47706      2.54511     12.49157        -0.168632      0.016806     -0.089679
      7.33646      2.54511     12.49157         0.168632      0.016806     -0.089679
      2.94116      5.08100     12.49157        -0.098871      0.137636     -0.089679
      5.87236      5.08100     12.49157         0.098871      0.137636     -0.089679
      8.81351      5.08848     12.49778         0.000000      0.000000      0.005518
      4.40676      2.54424     12.34091         0.000000      0.000000      0.200797
      4.40676      2.54424     14.34687         0.000000      0.000000     -0.003091
      4.40676      2.54424     15.31423         0.000000      0.000000     -0.064770
    total drift:                                0.012586      0.007483      0.378783

  FREE ENERGIE OF THE ION-ELECTRON SYSTEM (eV)
  free  energy   TOTEN  =      -120.94794158 eV

  energy  without entropy=     -120.94794158  energy(sigma->0) =     -120.94794158

 stress matrix after NEB project (eV)
    -20.41708     -0.00000     -0.00000
     -0.00000    -20.41708      0.00000
      0.00000      0.00000      0.98729
  FORCES: max atom, RMS     0.064770    0.010519
  FORCE total and by dimension    0.064844    0.064770
  Stress total and by dimension   28.890989   20.417083
|           W    W    AA    RRRRR   N    N  II  N    N   GGGG   !!!           |
|           W    W   A  A   R    R  NN   N  II  NN   N  G    G  !!!           |
|           W    W  A    A  R    R  N N  N  II  N N  N  G       !!!           |
|           W WW W  AAAAAA  RRRRR   N  N N  II  N  N N  G  GGG   !            |
|           WW  WW  A    A  R   R   N   NN  II  N   NN  G    G                |
|           W    W  A    A  R    R  N    N  II  N    N   GGGG   !!!           |
|     Tetrahedron method does not include variations of the Fermi             |
|     occupations, so forces and stress will be inaccurate. We suggest        |
|     using a different smearing scheme ISMEAR = 1 or 2 for metals in         |
|     relaxations.                                                            |

 total charge

# of ion       s       p       d       tot
    1        0.542   0.239   8.771   9.552
    2        0.546   0.240   8.765   9.551
    3        0.546   0.240   8.765   9.551
    4        0.546   0.240   8.765   9.551
    5        0.541   0.242   8.764   9.547
    6        0.546   0.240   8.765   9.551
    7        0.546   0.240   8.765   9.551
    8        0.546   0.240   8.765   9.551
    9        0.541   0.241   8.765   9.547
   10        0.518   0.309   8.770   9.597
   11        0.520   0.305   8.775   9.600
   12        0.518   0.309   8.770   9.597
   13        0.520   0.305   8.775   9.600
   14        0.520   0.305   8.775   9.600
   15        0.515   0.307   8.778   9.601
   16        0.518   0.309   8.770   9.597
   17        0.515   0.307   8.778   9.601
   18        0.515   0.307   8.778   9.601
   19        0.514   0.305   8.773   9.591
   20        0.527   0.313   8.765   9.604
   21        0.527   0.313   8.765   9.604
   22        0.513   0.304   8.773   9.589
   23        0.527   0.313   8.765   9.604
   24        0.513   0.304   8.773   9.589
   25        0.514   0.305   8.773   9.591
   26        0.514   0.305   8.773   9.591
   27        0.513   0.304   8.773   9.589
   28        0.546   0.232   8.768   9.546
   29        0.533   0.227   8.777   9.538
   30        0.533   0.227   8.777   9.538
   31        0.533   0.227   8.777   9.538
   32        0.533   0.227   8.777   9.538
   33        0.533   0.227   8.777   9.538
   34        0.533   0.227   8.777   9.538
   35        0.543   0.234   8.764   9.542
   36        0.384   0.421   8.425   9.230
   37        1.545   3.500   0.000   5.045
   38        0.609   0.126   0.000   0.734
tot         21.046  13.566 315.411 350.023

 BZINTS: Fermi energy:    0.066351;  402.000000 electrons
         Band energy:-0.146383E+04;  BLOECHL correction:   -0.071744