 vasp.6.2.0 18Jan21 (build Jun 12 2021 23:27:24) complex

 executed on             LinuxIFC date 2022.05.30  16:30:28

 INCAR:
   ISMEAR = -5
   SIGMA = 0.1
   ISPIN = 1
   EDIFF = 1.d-5
   EDIFFG = -0.01
   NSW = 0
   NELM = 150
   ENCUT = 500
   ISIF = 2
   IBRION = 2
   LREAL = Auto
   ALGO = Fast
   ICHARG = 11
   LORBIT = 10
   LCHARG = .F.
   LWAVE = .F.

 POTCAR:    PAW_PBE Au 04Oct2007
 POTCAR:    PAW_PBE W 08Apr2002
 POTCAR:    PAW_PBE C 08Apr2002
 POTCAR:    PAW_PBE O 08Apr2002
 POTCAR:    PAW_PBE H 15Jun2001
|           W    W    AA    RRRRR   N    N  II  N    N   GGGG   !!!           |
|           W    W   A  A   R    R  NN   N  II  NN   N  G    G  !!!           |
|           W    W  A    A  R    R  N N  N  II  N N  N  G       !!!           |
|           W WW W  AAAAAA  RRRRR   N  N N  II  N  N N  G  GGG   !            |
|           WW  WW  A    A  R   R   N   NN  II  N   NN  G    G                |
|           W    W  A    A  R    R  N    N  II  N    N   GGGG   !!!           |
|     For optimal performance we recommend to set                             |
|       NCORE = 2 up to number-of-cores-per-socket                            |
|     This setting can greatly improve the performance of VASP for DFT.       |
|     The default, NCORE=1 might be grossly inefficient on modern             |
|     multi-core architectures or massively parallel machines. Do your        |
|     Unfortunately you need to use the default for GW and RPA                |
|     calculations (for HF NCORE is supported but not extensively tested      |
|     yet).                                                                   |

 POTCAR:    PAW_PBE Au 04Oct2007
   VRHFIN =Au: s1d10

   TITEL  = PAW_PBE Au 04Oct2007
   POMASS =  196.966; ZVAL   =   11.000    mass and valenz
   ENMAX  =  229.943; ENMIN  =  172.457 eV

 POTCAR:    PAW_PBE W 08Apr2002
   VRHFIN =W : 6s5d

   TITEL  = PAW_PBE W 08Apr2002
   POMASS =  183.850; ZVAL   =    6.000    mass and valenz
   ENMAX  =  223.057; ENMIN  =  167.293 eV

 POTCAR:    PAW_PBE C 08Apr2002
   VRHFIN =C: s2p2

[...]

 POTCAR:    PAW_PBE O 08Apr2002
   VRHFIN =O: s2p4

   TITEL  = PAW_PBE O 08Apr2002
   POMASS =   16.000; ZVAL   =    6.000    mass and valenz
   ENMAX  =  400.000; ENMIN  =  300.000 eV

 POTCAR:    PAW_PBE H 15Jun2001
   VRHFIN =H: ultrasoft test

   TITEL  = PAW_PBE H 15Jun2001
   POMASS =    1.000; ZVAL   =    1.000    mass and valenz
   ENMAX  =  250.000; ENMIN  =  200.000 eV

 Optimization of the real space projectors (new method)

 maximal supplied QI-value         = 15.12
 optimisation between [QCUT,QGAM] = [ 11.34, 22.83] = [ 36.00,145.93] Ry
 Optimized for a Real-space Cutoff    1.39 Angstroem

   l    n(q)    QCUT    max X(q) W(low)/X(q) W(high)/X(q)  e(spline)
   2      9    11.338    60.898    0.39E-03    0.42E-03    0.21E-06
   2      9    11.338    58.894    0.40E-03    0.42E-03    0.22E-06
   0      9    11.338   109.617    0.13E-03    0.20E-04    0.13E-06
   0      9    11.338    75.026    0.13E-03    0.20E-04    0.13E-06
   1      9    11.338    16.344    0.33E-04    0.24E-03    0.18E-06
   1      9    11.338    10.160    0.26E-04    0.19E-03    0.15E-06
 Optimization of the real space projectors (new method)

[...]

   l    n(q)    QCUT    max X(q) W(low)/X(q) W(high)/X(q)  e(spline)
   0      7    11.387    20.381    0.39E-03    0.13E-02    0.15E-06
   0      7    11.387    15.268    0.42E-03    0.14E-02    0.17E-06
   1      6    11.387     5.964    0.41E-03    0.11E-02    0.17E-06
   1      6    11.387     5.382    0.39E-03    0.87E-03    0.15E-06
 Optimization of the real space projectors (new method)

 maximal supplied QI-value         = 34.20
 optimisation between [QCUT,QGAM] = [ 11.29, 22.57] = [ 35.68,142.71] Ry
 Optimized for a Real-space Cutoff    1.16 Angstroem

   l    n(q)    QCUT    max X(q) W(low)/X(q) W(high)/X(q)  e(spline)
   0      8    11.287    19.460    0.40E-03    0.73E-03    0.16E-06
   0      8    11.287    12.209    0.38E-03    0.70E-03    0.15E-06
   1      7    11.287     4.655    0.22E-03    0.25E-04    0.22E-06
  PAW_PBE Au 04Oct2007                  :
  PAW_PBE W 08Apr2002                   :
  PAW_PBE C 08Apr2002                   :
  PAW_PBE O 08Apr2002                   :
  PAW_PBE H 15Jun2001                   :

 POSCAR: Au-W-COH
  positions in direct lattice
  velocities in cartesian coordinates
 exchange correlation table for  LEXCH =        8
   RHO(1)=    0.500       N(1)  =     2000
   RHO(2)=  100.500       N(2)  =     4000

 VTST: version 3.2, (02/03/18)

 CHAIN: initializing optimizer

 OPT: Using VASP Conjugate-Gradient optimizer
 CHAIN: Read ICHAIN            0

 POSCAR: Au-W-COH
  positions in direct lattice
  velocities in cartesian coordinates

 ion  position               nearest neighbor table
   1  0.000  0.000  0.197-  16 2.94  12 2.94   6 2.94   8 2.94   7 2.94   3 2.94  10 2.94   4 2.94
                             2 2.94
   2  0.333  0.000  0.197-   9 2.94  11 2.94  17 2.94  10 2.94   8 2.94   4 2.94   5 2.94   1 2.94
                             3 2.94
   3  0.667  0.000  0.197-   7 2.94  18 2.94  12 2.94   1 2.94  11 2.94   5 2.94   6 2.94   9 2.94
                             2 2.94
   4  0.000  0.333  0.197-  10 2.94   6 2.94   5 2.94  13 2.94   2 2.94  15 2.94   9 2.94   1 2.94
                             7 2.94
   5  0.333  0.333  0.197-  13 2.94   7 2.94  11 2.94   4 2.94   2 2.94  14 2.94   3 2.94   8 2.94
                             6 2.94
   6  0.667  0.333  0.197-  15 2.94  14 2.94   1 2.94  12 2.94   4 2.94   9 2.94   8 2.94   3 2.94
                             5 2.94
   7  0.000  0.667  0.197-  18 2.94   3 2.94  16 2.94   5 2.94   1 2.94  13 2.94   8 2.94   4 2.94
                             9 2.94
   8  0.333  0.667  0.197-   9 2.94  17 2.94   1 2.94   2 2.94  14 2.94  16 2.94   6 2.94   7 2.94
                             5 2.94
   9  0.667  0.667  0.197-   2 2.94   8 2.94  17 2.94   6 2.94  15 2.94   4 2.94   3 2.94  18 2.94
                             7 2.94
  10  0.111  0.111  0.287-  20 2.90  11 2.94  17 2.94   2 2.94   4 2.94   1 2.94  12 2.94  16 2.94
                            13 2.94  15 2.94  26 2.96  19 2.96
  11  0.444  0.111  0.287-  20 2.91  21 2.91  13 2.94   2 2.94  10 2.94  17 2.94   5 2.94   3 2.94
                            18 2.94  14 2.94  12 2.94  27 2.94
  12  0.778  0.111  0.287-  21 2.90  16 2.94  18 2.94   1 2.94  14 2.94  15 2.94   3 2.94   6 2.94
                            10 2.94  11 2.94  25 2.96  19 2.96
  13  0.111  0.444  0.287-  23 2.91  20 2.91   5 2.94  18 2.94  11 2.94   7 2.94   4 2.94  16 2.94
                            10 2.94  14 2.94  15 2.94  22 2.94
  14  0.444  0.444  0.287-  21 2.91  23 2.91  15 2.94   6 2.94  12 2.94   8 2.94  17 2.94   5 2.94
                            16 2.94  13 2.94  11 2.94  24 2.94
  15  0.778  0.444  0.287-  24 2.92  22 2.92  14 2.94   6 2.94  17 2.94  12 2.94   9 2.94   4 2.94
                            10 2.94  13 2.94  18 2.94  19 2.95
  16  0.111  0.778  0.287-  23 2.90  18 2.94  12 2.94   7 2.94   1 2.94   8 2.94  13 2.94  10 2.94
                            14 2.94  17 2.94  25 2.96  26 2.96
  17  0.444  0.778  0.287-  27 2.92  24 2.92   9 2.94  15 2.94   2 2.94  10 2.94  11 2.94   8 2.94
                            14 2.94  16 2.94  18 2.94  26 2.95
  18  0.778  0.778  0.287-  22 2.92  27 2.92  16 2.94   7 2.94  13 2.94  12 2.94   3 2.94  11 2.94
                             9 2.94  15 2.94  17 2.94  25 2.95
  19  0.888  0.224  0.378-  24 2.93  22 2.93  21 2.93  20 2.93  28 2.94  15 2.95  26 2.96  25 2.96
                            10 2.96  12 2.96  32 3.04  31 3.04
  20  0.222  0.222  0.375-  36 2.74  10 2.90  11 2.91  13 2.91  26 2.93  19 2.93  23 2.95  21 2.95
                            27 2.96  22 2.96  29 2.98  31 2.98
  21  0.557  0.222  0.375-  36 2.74  12 2.90  14 2.91  11 2.91  25 2.93  19 2.93  20 2.95  23 2.95
                            27 2.96  24 2.96  30 2.98  32 2.98
  22  0.886  0.557  0.376-  24 2.90  27 2.90  18 2.92  15 2.92  25 2.93  19 2.93  13 2.94  35 2.95
                            23 2.96  20 2.96  33 3.02  31 3.02
  23  0.222  0.557  0.375-  36 2.74  16 2.90  13 2.91  14 2.91  25 2.93  26 2.93  20 2.95  21 2.95
                            22 2.96  24 2.96  33 2.98  34 2.98
  24  0.557  0.557  0.376-  27 2.90  22 2.90  15 2.92  17 2.92  26 2.93  19 2.93  14 2.94  35 2.95
                            21 2.96  23 2.96  32 3.02  34 3.02
  25  0.888  0.888  0.378-  22 2.93  27 2.93  23 2.93  21 2.93  28 2.94  18 2.95  19 2.96  26 2.96
                            16 2.96  12 2.96  33 3.04  30 3.04
  26  0.224  0.888  0.378-  27 2.93  24 2.93  20 2.93  23 2.93  28 2.94  17 2.95  19 2.96  25 2.96
                            10 2.96  16 2.96  29 3.04  34 3.04
  27  0.557  0.886  0.376-  24 2.90  22 2.90  17 2.92  18 2.92  26 2.93  25 2.93  11 2.94  35 2.95
                            20 2.96  21 2.96  29 3.02  30 3.02
  28  0.000  0.000  0.467-  25 2.94  19 2.94  26 2.94  34 3.00  32 3.00  33 3.00  30 3.00  31 3.00
                            29 3.00
  29  0.334  0.013  0.469-  30 2.82  31 2.82  36 2.84  20 2.98  35 3.00  28 3.00  27 3.02  26 3.04
                            34 3.17
  30  0.653  0.013  0.469-  29 2.82  32 2.82  36 2.84  21 2.98  35 3.00  28 3.00  27 3.02  25 3.04
                            33 3.17
  31  0.013  0.334  0.469-  33 2.82  29 2.82  36 2.84  20 2.98  35 3.00  28 3.00  22 3.02  19 3.04
                            32 3.17
  32  0.653  0.334  0.469-  34 2.82  30 2.82  36 2.84  21 2.98  35 3.00  28 3.00  24 3.02  19 3.04
                            31 3.17
  33  0.013  0.653  0.469-  31 2.82  34 2.82  36 2.84  23 2.98  35 3.00  28 3.00  22 3.02  25 3.04
                            30 3.17
  34  0.334  0.653  0.469-  32 2.82  33 2.82  36 2.84  23 2.98  35 3.00  28 3.00  24 3.02  26 3.04
                            29 3.17
  35  0.667  0.667  0.467-  24 2.95  27 2.95  22 2.95  29 3.00  34 3.00  32 3.00  31 3.00  30 3.00
                            33 3.00
  36  0.333  0.333  0.455-  37 1.86  20 2.74  23 2.74  21 2.74  33 2.84  31 2.84  29 2.84  30 2.84
                            34 2.84  32 2.84
  37  0.333  0.333  0.525-  38 1.26  36 1.86
  38  0.333  0.333  0.572-  39 0.96  37 1.26
  39  0.333  0.333  0.608-  38 0.96

  LATTYP: Found a hexagonal cell.
 ALAT       =     8.8135128021
 C/A-ratio  =     3.0356784858

  Lattice vectors:

 A1 = (  -4.4067569092,  -7.6327256898,   0.0000000000)
 A2 = (   8.8135128021,   0.0000000000,   0.0000000000)
 A3 = (   0.0000000000,   0.0000000000,  26.7549911976)

Analysis of symmetry for initial positions (statically):
 Subroutine PRICEL returns:
 Original cell was already a primitive cell.

 Routine SETGRP: Setting up the symmetry group for a
 hexagonal supercell.

 Subroutine GETGRP returns: Found  6 space group operations
 (whereof  6 operations were pure point group operations)
 out of a pool of 24 trial point group operations.

The static configuration has the point symmetry C_3v.

Analysis of symmetry for dynamics (positions and initial velocities):
 Subroutine PRICEL returns:
 Original cell was already a primitive cell.

[...]

The dynamic configuration has the point symmetry C_3v.
[...]
     57      -4.4913      2.00000
     58      -4.4724      2.00000
     59      -4.4438      2.00000
     60      -4.4078      2.00000
[...]
    238       5.2791      0.00000
    239       5.3202      0.00000
    240       5.4600      0.00000
    241       5.5927      0.00000
    242       5.7183      0.00000
    243       5.9153      0.00000
    244       5.9524      0.00000
    245       5.9708      0.00000
    246       6.0703      0.00000
    247       6.1120      0.00000
    248       6.1175      0.00000
    249       6.1921      0.00000
    250       6.3001      0.00000
    251       6.3264      0.00000
    252       6.3915      0.00000

 soft charge-density along one line, spin component           1
         0         1         2         3         4         5         6         7         8         9
 total charge-density along one line

------------------------ aborting loop because EDIFF is reached ----------------------------------------

 total charge

# of ion       s       p       d       tot
    1        0.545   0.239   8.769   9.552
    2        0.546   0.241   8.764   9.551
    3        0.546   0.241   8.764   9.551
    4        0.546   0.241   8.764   9.551
    5        0.544   0.243   8.760   9.546
    6        0.546   0.241   8.764   9.551
    7        0.546   0.241   8.764   9.551
    8        0.546   0.241   8.764   9.551
    9        0.541   0.240   8.769   9.549
   10        0.522   0.308   8.769   9.599
   11        0.524   0.308   8.778   9.609
   12        0.522   0.308   8.769   9.599
   13        0.524   0.308   8.778   9.609
   14        0.524   0.308   8.778   9.609
   15        0.513   0.310   8.773   9.597
   16        0.522   0.308   8.769   9.599
   17        0.513   0.310   8.773   9.597
   18        0.513   0.310   8.773   9.597
   19        0.517   0.295   8.770   9.583
   20        0.565   0.343   8.740   9.648
   21        0.565   0.343   8.740   9.648
   22        0.507   0.308   8.776   9.591
   23        0.565   0.343   8.740   9.648
   24        0.507   0.308   8.776   9.591
   25        0.517   0.295   8.770   9.583
   26        0.517   0.295   8.770   9.583
   27        0.507   0.308   8.776   9.591
   28        0.539   0.226   8.761   9.526
   29        0.571   0.256   8.742   9.568
   30        0.571   0.256   8.742   9.568
   31        0.571   0.256   8.742   9.568
   32        0.571   0.256   8.742   9.568
   33        0.571   0.256   8.742   9.568
   34        0.571   0.256   8.742   9.568
   35        0.540   0.228   8.753   9.521
   36        0.610   0.632   4.151   5.393
   37        0.924   1.463   0.000   2.387
   38        1.520   3.776   0.000   5.296
   39        0.563   0.138   0.000   0.701
tot         22.466  15.787 310.810 349.064

  FORCE on cell =-STRESS in cart. coord.  units (eV):
  Direction    XX          YY          ZZ          XY          YZ          ZX
  Alpha Z   865.22039   865.22039   865.22039
  Ewald  184312.88029184312.88072************    -0.00031    -0.00008    -0.00013
  Hartree192796.34998192796.34998************     0.00001    -0.00002    -0.00004
  E(xc)   -1801.58610 -1801.58624 -1809.36257     0.00013    -0.00001    -0.00002
  Local  ************************389136.32164     0.00213     0.00000    -0.00001
  n-local  -110.05383   -64.58041   -61.42416    22.60692    -1.69909     1.48316
  augment  2376.34556  2376.34705  2393.28179    -0.00128     0.00002     0.00007
  Kinetic  5632.09915  5641.28967  5633.75701     6.01816     0.27254     0.21500
  Fock        0.00000     0.00000     0.00000     0.00000     0.00000     0.00000
  Total     -20.97879   -20.97879     3.13586    -0.00000     0.00000     0.00000
  in kB     -18.67487   -18.67486     2.79148    -0.00000     0.00000     0.00000

 VOLUME and BASIS-vectors are now :
  energy-cutoff  :      500.00
  volume of cell :     1799.84
      direct lattice vectors                 reciprocal lattice vectors
     8.813512802  0.000000000  0.000000000     0.113462137 -0.065507406  0.000000000
     4.406756909  7.632725690  0.000000000     0.000000000  0.131014796  0.000000000
     0.000000000  0.000000000 26.754991198     0.000000000  0.000000000  0.037376204

  length of vectors
     8.813512802  8.813512802 26.754991198     0.131014796  0.131014796  0.037376204

 FORCES acting on ions
    electron-ion (+dipol)            ewald-force                    non-local-force                 convergence-correction
   -.201E-04 -.165E-04 0.281E+04   0.520E-04 0.434E-04 -.281E+04   -.211E-16 0.819E-18 -.943E+00   -.201E-03 -.130E-03 -.371E+00
   0.665E+00 0.187E+00 0.281E+04   -.782E+00 -.216E+00 -.281E+04   0.358E-01 0.657E-01 -.214E+00   0.888E-01 -.189E-01 -.307E+00
   -.665E+00 0.187E+00 0.281E+04   0.782E+00 -.216E+00 -.281E+04   -.358E-01 0.657E-01 -.214E+00   -.886E-01 -.169E-01 -.306E+00
   0.494E+00 0.482E+00 0.281E+04   -.578E+00 -.569E+00 -.281E+04   0.748E-01 -.189E-02 -.214E+00   0.281E-01 0.863E-01 -.307E+00
   0.106E-04 -.221E-04 0.282E+04   0.951E-04 0.175E-05 -.282E+04   -.174E-17 0.178E-17 -.848E-01   0.430E-02 0.262E-02 -.230E+00
   -.494E+00 0.482E+00 0.281E+04   0.578E+00 -.569E+00 -.281E+04   -.748E-01 -.189E-02 -.214E+00   -.297E-01 0.873E-01 -.306E+00
   -.171E+00 -.669E+00 0.281E+04   0.204E+00 0.785E+00 -.281E+04   0.390E-01 -.638E-01 -.214E+00   -.589E-01 -.682E-01 -.306E+00
   0.171E+00 -.669E+00 0.281E+04   -.204E+00 0.785E+00 -.281E+04   -.390E-01 -.638E-01 -.214E+00   0.608E-01 -.693E-01 -.306E+00
   0.197E-04 -.414E-04 0.282E+04   0.166E-03 -.200E-04 -.282E+04   -.256E-17 -.101E-17 -.649E+00   -.464E-02 -.240E-02 -.364E+00
   0.764E+01 0.441E+01 0.959E+03   -.741E+01 -.428E+01 -.958E+03   -.390E+00 -.225E+00 -.626E+00   0.143E+00 0.827E-01 0.155E+00
   0.147E-04 0.312E+01 0.966E+03   0.148E-03 -.335E+01 -.966E+03   0.507E-08 0.761E-01 -.271E+00   0.379E-02 0.715E-01 0.212E+00
   -.764E+01 0.441E+01 0.959E+03   0.741E+01 -.428E+01 -.958E+03   0.390E+00 -.225E+00 -.626E+00   -.145E+00 0.842E-01 0.154E+00
   0.271E+01 -.156E+01 0.966E+03   -.290E+01 0.167E+01 -.966E+03   0.659E-01 -.381E-01 -.271E+00   0.641E-01 -.322E-01 0.212E+00
   -.271E+01 -.156E+01 0.966E+03   0.290E+01 0.167E+01 -.966E+03   -.659E-01 -.381E-01 -.271E+00   -.563E-01 -.326E-01 0.212E+00
   0.315E-04 0.552E+01 0.964E+03   0.236E-03 -.569E+01 -.964E+03   0.198E-08 0.298E-01 -.474E+00   -.239E-02 0.785E-01 0.160E+00
   -.207E-04 -.882E+01 0.959E+03   0.163E-03 0.856E+01 -.958E+03   0.300E-07 0.451E+00 -.626E+00   0.297E-03 -.167E+00 0.154E+00
   0.478E+01 -.276E+01 0.964E+03   -.493E+01 0.284E+01 -.964E+03   0.258E-01 -.149E-01 -.474E+00   0.671E-01 -.409E-01 0.160E+00
   -.478E+01 -.276E+01 0.964E+03   0.493E+01 0.284E+01 -.964E+03   -.258E-01 -.149E-01 -.474E+00   -.671E-01 -.390E-01 0.160E+00
   -.443E-04 0.327E+01 -.929E+03   0.550E-04 -.352E+01 0.927E+03   0.676E-09 0.102E-01 0.666E+00   -.259E-03 0.190E+00 0.610E+00
   0.298E+01 0.172E+01 -.878E+03   -.235E+01 -.136E+01 0.878E+03   -.112E+01 -.644E+00 -.126E+01   0.277E+00 0.160E+00 0.788E+00
   -.298E+01 0.172E+01 -.878E+03   0.235E+01 -.136E+01 0.878E+03   0.112E+01 -.644E+00 -.126E+01   -.276E+00 0.162E+00 0.788E+00
   -.779E+01 0.450E+01 -.902E+03   0.722E+01 -.417E+01 0.901E+03   0.494E+00 -.285E+00 0.744E+00   0.825E-01 -.520E-01 0.609E+00
   -.107E-04 -.344E+01 -.878E+03   0.139E-03 0.271E+01 0.878E+03   0.858E-07 0.129E+01 -.126E+01   0.181E-02 -.320E+00 0.788E+00
   0.779E+01 0.450E+01 -.902E+03   -.722E+01 -.417E+01 0.901E+03   -.494E+00 -.285E+00 0.744E+00   -.894E-01 -.516E-01 0.608E+00
   -.283E+01 -.164E+01 -.929E+03   0.305E+01 0.176E+01 0.927E+03   -.880E-02 -.508E-02 0.666E+00   -.163E+00 -.939E-01 0.609E+00
   0.283E+01 -.164E+01 -.929E+03   -.305E+01 0.176E+01 0.927E+03   0.880E-02 -.508E-02 0.666E+00   0.164E+00 -.950E-01 0.610E+00
   0.988E-05 -.899E+01 -.902E+03   0.197E-03 0.833E+01 0.901E+03   0.380E-07 0.571E+00 0.744E+00   -.428E-02 0.974E-01 0.609E+00
   -.153E-04 -.136E-04 -.270E+04   0.310E-04 0.345E-04 0.270E+04   0.295E-17 -.111E-17 0.373E+00   0.129E-02 0.727E-03 0.811E+00
   0.351E+02 0.569E+02 -.269E+04   -.343E+02 -.558E+02 0.269E+04   -.108E+01 -.160E+01 0.161E+00   0.151E+00 0.239E+00 0.498E+00
   -.351E+02 0.569E+02 -.269E+04   0.343E+02 -.558E+02 0.269E+04   0.108E+01 -.160E+01 0.161E+00   -.157E+00 0.241E+00 0.499E+00
   0.668E+02 0.195E+01 -.269E+04   -.655E+02 -.180E+01 0.269E+04   -.193E+01 -.137E+00 0.161E+00   0.282E+00 0.114E-01 0.498E+00
   -.668E+02 0.195E+01 -.269E+04   0.655E+02 -.180E+01 0.269E+04   0.193E+01 -.137E+00 0.161E+00   -.290E+00 0.125E-01 0.498E+00
   0.317E+02 -.588E+02 -.269E+04   -.312E+02 0.576E+02 0.269E+04   -.846E+00 0.174E+01 0.161E+00   0.130E+00 -.257E+00 0.499E+00
   -.317E+02 -.588E+02 -.269E+04   0.312E+02 0.576E+02 0.269E+04   0.846E+00 0.174E+01 0.161E+00   -.134E+00 -.257E+00 0.498E+00
   0.356E-04 -.280E-04 -.270E+04   0.139E-03 -.503E-04 0.270E+04   0.139E-16 -.263E-18 0.322E+00   -.359E-02 -.178E-02 0.539E+00
   -.445E-05 0.170E-05 -.126E+04   0.638E-04 0.589E-05 0.126E+04   0.361E-17 -.219E-17 -.950E+00   0.135E-02 0.800E-03 0.320E+00
   -.635E-05 -.793E-04 -.101E+04   0.158E-04 0.101E-05 0.990E+03   0.290E-17 -.144E-17 0.202E+02   0.132E-02 0.797E-03 -.117E+00
   0.245E-03 -.896E-04 -.172E+04   0.503E-05 0.526E-06 0.173E+04   0.152E-18 0.227E-18 -.585E+01   0.391E-02 0.239E-02 -.205E+00
   0.633E-05 -.146E-04 -.332E+03   0.201E-06 0.392E-07 0.341E+03   0.532E-20 -.128E-19 -.875E+01   0.205E-03 0.125E-03 -.285E-01
   -.562E-03 -.958E-03 -.815E+01   0.487E-13 0.580E-13 -.978E-11   -.905E-16 -.226E-15 -.340E+00   -.119E-01 -.614E-02 0.910E+01

 POSITION                                       TOTAL-FORCE (eV/Angst)
      0.00000      0.00000      5.28038        -0.000000      0.000000     -0.120570
      2.93784      0.00000      5.28038         0.008270      0.018614     -0.072478
      5.87568      0.00000      5.28038        -0.008270      0.018614     -0.072478
      1.46892      2.54424      5.28038         0.020255     -0.002144     -0.072478
      4.40676      2.54424      5.28038        -0.000000      0.000000     -0.111688
      7.34459      2.54424      5.28038        -0.020255     -0.002144     -0.072478
      2.93784      5.08848      5.28038         0.011985     -0.016469     -0.072478
      5.87568      5.08848      5.28038        -0.011985     -0.016469     -0.072478
      8.81351      5.08848      5.28038        -0.000000      0.000000     -0.063625
      1.46892      0.84808      7.67911        -0.017646     -0.010188      0.165310
      4.40676      0.84808      7.67911        -0.000000     -0.076998      0.052936
      7.34459      0.84808      7.67911         0.017646     -0.010188      0.165310
      2.93784      3.39232      7.67911        -0.066682      0.038499      0.052936
      5.87568      3.39232      7.67911         0.066682      0.038499      0.052936
      8.81351      3.39232      7.67911        -0.000000     -0.063537      0.142702
      4.40676      5.93656      7.67911         0.000000      0.020376      0.165310
      7.34459      5.93656      7.67911        -0.055024      0.031768      0.142702
     10.28243      5.93656      7.67911         0.055024      0.031768      0.142702
      8.81351      1.70807     10.10081        -0.000000     -0.052652      0.039740
      2.93151      1.69251     10.04012        -0.207192     -0.119622     -0.353761
      5.88200      1.69251     10.04012         0.207192     -0.119622     -0.353761
     10.26425      4.25090     10.06644         0.010074     -0.005816      0.041810
      4.40676      4.24770     10.04012         0.000000      0.239245     -0.353761
      7.36277      4.25090     10.06644        -0.010074     -0.005816      0.041810
     11.74104      6.77869     10.10081         0.045598      0.026326      0.039740
      5.88599      6.77869     10.10081        -0.045598      0.026326      0.039740
      8.81351      6.76365     10.06644         0.000000      0.011632      0.041810
      0.00000      0.00000     12.49922        -0.000000      0.000000     -0.183681
      2.99894      0.10048     12.55446        -0.127159     -0.280198     -0.192584
      5.81457      0.10048     12.55446         0.127159     -0.280198     -0.192584
      1.58649      2.54692     12.55446        -0.306238      0.029976     -0.192584
      7.22703      2.54692     12.55446         0.306238      0.029976     -0.192584
      2.99430      4.98533     12.55446        -0.179079      0.250222     -0.192584
      5.81921      4.98533     12.55446         0.179079      0.250222     -0.192584
      8.81351      5.08848     12.49869        -0.000000      0.000000     -0.077770
      4.40676      2.54424     12.18560        -0.000000      0.000000      1.824061
      4.40676      2.54424     14.04469        -0.000000      0.000000      0.070186
      4.40676      2.54424     15.30130        -0.000000      0.000000     -0.027102
      4.40676      2.54424     16.25708        -0.000000      0.000000      0.014344
    total drift:                               -0.012453     -0.007094      0.616748

  FREE ENERGIE OF THE ION-ELECTRON SYSTEM (eV)
  free  energy   TOTEN  =      -135.73493354 eV

  energy  without entropy=     -135.73493354  energy(sigma->0) =     -135.73493354

 stress matrix after NEB project (eV)
    -20.97879     -0.00000      0.00000
     -0.00000    -20.97879      0.00000
      0.00000      0.00000      3.13586
  FORCES: max atom, RMS     0.070186    0.012265
  FORCE total and by dimension    0.076592    0.070186
  Stress total and by dimension   29.833751   20.978789
|           W    W    AA    RRRRR   N    N  II  N    N   GGGG   !!!           |
|           W    W   A  A   R    R  NN   N  II  NN   N  G    G  !!!           |
|           W    W  A    A  R    R  N N  N  II  N N  N  G       !!!           |
|           W WW W  AAAAAA  RRRRR   N  N N  II  N  N N  G  GGG   !            |
|           WW  WW  A    A  R   R   N   NN  II  N   NN  G    G                |
|           W    W  A    A  R    R  N    N  II  N    N   GGGG   !!!           |
|     Tetrahedron method does not include variations of the Fermi             |
|     occupations, so forces and stress will be inaccurate. We suggest        |
|     using a different smearing scheme ISMEAR = 1 or 2 for metals in         |
|     relaxations.                                                            |

 total charge

# of ion       s       p       d       tot
    1        0.545   0.239   8.769   9.552
    2        0.546   0.241   8.764   9.551
    3        0.546   0.241   8.764   9.551
    4        0.546   0.241   8.764   9.551
    5        0.544   0.243   8.760   9.546
    6        0.546   0.241   8.764   9.551
    7        0.546   0.241   8.764   9.551
    8        0.546   0.241   8.764   9.551
    9        0.541   0.240   8.769   9.549
   10        0.522   0.308   8.769   9.599
   11        0.524   0.308   8.778   9.609
   12        0.522   0.308   8.769   9.599
   13        0.524   0.308   8.778   9.609
   14        0.524   0.308   8.778   9.609
   15        0.513   0.310   8.773   9.597
   16        0.522   0.308   8.769   9.599
   17        0.513   0.310   8.773   9.597
   18        0.513   0.310   8.773   9.597
   19        0.517   0.295   8.770   9.583
   20        0.565   0.343   8.740   9.648
   21        0.565   0.343   8.740   9.648
   22        0.507   0.308   8.776   9.591
   23        0.565   0.343   8.740   9.648
   24        0.507   0.308   8.776   9.591
   25        0.517   0.295   8.770   9.583
   26        0.517   0.295   8.770   9.583
   27        0.507   0.308   8.776   9.591
   28        0.539   0.226   8.761   9.526
   29        0.571   0.256   8.742   9.568
   30        0.571   0.256   8.742   9.568
   31        0.571   0.256   8.742   9.568
   32        0.571   0.256   8.742   9.568
   33        0.571   0.256   8.742   9.568
   34        0.571   0.256   8.742   9.568
   35        0.540   0.228   8.753   9.521
   36        0.610   0.632   4.151   5.393
   37        0.924   1.463   0.000   2.387
   38        1.520   3.776   0.000   5.296
   39        0.563   0.138   0.000   0.701
tot         22.466  15.787 310.810 349.064

 BZINTS: Fermi energy:    0.305151;  402.005610 electrons
         Band energy:-0.146922E+04;  BLOECHL correction:   -0.047131
 WARNING: Fermi level nearly degenerate with energies of tetrahedron. This may
     result in numerical instabilities because the density changes by tiny
     changes of the Fermi energy. If the calculation converges, the total
     energy will still be reliable. If you notice convergence issues, you can
     try to
     *) Use a Gamma centered k-point grid
     *) Use tetrahedron method without corrections ISMEAR = -4
     *) Don't use tetrahedron method
        ISMEAR = 0 for semiconductors, 1 or 2 for metals