 vasp.6.2.0 18Jan21 (build Jun 12 2021 23:27:24) complex

 executed on             LinuxIFC date 2022.05.27  06:15:44

 INCAR:
   ISMEAR = -5
   SIGMA = 0.1
   ISPIN = 1
   EDIFF = 1.d-5
   EDIFFG = -0.01
   NSW = 0
   NELM = 150
   ENCUT = 500
   ISIF = 2
   IBRION = 2
   LREAL = Auto
   ALGO = Fast
   ICHARG = 11
   LORBIT = 10
   LCHARG = .F.
   LWAVE = .F.

 POTCAR:    PAW_PBE Cu 22Jun2005
 POTCAR:    PAW_PBE Ta 17Jan2003
 POTCAR:    PAW_PBE C 08Apr2002
 POTCAR:    PAW_PBE O 08Apr2002
|           W    W    AA    RRRRR   N    N  II  N    N   GGGG   !!!           |
|           W    W   A  A   R    R  NN   N  II  NN   N  G    G  !!!           |
|           W    W  A    A  R    R  N N  N  II  N N  N  G       !!!           |
|           W WW W  AAAAAA  RRRRR   N  N N  II  N  N N  G  GGG   !            |
|           WW  WW  A    A  R   R   N   NN  II  N   NN  G    G                |
|           W    W  A    A  R    R  N    N  II  N    N   GGGG   !!!           |
|     For optimal performance we recommend to set                             |
|       NCORE = 2 up to number-of-cores-per-socket                            |
|     This setting can greatly improve the performance of VASP for DFT.       |
|     The default, NCORE=1 might be grossly inefficient on modern             |
|     multi-core architectures or massively parallel machines. Do your        |
|     Unfortunately you need to use the default for GW and RPA                |
|     calculations (for HF NCORE is supported but not extensively tested      |
|     yet).                                                                   |

 POTCAR:    PAW_PBE Cu 22Jun2005
   VRHFIN =Cu: d10 p1

   TITEL  = PAW_PBE Cu 22Jun2005
   POMASS =   63.546; ZVAL   =   11.000    mass and valenz
   ENMAX  =  295.446; ENMIN  =  221.585 eV

 POTCAR:    PAW_PBE Ta 17Jan2003
   VRHFIN =Ta:  6s5d

   TITEL  = PAW_PBE Ta 17Jan2003
   POMASS =  180.948; ZVAL   =    5.000    mass and valenz
   ENMAX  =  223.667; ENMIN  =  167.750 eV

 POTCAR:    PAW_PBE C 08Apr2002
   VRHFIN =C: s2p2

   TITEL  = PAW_PBE C 08Apr2002
   POMASS =   12.011; ZVAL   =    4.000    mass and valenz
   ENMAX  =  400.000; ENMIN  =  300.000 eV

 POTCAR:    PAW_PBE O 08Apr2002
   VRHFIN =O: s2p4

   TITEL  = PAW_PBE O 08Apr2002
   POMASS =   16.000; ZVAL   =    6.000    mass and valenz
   ENMAX  =  400.000; ENMIN  =  300.000 eV

 Optimization of the real space projectors (new method)

 maximal supplied QI-value         = 16.25
 optimisation between [QCUT,QGAM] = [ 11.38, 22.75] = [ 36.24,144.96] Ry
 Optimized for a Real-space Cutoff    1.52 Angstroem

   l    n(q)    QCUT    max X(q) W(low)/X(q) W(high)/X(q)  e(spline)
   2      9    11.376     4.610    0.21E-03    0.10E-03    0.26E-06
   2      9    11.376     8.522    0.33E-03    0.16E-03    0.37E-06
   0     10    11.376    51.609    0.62E-04    0.20E-04    0.13E-06
   0     10    11.376    27.747    0.54E-04    0.20E-04    0.13E-06
   1     10    11.376    20.408    0.13E-04    0.99E-04    0.19E-06
   1     10    11.376    13.425    0.12E-04    0.87E-04    0.17E-06
 Optimization of the real space projectors (new method)

[...]

   l    n(q)    QCUT    max X(q) W(low)/X(q) W(high)/X(q)  e(spline)
   0      7    11.310   115.676    0.43E-03    0.13E-02    0.19E-06
   0      7    11.310    87.132    0.43E-03    0.13E-02    0.18E-06
   1      6    11.310     4.429    0.42E-03    0.74E-03    0.11E-06
   1      6    11.310     2.733    0.34E-03    0.55E-03    0.92E-07
 Optimization of the real space projectors (new method)

 maximal supplied QI-value         = 24.76
 optimisation between [QCUT,QGAM] = [ 11.39, 22.77] = [ 36.31,145.25] Ry
 Optimized for a Real-space Cutoff    1.00 Angstroem

   l    n(q)    QCUT    max X(q) W(low)/X(q) W(high)/X(q)  e(spline)
   0      7    11.387    20.381    0.39E-03    0.13E-02    0.15E-06
   0      7    11.387    15.268    0.42E-03    0.14E-02    0.17E-06
   1      6    11.387     5.964    0.41E-03    0.11E-02    0.17E-06
   1      6    11.387     5.382    0.39E-03    0.87E-03    0.15E-06
  PAW_PBE Cu 22Jun2005                  :
  PAW_PBE Ta 17Jan2003                  :
  PAW_PBE C 08Apr2002                   :
  PAW_PBE O 08Apr2002                   :

 POSCAR: Cu-Ta-CO
  positions in direct lattice
  velocities in cartesian coordinates
 exchange correlation table for  LEXCH =        8
   RHO(1)=    0.500       N(1)  =     2000
   RHO(2)=  100.500       N(2)  =     4000

 VTST: version 3.2, (02/03/18)

 CHAIN: initializing optimizer

 OPT: Using VASP Conjugate-Gradient optimizer
 CHAIN: Read ICHAIN            0

 POSCAR: Cu-Ta-CO
  positions in direct lattice
  velocities in cartesian coordinates

 ion  position               nearest neighbor table
   1  0.000  0.000  0.218-   7 2.57   3 2.57   4 2.57   2 2.57   6 2.57   8 2.57  12 2.57  10 2.57
                            16 2.57
   2  0.333  0.000  0.218-   8 2.57   9 2.57   5 2.57   1 2.57   3 2.57  11 2.57   4 2.57  10 2.57
                            17 2.57
   3  0.667  0.000  0.218-   1 2.57   7 2.57   6 2.57   9 2.57   2 2.57  12 2.57   5 2.57  18 2.57
                            11 2.57
   4  0.000  0.333  0.218-   5 2.57   6 2.57   1 2.57   7 2.57   2 2.57  13 2.57   9 2.57  10 2.57
                            15 2.57
   5  0.333  0.333  0.218-   4 2.57   2 2.57   7 2.57  13 2.57   8 2.57   6 2.57   3 2.57  11 2.57
                            14 2.57
   6  0.667  0.333  0.218-   4 2.57   9 2.57  15 2.57   3 2.57   1 2.57   8 2.57  14 2.57   5 2.57
                            12 2.57
   7  0.000  0.667  0.218-   1 2.57   3 2.57  16 2.57  18 2.57   4 2.57   5 2.57   8 2.57   9 2.57
                            13 2.57
   8  0.333  0.667  0.218-   9 2.57   2 2.57  17 2.57   6 2.57   1 2.57   7 2.57   5 2.57  14 2.57
                            16 2.57
   9  0.667  0.667  0.218-   8 2.57   6 2.57   2 2.57  17 2.57   3 2.57   7 2.57   4 2.57  15 2.57
                            18 2.57
  10  0.111  0.111  0.303-  20 2.55  26 2.56  19 2.56  11 2.57  12 2.57  13 2.57   1 2.57   2 2.57
                             4 2.57  15 2.57  16 2.57  17 2.57
  11  0.444  0.111  0.303-  20 2.56  21 2.56  10 2.57  13 2.57   2 2.57  17 2.57  14 2.57  12 2.57
                             5 2.57   3 2.57  18 2.57  27 2.57
  12  0.778  0.111  0.303-  21 2.55  19 2.56  25 2.56  15 2.57  10 2.57  14 2.57  18 2.57   3 2.57
                             1 2.57  16 2.57  11 2.57   6 2.57
  13  0.111  0.444  0.303-  23 2.56  20 2.56  16 2.57  18 2.57  10 2.57  11 2.57  14 2.57   5 2.57
                             4 2.57   7 2.57  15 2.57  22 2.57
  14  0.444  0.444  0.303-  21 2.56  23 2.56  15 2.57  17 2.57  12 2.57  16 2.57  13 2.57  11 2.57
                             6 2.57   8 2.57   5 2.57  24 2.57
  15  0.778  0.444  0.303-  19 2.56  14 2.57  17 2.57  12 2.57   6 2.57  18 2.57  10 2.57   9 2.57
                            13 2.57   4 2.57  24 2.57  22 2.57
  16  0.111  0.778  0.303-  23 2.55  25 2.56  26 2.56  18 2.57  13 2.57   7 2.57  14 2.57  17 2.57
                            12 2.57  10 2.57   8 2.57   1 2.57
  17  0.444  0.778  0.303-  26 2.56  14 2.57  15 2.57   8 2.57   9 2.57  11 2.57  16 2.57  18 2.57
                            10 2.57   2 2.57  27 2.57  24 2.57
  18  0.778  0.778  0.303-  25 2.56  16 2.57  13 2.57   7 2.57  15 2.57  12 2.57  17 2.57   9 2.57
                             3 2.57  11 2.57  22 2.57  27 2.57
  19  0.889  0.222  0.387-  12 2.56  10 2.56  15 2.56  21 2.56  20 2.56  25 2.56  26 2.56  22 2.57
                            24 2.57  28 2.57  32 2.59  31 2.59
  20  0.222  0.222  0.387-  10 2.55  11 2.56  13 2.56  26 2.56  19 2.56  27 2.57  22 2.57  23 2.58
                            21 2.58  36 2.61  29 2.61  31 2.61
  21  0.557  0.222  0.387-  12 2.55  14 2.56  11 2.56  19 2.56  25 2.56  24 2.57  27 2.57  20 2.58
                            23 2.58  36 2.61  32 2.61  30 2.61
  22  0.888  0.556  0.388-  24 2.56  27 2.56  19 2.57  25 2.57  23 2.57  20 2.57  18 2.57  15 2.57
                            35 2.57  13 2.57  31 2.59  33 2.59
  23  0.222  0.557  0.387-  16 2.55  13 2.56  14 2.56  25 2.56  26 2.56  22 2.57  24 2.57  20 2.58
                            21 2.58  36 2.61  33 2.61  34 2.61
  24  0.556  0.556  0.388-  22 2.56  27 2.56  19 2.57  26 2.57  21 2.57  23 2.57  15 2.57  17 2.57
                            35 2.57  14 2.57  32 2.59  34 2.59
  25  0.889  0.889  0.387-  12 2.56  16 2.56  18 2.56  21 2.56  23 2.56  19 2.56  26 2.56  22 2.57
                            27 2.57  28 2.57  33 2.59  30 2.59
  26  0.222  0.889  0.387-  10 2.56  16 2.56  17 2.56  20 2.56  23 2.56  25 2.56  19 2.56  27 2.57
                            24 2.57  28 2.57  29 2.59  34 2.59
  27  0.556  0.888  0.388-  24 2.56  22 2.56  26 2.57  25 2.57  20 2.57  21 2.57  17 2.57  18 2.57
                            35 2.57  11 2.57  29 2.59  30 2.59
  28  0.000  0.000  0.473-  33 2.55  30 2.55  31 2.55  29 2.55  32 2.55  34 2.55  25 2.57  19 2.57
                            26 2.57
  29  0.333  0.997  0.474-  34 2.52  35 2.55  28 2.55  31 2.59  27 2.59  36 2.59  30 2.59  26 2.59
                            20 2.61
  30  0.670  0.997  0.474-  33 2.52  35 2.55  28 2.55  32 2.59  27 2.59  36 2.59  29 2.59  25 2.59
                            21 2.61
  31  0.997  0.333  0.474-  32 2.52  35 2.55  28 2.55  29 2.59  22 2.59  36 2.59  33 2.59  19 2.59
                            20 2.61
  32  0.670  0.333  0.474-  31 2.52  35 2.55  28 2.55  30 2.59  24 2.59  36 2.59  34 2.59  19 2.59
                            21 2.61
  33  0.997  0.670  0.474-  30 2.52  35 2.55  28 2.55  34 2.59  22 2.59  36 2.59  31 2.59  25 2.59
                            23 2.61
  34  0.333  0.670  0.474-  29 2.52  35 2.55  28 2.55  33 2.59  24 2.59  36 2.59  32 2.59  26 2.59
                            23 2.61
  35  0.667  0.667  0.474-  34 2.55  32 2.55  29 2.55  30 2.55  33 2.55  31 2.55  24 2.57  27 2.57
                            22 2.57
  36  0.333  0.333  0.474-  37 2.11  31 2.59  29 2.59  33 2.59  34 2.59  32 2.59  30 2.59  23 2.61
                            20 2.61  21 2.61
  37  0.333  0.333  0.560-  38 1.17  36 2.11
  38  0.333  0.333  0.607-  37 1.17

  LATTYP: Found a hexagonal cell.
 ALAT       =     7.6967864036
 C/A-ratio  =     3.2035062624

  Lattice vectors:

 A1 = (  -3.8483927580,  -6.6656128093,   0.0000000000)
 A2 = (   7.6967864037,   0.0000000000,   0.0000000000)
 A3 = (   0.0000000000,   0.0000000000,  24.6567034444)

Analysis of symmetry for initial positions (statically):
 Subroutine PRICEL returns:
 Original cell was already a primitive cell.

 Routine SETGRP: Setting up the symmetry group for a
 hexagonal supercell.

 Subroutine GETGRP returns: Found  6 space group operations
 (whereof  6 operations were pure point group operations)
 out of a pool of 24 trial point group operations.

The static configuration has the point symmetry C_3v.

Analysis of symmetry for dynamics (positions and initial velocities):
 Subroutine PRICEL returns:
 Original cell was already a primitive cell.

[...]

The dynamic configuration has the point symmetry C_3v.

Analysis of constrained symmetry for selective dynamics:
 Subroutine PRICEL returns:
[...]
     33      -4.7736      2.00000
     34      -4.7605      2.00000
     35      -4.7563      2.00000
     36      -4.7460      2.00000
     37      -4.7338      2.00000
     38      -4.7055      2.00000
     39      -4.6889      2.00000
     40      -4.6157      2.00000
     41      -4.5901      2.00000
     42      -4.4468      2.00000
     43      -4.4409      2.00000
     44      -4.3821      2.00000
     45      -4.3676      2.00000
     46      -4.3504      2.00000
     47      -4.3388      2.00000
     48      -4.3258      2.00000
     49      -4.3161      2.00000
     50      -4.3131      2.00000
     51      -4.1602      2.00000
     52      -4.1291      2.00000
     53      -4.1174      2.00000
     54      -4.1039      2.00000
     55      -4.0604      2.00000
     56      -4.0454      2.00000
     57      -4.0346      2.00000
     58      -4.0225      2.00000
     59      -4.0168      2.00000
     60      -4.0076      2.00000
[...]
    238       5.2956      0.00000
    239       5.4794      0.00000
    240       5.5152      0.00000
    241       5.5738      0.00000
    242       5.9003      0.00000
    243       5.9120      0.00000
    244       5.9199      0.00000
    245       5.9467      0.00000
    246       6.1037      0.00000
    247       6.1173      0.00000
    248       6.3331      0.00000
    249       6.4923      0.00000
    250       6.6096      0.00000
    251       6.7531      0.00000
    252       6.8921      0.00000

 soft charge-density along one line, spin component           1
         0         1         2         3         4         5         6         7         8         9
 total charge-density along one line

------------------------ aborting loop because EDIFF is reached ----------------------------------------

 total charge

# of ion       s       p       d       tot
    1        0.449   0.280   9.190   9.920
    2        0.446   0.285   9.186   9.917
    3        0.446   0.285   9.186   9.917
    4        0.446   0.285   9.186   9.917
    5        0.452   0.285   9.181   9.917
    6        0.446   0.285   9.186   9.917
    7        0.446   0.285   9.186   9.917
    8        0.446   0.285   9.186   9.917
    9        0.448   0.282   9.189   9.919
   10        0.444   0.371   9.174   9.990
   11        0.443   0.364   9.183   9.990
   12        0.444   0.371   9.174   9.990
   13        0.443   0.364   9.183   9.990
   14        0.443   0.364   9.183   9.990
   15        0.439   0.370   9.175   9.984
   16        0.444   0.371   9.174   9.990
   17        0.439   0.370   9.175   9.984
   18        0.439   0.370   9.175   9.984
   19        0.441   0.368   9.178   9.987
   20        0.470   0.396   9.159  10.025
   21        0.470   0.396   9.159  10.025
   22        0.429   0.370   9.181   9.980
   23        0.470   0.396   9.159  10.025
   24        0.429   0.370   9.181   9.980
   25        0.441   0.368   9.178   9.987
   26        0.441   0.368   9.178   9.987
   27        0.429   0.370   9.181   9.980
   28        0.444   0.293   9.181   9.918
   29        0.479   0.315   9.161   9.956
   30        0.479   0.315   9.161   9.956
   31        0.479   0.315   9.161   9.956
   32        0.479   0.315   9.161   9.956
   33        0.479   0.315   9.161   9.956
   34        0.479   0.315   9.161   9.956
   35        0.441   0.294   9.183   9.917
   36        0.713   0.756   3.332   4.801
   37        0.972   1.539   0.000   2.511
   38        1.616   3.524   0.000   5.140
tot         19.081  17.575 324.492 361.148

  FORCE on cell =-STRESS in cart. coord.  units (eV):
  Direction    XX          YY          ZZ          XY          YZ          ZX
  Alpha Z   784.69405   784.69405   784.69405
  Ewald  234328.53559234328.53524************     0.00036     0.00013     0.00016
  Hartree246986.29018246986.29021************     0.00002     0.00007     0.00005
  E(xc)   -2313.08562 -2313.08517 -2317.07796    -0.00039    -0.00003    -0.00005
  Local  ************************493935.24430     0.01878    -0.00061    -0.00092
  n-local  -784.42526  -770.69603  -797.65436     7.08657    -0.11105     0.23105
  augment  3315.49059  3315.51086  3340.55709    -0.01755     0.00037     0.00058
  Kinetic  3376.44344  3377.42136  3386.54981     1.48416     1.63151    -1.17074
  Fock        0.00000     0.00000     0.00000     0.00000     0.00000     0.00000
  Total      -6.32882    -6.32882    -1.19478     0.00000     0.00000    -0.00000
  in kB      -8.01584    -8.01584    -1.51326     0.00000     0.00000    -0.00000

 VOLUME and BASIS-vectors are now :
  energy-cutoff  :      500.00
  volume of cell :     1264.98
      direct lattice vectors                 reciprocal lattice vectors
     7.696786404  0.000000000  0.000000000     0.129924354 -0.075011849  0.000000000
     3.848392758  6.665612809  0.000000000     0.000000000  0.150023716  0.000000000
     0.000000000  0.000000000 24.656703444     0.000000000  0.000000000  0.040556922

  length of vectors
     7.696786404  7.696786404 24.656703444     0.150023716  0.150023716  0.040556922

 FORCES acting on ions
    electron-ion (+dipol)            ewald-force                    non-local-force                 convergence-correction
   -.428E-04 -.553E-06 0.378E+04   0.581E-04 -.426E-05 -.378E+04   -.926E-18 0.102E-17 -.247E+01   -.364E-03 -.176E-03 -.417E-01
   -.892E+00 -.749E+00 0.378E+04   0.823E+00 0.644E+00 -.378E+04   0.109E+00 0.253E+00 -.190E+01   -.250E-01 -.134E+00 0.446E-02
   0.892E+00 -.748E+00 0.378E+04   -.823E+00 0.644E+00 -.378E+04   -.109E+00 0.253E+00 -.190E+01   0.259E-01 -.132E+00 0.547E-02
   -.109E+01 -.398E+00 0.378E+04   0.969E+00 0.391E+00 -.378E+04   0.274E+00 -.326E-01 -.190E+01   -.128E+00 0.453E-01 0.458E-02
   -.666E-04 -.641E-05 0.378E+04   0.116E-03 -.101E-04 -.378E+04   -.542E-17 -.842E-18 -.958E+00   0.121E-01 0.742E-02 0.257E+00
   0.109E+01 -.398E+00 0.378E+04   -.969E+00 0.391E+00 -.378E+04   -.274E+00 -.326E-01 -.190E+01   0.127E+00 0.464E-01 0.562E-02
   -.202E+00 0.115E+01 0.378E+04   0.146E+00 -.103E+01 -.378E+04   0.165E+00 -.221E+00 -.190E+01   -.101E+00 0.881E-01 0.569E-02
   0.202E+00 0.115E+01 0.378E+04   -.146E+00 -.103E+01 -.378E+04   -.165E+00 -.221E+00 -.190E+01   0.104E+00 0.867E-01 0.557E-02
   -.145E-03 -.335E-04 0.378E+04   0.263E-03 0.204E-04 -.378E+04   -.194E-17 -.102E-17 -.221E+01   -.131E-01 -.679E-02 -.640E-01
   -.544E+01 -.314E+01 0.128E+04   0.592E+01 0.342E+01 -.128E+04   -.435E+00 -.251E+00 -.909E+00   -.783E-01 -.448E-01 -.641E+00
   -.901E-04 -.645E+01 0.126E+04   0.190E-03 0.630E+01 -.126E+04   -.151E-07 0.226E+00 0.782E-01   0.120E-01 -.921E-01 -.646E+00
   0.544E+01 -.314E+01 0.128E+04   -.592E+01 0.342E+01 -.128E+04   0.435E+00 -.251E+00 -.909E+00   0.765E-01 -.445E-01 -.642E+00
   -.559E+01 0.323E+01 0.126E+04   0.545E+01 -.315E+01 -.126E+04   0.196E+00 -.113E+00 0.782E-01   -.735E-01 0.574E-01 -.645E+00
   0.559E+01 0.323E+01 0.126E+04   -.545E+01 -.315E+01 -.126E+04   -.196E+00 -.113E+00 0.782E-01   0.966E-01 0.555E-01 -.649E+00
   -.140E-03 -.216E+01 0.128E+04   0.296E-03 0.192E+01 -.127E+04   -.917E-08 0.138E+00 -.976E+00   -.292E-02 0.924E-01 -.646E+00
   -.923E-04 0.629E+01 0.128E+04   0.187E-03 -.684E+01 -.128E+04   -.334E-07 0.502E+00 -.909E+00   -.125E-02 0.872E-01 -.641E+00
   -.187E+01 0.108E+01 0.128E+04   0.166E+01 -.959E+00 -.127E+04   0.119E+00 -.688E-01 -.976E+00   0.793E-01 -.492E-01 -.647E+00
   0.187E+01 0.108E+01 0.128E+04   -.166E+01 -.959E+00 -.127E+04   -.119E+00 -.688E-01 -.976E+00   -.773E-01 -.466E-01 -.644E+00
   -.665E-04 -.819E+01 -.122E+04   0.724E-04 0.830E+01 0.122E+04   0.321E-08 -.482E-01 0.108E+01   0.904E-03 -.509E-01 -.535E+00
   -.610E+02 -.352E+02 -.129E+04   0.624E+02 0.360E+02 0.130E+04   -.121E+01 -.699E+00 -.832E+00   -.361E+00 -.208E+00 -.957E+00
   0.610E+02 -.352E+02 -.129E+04   -.624E+02 0.360E+02 0.130E+04   0.121E+01 -.699E+00 -.832E+00   0.340E+00 -.211E+00 -.958E+00
   -.318E+02 0.184E+02 -.124E+04   0.316E+02 -.182E+02 0.124E+04   0.459E+00 -.265E+00 0.620E+00   -.179E+00 0.117E+00 -.691E+00
   -.847E-04 0.704E+02 -.129E+04   0.152E-03 -.721E+02 0.130E+04   -.931E-07 0.140E+01 -.832E+00   -.143E-01 0.400E+00 -.958E+00
   0.318E+02 0.184E+02 -.124E+04   -.316E+02 -.182E+02 0.124E+04   -.459E+00 -.265E+00 0.620E+00   0.204E+00 0.116E+00 -.690E+00
   0.710E+01 0.410E+01 -.122E+04   -.719E+01 -.415E+01 0.122E+04   0.417E-01 0.241E-01 0.108E+01   0.433E-01 0.241E-01 -.535E+00
   -.709E+01 0.410E+01 -.122E+04   0.719E+01 -.415E+01 0.122E+04   -.417E-01 0.241E-01 0.108E+01   -.664E-01 0.260E-01 -.535E+00
   -.121E-03 -.367E+02 -.124E+04   0.239E-03 0.364E+02 0.124E+04   -.353E-07 0.530E+00 0.620E+00   0.127E-01 -.214E+00 -.691E+00
   -.429E-04 0.140E-04 -.364E+04   0.441E-04 -.314E-04 0.364E+04   0.734E-17 -.202E-17 0.206E+01   -.174E-02 -.121E-02 -.330E+00
   -.437E+02 -.809E+02 -.364E+04   0.446E+02 0.821E+02 0.364E+04   -.674E+00 -.846E+00 0.559E+00   -.195E+00 -.333E+00 -.322E+00
   0.437E+02 -.809E+02 -.364E+04   -.446E+02 0.821E+02 0.364E+04   0.674E+00 -.846E+00 0.559E+00   0.218E+00 -.333E+00 -.324E+00
   -.920E+02 0.261E+01 -.364E+04   0.934E+02 -.243E+01 0.364E+04   -.107E+01 -.161E+00 0.559E+00   -.386E+00 -.237E-02 -.323E+00
   0.920E+02 0.261E+01 -.364E+04   -.934E+02 -.243E+01 0.364E+04   0.107E+01 -.161E+00 0.559E+00   0.409E+00 -.181E-02 -.322E+00
   -.482E+02 0.783E+02 -.364E+04   0.488E+02 -.797E+02 0.364E+04   -.395E+00 0.101E+01 0.559E+00   -.179E+00 0.355E+00 -.324E+00
   0.482E+02 0.783E+02 -.364E+04   -.488E+02 -.797E+02 0.364E+04   0.395E+00 0.101E+01 0.559E+00   0.203E+00 0.355E+00 -.321E+00
   -.144E-03 -.234E-04 -.366E+04   0.250E-03 0.325E-06 0.366E+04   -.114E-16 -.895E-17 0.254E+01   -.137E-01 -.742E-02 -.239E+00
   -.316E-04 -.638E-05 -.158E+04   0.604E-04 0.127E-04 0.159E+04   -.186E-18 -.999E-18 -.103E+01   -.358E-03 -.133E-03 -.149E+00
   -.703E-05 -.788E-04 -.128E+04   0.688E-05 0.376E-05 0.126E+04   -.722E-18 -.629E-19 0.182E+02   0.784E-03 0.491E-03 0.107E+00
   0.224E-03 -.748E-04 -.213E+04   0.165E-05 0.186E-05 0.219E+04   -.106E-18 -.253E-18 -.592E+02   0.315E-02 0.193E-02 0.209E+00
   -.851E-04 -.166E-03 0.683E+02   0.447E-13 0.138E-13 -.637E-11   -.680E-16 -.103E-16 -.539E+02   0.692E-01 0.484E-01 -.145E+02

 POSITION                                       TOTAL-FORCE (eV/Angst)
      0.00000      0.00000      5.37156         0.000000      0.000000     -0.030412
      2.56560      0.00000      5.37156         0.015555      0.015881      0.057939
      5.13119      0.00000      5.37156        -0.015555      0.015881      0.057939
      1.28280      2.22187      5.37156         0.021531      0.005530      0.057939
      3.84839      2.22187      5.37156         0.000000     -0.000000      0.047500
      6.41399      2.22187      5.37156        -0.021531      0.005530      0.057939
      2.56560      4.44374      5.37156         0.005976     -0.021411      0.057939
      5.13119      4.44374      5.37156        -0.005976     -0.021411      0.057939
      7.69679      4.44374      5.37156         0.000000      0.000000      0.028211
      1.28280      0.74062      7.46636        -0.034851     -0.020121     -0.097161
      3.84839      0.74062      7.46636         0.000000     -0.028729     -0.048648
      6.41399      0.74062      7.46636         0.034851     -0.020121     -0.097161
      2.56560      2.96249      7.46636        -0.024880      0.014365     -0.048648
      5.13119      2.96249      7.46636         0.024880      0.014365     -0.048648
      7.69679      2.96249      7.46636         0.000000     -0.013008     -0.018454
      3.84839      5.18437      7.46636        -0.000000      0.040242     -0.097161
      6.41399      5.18437      7.46636        -0.011265      0.006504     -0.018454
      8.97958      5.18437      7.46636         0.011265      0.006504     -0.018454
      7.69679      1.48082      9.55187        -0.000000      0.002491      0.064912
      2.55960      1.47778      9.55047        -0.149987     -0.086595     -0.206266
      5.13719      1.47778      9.55047         0.149987     -0.086595     -0.206266
      8.97653      3.70488      9.56926         0.026431     -0.015260      0.036345
      3.84839      3.71005      9.55047        -0.000000      0.173190     -0.206266
      6.41705      3.70488      9.56926        -0.026431     -0.015260      0.036345
     10.26275      5.92520      9.55187        -0.002157     -0.001245      0.064912
      5.13082      5.92520      9.55187         0.002157     -0.001245      0.064912
      7.69679      5.92146      9.56926        -0.000000      0.030520      0.036345
      0.00000      0.00000     11.65662         0.000000      0.000000     -0.014629
      6.40243      6.64574     11.69071        -0.011380     -0.039865      0.000838
      8.99114      6.64574     11.69071         0.011380     -0.039865      0.000838
      8.95659      2.22180     11.69071        -0.040214      0.010078      0.000838
      6.43698      2.22180     11.69071         0.040214      0.010078      0.000838
     10.25095      4.46369     11.69071        -0.028835      0.029788      0.000838
      5.14262      4.46369     11.69071         0.028835      0.029788      0.000838
      7.69679      4.44374     11.67656        -0.000000      0.000000     -0.007570
      3.84839      2.22187     11.69355         0.000000      0.000000      0.497304
      3.84839      2.22187     13.80037         0.000000      0.000000     -0.105917
      3.84839      2.22187     14.96562         0.000000      0.000000      0.040666
    total drift:                                0.069146      0.048254     -0.115580

  FREE ENERGIE OF THE ION-ELECTRON SYSTEM (eV)
  free  energy   TOTEN  =      -148.93103523 eV

  energy  without entropy=     -148.93103523  energy(sigma->0) =     -148.93103523

 stress matrix after NEB project (eV)
     -6.32882      0.00000     -0.00000
      0.00000     -6.32882      0.00000
     -0.00000      0.00000     -1.19478
  FORCES: max atom, RMS     0.105917    0.018405
  FORCE total and by dimension    0.113455    0.105917
  Stress total and by dimension    9.029698    6.328821
|           W    W    AA    RRRRR   N    N  II  N    N   GGGG   !!!           |
|           W    W   A  A   R    R  NN   N  II  NN   N  G    G  !!!           |
|           W    W  A    A  R    R  N N  N  II  N N  N  G       !!!           |
|           W WW W  AAAAAA  RRRRR   N  N N  II  N  N N  G  GGG   !            |
|           WW  WW  A    A  R   R   N   NN  II  N   NN  G    G                |
|           W    W  A    A  R    R  N    N  II  N    N   GGGG   !!!           |
|     Tetrahedron method does not include variations of the Fermi             |
|     occupations, so forces and stress will be inaccurate. We suggest        |
|     using a different smearing scheme ISMEAR = 1 or 2 for metals in         |
|     relaxations.                                                            |

 total charge

# of ion       s       p       d       tot
    1        0.449   0.280   9.190   9.920
    2        0.446   0.285   9.186   9.917
    3        0.446   0.285   9.186   9.917
    4        0.446   0.285   9.186   9.917
    5        0.452   0.285   9.181   9.917
    6        0.446   0.285   9.186   9.917
    7        0.446   0.285   9.186   9.917
    8        0.446   0.285   9.186   9.917
    9        0.448   0.282   9.189   9.919
   10        0.444   0.371   9.174   9.990
   11        0.443   0.364   9.183   9.990
   12        0.444   0.371   9.174   9.990
   13        0.443   0.364   9.183   9.990
   14        0.443   0.364   9.183   9.990
   15        0.439   0.370   9.175   9.984
   16        0.444   0.371   9.174   9.990
   17        0.439   0.370   9.175   9.984
   18        0.439   0.370   9.175   9.984
   19        0.441   0.368   9.178   9.987
   20        0.470   0.396   9.159  10.025
   21        0.470   0.396   9.159  10.025
   22        0.429   0.370   9.181   9.980
   23        0.470   0.396   9.159  10.025
   24        0.429   0.370   9.181   9.980
   25        0.441   0.368   9.178   9.987
   26        0.441   0.368   9.178   9.987
   27        0.429   0.370   9.181   9.980
   28        0.444   0.293   9.181   9.918
   29        0.479   0.315   9.161   9.956
   30        0.479   0.315   9.161   9.956
   31        0.479   0.315   9.161   9.956
   32        0.479   0.315   9.161   9.956
   33        0.479   0.315   9.161   9.956
   34        0.479   0.315   9.161   9.956
   35        0.441   0.294   9.183   9.917
   36        0.713   0.756   3.332   4.801
   37        0.972   1.539   0.000   2.511
   38        1.616   3.524   0.000   5.140
tot         19.081  17.575 324.492 361.148

 BZINTS: Fermi energy:   -0.620754;  400.000000 electrons
         Band energy:-0.146598E+04;  BLOECHL correction:   -0.026961