 vasp.6.2.0 18Jan21 (build Jun 12 2021 23:27:24) complex

 executed on             LinuxIFC date 2022.05.26  19:22:56

 INCAR:
   ISMEAR = -5
   SIGMA = 0.1
   ISPIN = 1
   EDIFF = 1.d-5
   EDIFFG = -0.01
   NSW = 0
   NELM = 150
   ENCUT = 500
   ISIF = 2
   IBRION = 2
   LREAL = Auto
   ALGO = Fast
   ICHARG = 11
   LORBIT = 10
   LCHARG = .F.
   LWAVE = .F.

 POTCAR:    PAW_PBE Au 04Oct2007
 POTCAR:    PAW_PBE Ni 02Aug2007
 POTCAR:    PAW_PBE N 08Apr2002
|           W    W    AA    RRRRR   N    N  II  N    N   GGGG   !!!           |
|           W    W   A  A   R    R  NN   N  II  NN   N  G    G  !!!           |
|           W    W  A    A  R    R  N N  N  II  N N  N  G       !!!           |
|           W WW W  AAAAAA  RRRRR   N  N N  II  N  N N  G  GGG   !            |
|           WW  WW  A    A  R   R   N   NN  II  N   NN  G    G                |
|           W    W  A    A  R    R  N    N  II  N    N   GGGG   !!!           |
|     For optimal performance we recommend to set                             |
|       NCORE = 2 up to number-of-cores-per-socket                            |
|     This setting can greatly improve the performance of VASP for DFT.       |
|     The default, NCORE=1 might be grossly inefficient on modern             |
|     multi-core architectures or massively parallel machines. Do your        |
|     Unfortunately you need to use the default for GW and RPA                |
|     calculations (for HF NCORE is supported but not extensively tested      |
|     yet).                                                                   |

 POTCAR:    PAW_PBE Au 04Oct2007
   VRHFIN =Au: s1d10

   TITEL  = PAW_PBE Au 04Oct2007
   POMASS =  196.966; ZVAL   =   11.000    mass and valenz
   ENMAX  =  229.943; ENMIN  =  172.457 eV

 POTCAR:    PAW_PBE Ni 02Aug2007
   VRHFIN =Ni:

   TITEL  = PAW_PBE Ni 02Aug2007
   POMASS =   58.690; ZVAL   =   10.000    mass and valenz
   ENMAX  =  269.532; ENMIN  =  202.149 eV

 POTCAR:    PAW_PBE N 08Apr2002
   VRHFIN =N: s2p3

   TITEL  = PAW_PBE N 08Apr2002
   POMASS =   14.001; ZVAL   =    5.000    mass and valenz
   ENMAX  =  400.000; ENMIN  =  300.000 eV

 Optimization of the real space projectors (new method)

 maximal supplied QI-value         = 15.12
 optimisation between [QCUT,QGAM] = [ 11.34, 22.83] = [ 36.00,145.93] Ry
 Optimized for a Real-space Cutoff    1.39 Angstroem

   l    n(q)    QCUT    max X(q) W(low)/X(q) W(high)/X(q)  e(spline)
   2      9    11.338    60.898    0.39E-03    0.42E-03    0.21E-06
   2      9    11.338    58.894    0.40E-03    0.42E-03    0.22E-06
   0      9    11.338   109.617    0.13E-03    0.20E-04    0.13E-06
   0      9    11.338    75.026    0.13E-03    0.20E-04    0.13E-06
   1      9    11.338    16.344    0.33E-04    0.24E-03    0.18E-06
   1      9    11.338    10.160    0.26E-04    0.19E-03    0.15E-06
 Optimization of the real space projectors (new method)

[...]

   l    n(q)    QCUT    max X(q) W(low)/X(q) W(high)/X(q)  e(spline)
   2      8    11.376    60.317    0.19E-03    0.33E-04    0.13E-06
   2      8    11.376    55.921    0.20E-03    0.34E-04    0.14E-06
   0      9    11.376    51.690    0.82E-04    0.12E-03    0.20E-06
   0      9    11.376    30.015    0.74E-04    0.11E-03    0.18E-06
   1      9    11.376    18.849    0.39E-03    0.12E-03    0.13E-06
   1      9    11.376    14.624    0.33E-03    0.10E-03    0.11E-06
 Optimization of the real space projectors (new method)

 maximal supplied QI-value         = 25.13
 optimisation between [QCUT,QGAM] = [ 11.31, 22.87] = [ 35.82,146.48] Ry
 Optimized for a Real-space Cutoff    1.27 Angstroem

   l    n(q)    QCUT    max X(q) W(low)/X(q) W(high)/X(q)  e(spline)
   0      9    11.310    79.467    0.75E-04    0.16E-03    0.36E-06
   0      9    11.310    66.151    0.74E-04    0.16E-03    0.36E-06
   1      8    11.310    17.416    0.35E-03    0.12E-03    0.95E-06
   1      8    11.310    12.382    0.37E-03    0.13E-03    0.98E-06
  PAW_PBE Au 04Oct2007                  :
  PAW_PBE Ni 02Aug2007                  :
  PAW_PBE N 08Apr2002                   :

 POSCAR: Au-Ni-N
  positions in direct lattice
  velocities in cartesian coordinates
 exchange correlation table for  LEXCH =        8
   RHO(1)=    0.500       N(1)  =     2000
   RHO(2)=  100.500       N(2)  =     4000

 VTST: version 3.2, (02/03/18)

 CHAIN: initializing optimizer

 OPT: Using VASP Conjugate-Gradient optimizer
 CHAIN: Read ICHAIN            0

 POSCAR: Au-Ni-N
  positions in direct lattice
  velocities in cartesian coordinates

 ion  position               nearest neighbor table
   1  0.000  0.000  0.238-  16 2.94  12 2.94   6 2.94   8 2.94   7 2.94   3 2.94  10 2.94   4 2.94
                             2 2.94
   2  0.333  0.000  0.238-   9 2.94  11 2.94  17 2.94  10 2.94   8 2.94   4 2.94   5 2.94   1 2.94
                             3 2.94
   3  0.667  0.000  0.238-   7 2.94  18 2.94  12 2.94   1 2.94  11 2.94   5 2.94   6 2.94   9 2.94
                             2 2.94
   4  0.000  0.333  0.238-  10 2.94   6 2.94   5 2.94  13 2.94   2 2.94  15 2.94   9 2.94   1 2.94
                             7 2.94
   5  0.333  0.333  0.238-  13 2.94   7 2.94  11 2.94   4 2.94   2 2.94  14 2.94   3 2.94   8 2.94
                             6 2.94
   6  0.667  0.333  0.238-  15 2.94  14 2.94   1 2.94  12 2.94   4 2.94   9 2.94   8 2.94   3 2.94
                             5 2.94
   7  0.000  0.667  0.238-  18 2.94   3 2.94  16 2.94   5 2.94   1 2.94  13 2.94   8 2.94   4 2.94
                             9 2.94
   8  0.333  0.667  0.238-   9 2.94  17 2.94   1 2.94   2 2.94  14 2.94  16 2.94   6 2.94   7 2.94
                             5 2.94
   9  0.667  0.667  0.238-   2 2.94   8 2.94  17 2.94   6 2.94  15 2.94   4 2.94   3 2.94  18 2.94
                             7 2.94
  10  0.111  0.111  0.346-  20 2.93  26 2.93  19 2.93  11 2.94  17 2.94   2 2.94   4 2.94   1 2.94
                            12 2.94  16 2.94  13 2.94  15 2.94
  11  0.444  0.111  0.346-  20 2.92  21 2.92  27 2.93  13 2.94   2 2.94  10 2.94  17 2.94   5 2.94
                             3 2.94  18 2.94  14 2.94  12 2.94
  12  0.778  0.111  0.346-  21 2.93  25 2.93  19 2.93  16 2.94  18 2.94   1 2.94  14 2.94  15 2.94
                             3 2.94   6 2.94  10 2.94  11 2.94
  13  0.111  0.444  0.346-  23 2.92  20 2.92  22 2.93   5 2.94  18 2.94  11 2.94   7 2.94   4 2.94
                            16 2.94  10 2.94  14 2.94  15 2.94
  14  0.444  0.444  0.346-  21 2.92  23 2.92  24 2.93  15 2.94   6 2.94  12 2.94   8 2.94  17 2.94
                             5 2.94  16 2.94  13 2.94  11 2.94
  15  0.778  0.444  0.346-  24 2.92  22 2.92  19 2.93  14 2.94   6 2.94  17 2.94  12 2.94   9 2.94
                             4 2.94  10 2.94  13 2.94  18 2.94
  16  0.111  0.778  0.346-  23 2.93  25 2.93  26 2.93  18 2.94  12 2.94   7 2.94   1 2.94   8 2.94
                            13 2.94  10 2.94  14 2.94  17 2.94
  17  0.444  0.778  0.346-  27 2.92  24 2.92  26 2.93   9 2.94  15 2.94   2 2.94  10 2.94  11 2.94
                             8 2.94  14 2.94  16 2.94  18 2.94
  18  0.778  0.778  0.346-  22 2.92  27 2.92  25 2.93  16 2.94   7 2.94  13 2.94  12 2.94   3 2.94
                            11 2.94   9 2.94  15 2.94  17 2.94
  19  0.889  0.222  0.454-  10 2.93  12 2.93  15 2.93  26 2.93  25 2.93  24 2.94  22 2.94  21 2.95
                            20 2.95  28 2.95  32 2.96  31 2.96
  20  0.223  0.223  0.453-  36 2.70  29 2.91  31 2.91  11 2.92  13 2.92  23 2.92  21 2.92  10 2.93
                            27 2.95  22 2.95  26 2.95  19 2.95
  21  0.554  0.223  0.453-  36 2.70  30 2.91  32 2.91  14 2.92  11 2.92  20 2.92  23 2.92  12 2.93
                            27 2.95  24 2.95  25 2.95  19 2.95
  22  0.888  0.556  0.453-  18 2.92  15 2.92  24 2.92  27 2.92  13 2.93  25 2.94  19 2.94  33 2.94
                            31 2.94  23 2.95  20 2.95  35 2.96
  23  0.223  0.554  0.453-  36 2.70  33 2.91  34 2.91  13 2.92  14 2.92  20 2.92  21 2.92  16 2.93
                            22 2.95  24 2.95  25 2.95  26 2.95
  24  0.556  0.556  0.453-  15 2.92  17 2.92  27 2.92  22 2.92  14 2.93  26 2.94  19 2.94  32 2.94
                            34 2.94  21 2.95  23 2.95  35 2.96
  25  0.889  0.889  0.454-  16 2.93  12 2.93  18 2.93  19 2.93  26 2.93  22 2.94  27 2.94  23 2.95
                            21 2.95  28 2.95  33 2.96  30 2.96
  26  0.222  0.889  0.454-  10 2.93  16 2.93  17 2.93  19 2.93  25 2.93  27 2.94  24 2.94  20 2.95
                            23 2.95  28 2.95  29 2.96  34 2.96
  27  0.556  0.888  0.453-  17 2.92  18 2.92  24 2.92  22 2.92  11 2.93  26 2.94  25 2.94  29 2.94
                            30 2.94  20 2.95  21 2.95  35 2.96
  28  0.000  0.000  0.563-  25 2.95  19 2.95  26 2.95  34 2.97  32 2.97  33 2.97  30 2.97  31 2.97
                            29 2.97
  29  0.334  0.007  0.561-  30 2.87  31 2.88  36 2.89  20 2.91  27 2.94  26 2.96  35 2.97  28 2.97
                            34 3.06
  30  0.660  0.007  0.561-  29 2.87  32 2.88  36 2.89  21 2.91  27 2.94  25 2.96  35 2.97  28 2.97
                            33 3.06
  31  0.007  0.334  0.561-  33 2.87  29 2.88  36 2.89  20 2.91  22 2.94  19 2.96  35 2.97  28 2.97
                            32 3.06
  32  0.660  0.334  0.561-  34 2.87  30 2.88  36 2.89  21 2.91  24 2.94  19 2.96  35 2.97  28 2.97
                            31 3.06
  33  0.007  0.660  0.561-  31 2.87  34 2.88  36 2.89  23 2.91  22 2.94  25 2.96  35 2.97  28 2.97
                            30 3.06
  34  0.334  0.660  0.561-  32 2.87  33 2.88  36 2.89  23 2.91  24 2.94  26 2.96  35 2.97  28 2.97
                            29 3.06
  35  0.667  0.667  0.563-  24 2.96  27 2.96  22 2.96  29 2.97  34 2.97  32 2.97  31 2.97  30 2.97
                            33 2.97
  36  0.333  0.333  0.548-  37 1.62  20 2.70  23 2.70  21 2.70  33 2.89  31 2.89  29 2.89  30 2.89
                            34 2.89  32 2.89
  37  0.333  0.333  0.621-  36 1.62

  LATTYP: Found a hexagonal cell.
 ALAT       =     8.8135128021
 C/A-ratio  =     2.5184286595

  Lattice vectors:

 A1 = (  -4.4067569092,  -7.6327256898,   0.0000000000)
 A2 = (   8.8135128021,   0.0000000000,   0.0000000000)
 A3 = (   0.0000000000,   0.0000000000,  22.1962032318)

Analysis of symmetry for initial positions (statically):
 Subroutine PRICEL returns:
 Original cell was already a primitive cell.

 Routine SETGRP: Setting up the symmetry group for a
 hexagonal supercell.

 Subroutine GETGRP returns: Found  6 space group operations
 (whereof  6 operations were pure point group operations)
 out of a pool of 24 trial point group operations.

The static configuration has the point symmetry C_3v.

Analysis of symmetry for dynamics (positions and initial velocities):
 Subroutine PRICEL returns:
 Original cell was already a primitive cell.

[...]

The dynamic configuration has the point symmetry C_3v.

Analysis of constrained symmetry for selective dynamics:
 Subroutine PRICEL returns:
 Original cell was already a primitive cell.

 Routine SETGRP: Setting up the symmetry group for a
 hexagonal supercell.

 Subroutine GETGRP returns: Found  6 space group operations
[...]
     24      -5.1194      2.00000
     25      -5.0965      2.00000
     26      -5.0860      2.00000
     27      -5.0393      2.00000
     28      -4.9648      2.00000
     29      -4.9191      2.00000
     30      -4.8151      2.00000
     31      -4.8082      2.00000
     32      -4.7953      2.00000
     33      -4.7933      2.00000
     34      -4.7804      2.00000
     35      -4.7155      2.00000
     36      -4.6267      2.00000
     37      -4.6054      2.00000
     38      -4.6020      2.00000
     39      -4.5824      2.00000
     40      -4.5273      2.00000
     41      -4.4430      2.00000
     42      -4.4217      2.00000
     43      -4.3787      2.00000
     44      -4.3446      2.00000
     45      -4.3376      2.00000
     46      -4.3178      2.00000
     47      -4.2160      2.00000
     48      -4.2102      2.00000
     49      -4.1670      2.00000
     50      -4.1603      2.00000
     51      -4.1542      2.00000
     52      -4.1396      2.00000
     53      -4.1271      2.00000
     54      -4.0911      2.00000
     55      -4.0569      2.00000
     56      -4.0280      2.00000
     57      -4.0042      2.00000
     58      -3.9887      2.00000
     59      -3.9753      2.00000
     60      -3.9681      2.00000
[...]
    238       6.4247      0.00000
    239       6.4970      0.00000
    240       6.5180      0.00000
    241       6.5916      0.00000
    242       6.7622      0.00000
    243       6.8021      0.00000
    244       6.8290      0.00000
    245       6.8637      0.00000
    246       7.1235      0.00000
    247       7.1539      0.00000
    248       7.2834      0.00000
    249       7.4519      0.00000
    250       7.6592      0.00000
    251       7.7464      0.00000
    252       7.8179      0.00000

 soft charge-density along one line, spin component           1
         0         1         2         3         4         5         6         7         8         9
 total charge-density along one line

------------------------ aborting loop because EDIFF is reached ----------------------------------------

 total charge

# of ion       s       p       d       tot
    1        0.545   0.239   8.767   9.552
    2        0.543   0.241   8.765   9.548
    3        0.543   0.241   8.765   9.548
    4        0.543   0.241   8.765   9.548
    5        0.542   0.240   8.765   9.548
    6        0.543   0.241   8.765   9.548
    7        0.543   0.241   8.765   9.548
    8        0.543   0.241   8.765   9.548
    9        0.544   0.241   8.763   9.547
   10        0.520   0.308   8.774   9.602
   11        0.516   0.310   8.774   9.601
   12        0.520   0.308   8.774   9.602
   13        0.516   0.310   8.774   9.601
   14        0.516   0.310   8.774   9.601
   15        0.517   0.309   8.776   9.602
   16        0.520   0.308   8.774   9.602
   17        0.517   0.309   8.776   9.602
   18        0.517   0.309   8.776   9.602
   19        0.517   0.306   8.769   9.592
   20        0.537   0.325   8.760   9.623
   21        0.537   0.325   8.760   9.623
   22        0.517   0.308   8.776   9.601
   23        0.537   0.325   8.760   9.623
   24        0.517   0.308   8.776   9.601
   25        0.517   0.306   8.769   9.592
   26        0.517   0.306   8.769   9.592
   27        0.517   0.308   8.776   9.601
   28        0.539   0.223   8.775   9.538
   29        0.527   0.235   8.774   9.536
   30        0.527   0.235   8.774   9.536
   31        0.527   0.235   8.774   9.536
   32        0.527   0.235   8.774   9.536
   33        0.527   0.235   8.774   9.536
   34        0.527   0.235   8.774   9.536
   35        0.539   0.225   8.770   9.534
   36        0.497   0.569   8.369   9.435
   37        1.361   2.071   0.000   3.432
tot         20.358  12.258 315.332 347.948

  FORCE on cell =-STRESS in cart. coord.  units (eV):
  Direction    XX          YY          ZZ          XY          YZ          ZX
  Alpha Z  1012.27164  1012.27164  1012.27164
  Ewald  121127.69191121127.69236************    -0.00032    -0.00008    -0.00012
  Hartree130006.66300130006.66302************     0.00001    -0.00003    -0.00002
  E(xc)   -1803.15769 -1803.15768 -1809.47751    -0.00002     0.00000     0.00000
  Local  ************************263511.87976     0.00216     0.00002    -0.00002
  n-local   -95.65362   -50.90580   -49.87013    22.35337    -1.35300     1.31900
  augment  2549.91322  2549.91497  2547.02953    -0.00151     0.00001     0.00008
  Kinetic  5518.39024  5522.41052  5556.87692     2.70963     0.71894     0.07305
  Fock        0.00000     0.00000     0.00000     0.00000     0.00000     0.00000
  Total     -20.73819   -20.73819     2.27789    -0.00000     0.00000     0.00000
  in kB     -22.25225   -22.25225     2.44420    -0.00000     0.00000     0.00000

 VOLUME and BASIS-vectors are now :
  energy-cutoff  :      500.00
  volume of cell :     1493.16
      direct lattice vectors                 reciprocal lattice vectors
     8.813512802  0.000000000  0.000000000     0.113462137 -0.065507406  0.000000000
     4.406756909  7.632725690  0.000000000     0.000000000  0.131014796  0.000000000
     0.000000000  0.000000000 22.196203232     0.000000000  0.000000000  0.045052750

  length of vectors
     8.813512802  8.813512802 22.196203232     0.131014796  0.131014796  0.045052750

 FORCES acting on ions
    electron-ion (+dipol)            ewald-force                    non-local-force                 convergence-correction
   -.196E-04 -.162E-04 0.250E+04   0.519E-04 0.434E-04 -.250E+04   0.970E-18 0.323E-18 -.548E+00   -.261E-03 -.164E-03 -.496E+00
   0.433E+00 0.575E+00 0.250E+04   -.583E+00 -.571E+00 -.250E+04   0.464E-01 -.671E-03 -.376E+00   0.957E-01 0.373E-02 -.511E+00
   -.433E+00 0.575E+00 0.250E+04   0.583E+00 -.571E+00 -.250E+04   -.464E-01 -.671E-03 -.376E+00   -.954E-01 0.572E-02 -.510E+00
   0.714E+00 0.878E-01 0.250E+04   -.786E+00 -.219E+00 -.250E+04   0.226E-01 0.405E-01 -.376E+00   0.512E-01 0.810E-01 -.511E+00
   0.911E-05 -.229E-04 0.250E+04   0.951E-04 0.172E-05 -.250E+04   -.173E-17 0.179E-17 -.393E+00   0.434E-02 0.264E-02 -.461E+00
   -.714E+00 0.879E-01 0.250E+04   0.786E+00 -.219E+00 -.250E+04   -.226E-01 0.405E-01 -.376E+00   -.528E-01 0.819E-01 -.510E+00
   0.281E+00 -.663E+00 0.250E+04   -.203E+00 0.791E+00 -.250E+04   -.238E-01 -.399E-01 -.376E+00   -.427E-01 -.855E-01 -.510E+00
   -.281E+00 -.663E+00 0.250E+04   0.203E+00 0.791E+00 -.250E+04   0.238E-01 -.399E-01 -.376E+00   0.446E-01 -.866E-01 -.510E+00
   0.196E-04 -.416E-04 0.250E+04   0.166E-03 -.201E-04 -.250E+04   -.204E-17 -.155E-17 -.318E+00   -.462E-02 -.239E-02 -.473E+00
   0.458E+01 0.264E+01 0.860E+03   -.460E+01 -.266E+01 -.860E+03   -.110E+00 -.633E-01 -.549E+00   0.127E+00 0.734E-01 -.180E+00
   0.149E-04 0.645E+01 0.870E+03   0.147E-03 -.665E+01 -.870E+03   0.444E-08 0.667E-01 -.271E+00   0.417E-02 0.921E-01 -.215E+00
   -.458E+01 0.264E+01 0.860E+03   0.460E+01 -.266E+01 -.860E+03   0.110E+00 -.633E-01 -.549E+00   -.129E+00 0.750E-01 -.180E+00
   0.558E+01 -.322E+01 0.870E+03   -.576E+01 0.332E+01 -.870E+03   0.577E-01 -.333E-01 -.271E+00   0.821E-01 -.422E-01 -.215E+00
   -.558E+01 -.322E+01 0.870E+03   0.576E+01 0.332E+01 -.870E+03   -.577E-01 -.333E-01 -.271E+00   -.741E-01 -.429E-01 -.215E+00
   0.308E-04 0.175E+01 0.861E+03   0.237E-03 -.175E+01 -.861E+03   -.201E-08 -.302E-01 -.408E+00   -.262E-02 0.230E-01 -.233E+00
   -.217E-04 -.528E+01 0.860E+03   0.163E-03 0.531E+01 -.860E+03   0.843E-08 0.127E+00 -.549E+00   0.189E-03 -.149E+00 -.180E+00
   0.151E+01 -.873E+00 0.861E+03   -.152E+01 0.877E+00 -.861E+03   -.262E-01 0.151E-01 -.408E+00   0.189E-01 -.134E-01 -.233E+00
   -.151E+01 -.873E+00 0.861E+03   0.152E+01 0.877E+00 -.861E+03   0.262E-01 0.151E-01 -.408E+00   -.187E-01 -.110E-01 -.232E+00
   -.392E-04 0.323E+01 -.821E+03   0.527E-04 -.326E+01 0.820E+03   0.454E-08 0.681E-01 0.525E+00   -.460E-02 0.482E-02 0.258E+00
   0.430E+02 0.248E+02 -.760E+03   -.425E+02 -.245E+02 0.760E+03   -.688E+00 -.397E+00 -.322E+00   0.210E+00 0.121E+00 0.417E+00
   -.430E+02 0.248E+02 -.760E+03   0.425E+02 -.245E+02 0.760E+03   0.688E+00 -.397E+00 -.322E+00   -.207E+00 0.122E+00 0.417E+00
   0.156E+02 -.900E+01 -.806E+03   -.158E+02 0.912E+01 0.805E+03   0.136E+00 -.783E-01 0.577E+00   0.815E-01 -.499E-01 0.275E+00
   -.140E-04 -.497E+02 -.760E+03   0.145E-03 0.491E+02 0.760E+03   0.529E-07 0.795E+00 -.322E+00   0.193E-02 -.241E+00 0.417E+00
   -.156E+02 -.900E+01 -.806E+03   0.158E+02 0.912E+01 0.805E+03   -.136E+00 -.783E-01 0.577E+00   -.884E-01 -.510E-01 0.275E+00
   -.279E+01 -.161E+01 -.821E+03   0.282E+01 0.163E+01 0.820E+03   -.590E-01 -.341E-01 0.525E+00   -.707E-02 -.415E-02 0.257E+00
   0.279E+01 -.161E+01 -.821E+03   -.282E+01 0.163E+01 0.820E+03   0.590E-01 -.341E-01 0.525E+00   0.220E-02 -.636E-02 0.258E+00
   0.109E-04 0.180E+02 -.806E+03   0.197E-03 -.182E+02 0.805E+03   0.104E-07 0.157E+00 0.577E+00   -.297E-02 0.955E-01 0.275E+00
   -.120E-04 -.140E-04 -.248E+04   0.296E-04 0.350E-04 0.248E+04   0.375E-17 -.236E-17 0.534E+00   -.208E-03 -.139E-03 0.570E+00
   0.401E+02 0.668E+02 -.246E+04   -.404E+02 -.673E+02 0.246E+04   -.108E-01 0.588E-01 0.876E+00   0.119E+00 0.189E+00 0.540E+00
   -.401E+02 0.668E+02 -.246E+04   0.404E+02 -.673E+02 0.246E+04   0.108E-01 0.588E-01 0.876E+00   -.118E+00 0.191E+00 0.540E+00
   0.779E+02 0.134E+01 -.246E+04   -.784E+02 -.133E+01 0.246E+04   0.455E-01 -.387E-01 0.876E+00   0.223E+00 0.855E-02 0.540E+00
   -.779E+02 0.134E+01 -.246E+04   0.784E+02 -.133E+01 0.246E+04   -.455E-01 -.387E-01 0.876E+00   -.225E+00 0.928E-02 0.539E+00
   0.378E+02 -.681E+02 -.246E+04   -.381E+02 0.686E+02 0.246E+04   0.563E-01 -.200E-01 0.876E+00   0.106E+00 -.198E+00 0.540E+00
   -.378E+02 -.681E+02 -.246E+04   0.381E+02 0.686E+02 0.246E+04   -.563E-01 -.200E-01 0.876E+00   -.104E+00 -.199E+00 0.539E+00
   0.335E-04 -.275E-04 -.249E+04   0.143E-03 -.504E-04 0.248E+04   0.402E-17 -.534E-17 0.378E+00   -.462E-02 -.237E-02 0.491E+00
   -.345E-04 -.206E-04 -.191E+04   0.105E-03 0.985E-05 0.190E+04   0.503E-18 0.371E-17 0.588E+00   0.105E-01 0.641E-02 0.978E+00
   0.103E-03 -.574E-04 -.147E+04   0.233E-04 0.150E-05 0.149E+04   0.118E-17 0.365E-18 -.189E+02   0.199E-02 0.121E-02 0.530E-01
   -.633E-03 -.823E-03 0.158E+02   0.132E-12 -.114E-12 0.591E-11   0.543E-16 -.637E-16 -.170E+02   0.190E-02 0.202E-02 0.181E+01

 POSITION                                       TOTAL-FORCE (eV/Angst)
      0.00000      0.00000      5.28038         0.000000     -0.000000     -0.091991
      2.93784      0.00000      5.28038        -0.007103      0.007578     -0.055027
      5.87568      0.00000      5.28038         0.007103      0.007578     -0.055027
      1.46892      2.54424      5.28038         0.003011     -0.009940     -0.055027
      4.40676      2.54424      5.28038        -0.000000     -0.000000     -0.046550
      7.34459      2.54424      5.28038        -0.003011     -0.009940     -0.055027
      2.93784      5.08848      5.28038         0.010114      0.002362     -0.055027
      5.87568      5.08848      5.28038        -0.010114      0.002362     -0.055027
      8.81351      5.08848      5.28038        -0.000000     -0.000000     -0.065436
      1.46892      0.84808      7.67911        -0.007579     -0.004376      0.131150
      4.40676      0.84808      7.67911        -0.000000     -0.043266      0.071859
      7.34459      0.84808      7.67911         0.007579     -0.004376      0.131150
      2.93784      3.39232      7.67911        -0.037469      0.021633      0.071859
      5.87568      3.39232      7.67911         0.037469      0.021633      0.071859
      8.81351      3.39232      7.67911        -0.000000     -0.014749      0.090237
      4.40676      5.93656      7.67911         0.000000      0.008751      0.131150
      7.34459      5.93656      7.67911        -0.012773      0.007374      0.090237
     10.28243      5.93656      7.67911         0.012773      0.007374      0.090237
      8.81351      1.69394     10.07055         0.000000      0.042212      0.027876
      2.94670      1.70128     10.05847         0.016511      0.009532     -0.168144
      5.86681      1.70128     10.05847        -0.016511      0.009532     -0.168144
     10.27376      4.24541     10.05945         0.024036     -0.013877     -0.024888
      4.40676      4.23017     10.05847        -0.000000     -0.019065     -0.168144
      7.35327      4.24541     10.05945        -0.024036     -0.013877     -0.024888
     11.75328      6.78576     10.07055        -0.036557     -0.021106      0.027876
      5.87375      6.78576     10.07055         0.036557     -0.021106      0.027876
      8.81351      6.77463     10.05945         0.000000      0.027755     -0.024888
      0.00000      0.00000     12.48855         0.000000     -0.000000     -0.029482
      2.97006      0.05170     12.45862        -0.136766     -0.200849     -0.019896
      5.84345      0.05170     12.45862         0.136766     -0.200849     -0.019896
      1.52981      2.54630     12.45862        -0.242323     -0.018018     -0.019896
      7.28371      2.54630     12.45862         0.242323     -0.018018     -0.019896
      2.96650      5.03473     12.45862        -0.105557      0.218867     -0.019896
      5.84701      5.03473     12.45862         0.105557      0.218867     -0.019896
      8.81351      5.08848     12.49203         0.000000     -0.000000     -0.040589
      4.40676      2.54424     12.16149        -0.000000     -0.000000      0.319154
      4.40676      2.54424     13.78246        -0.000000     -0.000000      0.020166
    total drift:                                0.001266      0.001195      0.578768

  FREE ENERGIE OF THE ION-ELECTRON SYSTEM (eV)
  free  energy   TOTEN  =      -117.02122844 eV

  energy  without entropy=     -117.02122844  energy(sigma->0) =     -117.02122844

 stress matrix after NEB project (eV)
    -20.73819     -0.00000      0.00000
     -0.00000    -20.73819      0.00000
     -0.00000      0.00000      2.27789
  FORCES: max atom, RMS     0.020166    0.003315
  FORCE total and by dimension    0.020166    0.020166
  Stress total and by dimension   29.416552   20.738187
|           W    W    AA    RRRRR   N    N  II  N    N   GGGG   !!!           |
|           W    W   A  A   R    R  NN   N  II  NN   N  G    G  !!!           |
|           W    W  A    A  R    R  N N  N  II  N N  N  G       !!!           |
|           W WW W  AAAAAA  RRRRR   N  N N  II  N  N N  G  GGG   !            |
|           WW  WW  A    A  R   R   N   NN  II  N   NN  G    G                |
|           W    W  A    A  R    R  N    N  II  N    N   GGGG   !!!           |
|     Tetrahedron method does not include variations of the Fermi             |
|     occupations, so forces and stress will be inaccurate. We suggest        |
|     using a different smearing scheme ISMEAR = 1 or 2 for metals in         |
|     relaxations.                                                            |

 total charge

# of ion       s       p       d       tot
    1        0.545   0.239   8.767   9.552
    2        0.543   0.241   8.765   9.548
    3        0.543   0.241   8.765   9.548
    4        0.543   0.241   8.765   9.548
    5        0.542   0.240   8.765   9.548
    6        0.543   0.241   8.765   9.548
    7        0.543   0.241   8.765   9.548
    8        0.543   0.241   8.765   9.548
    9        0.544   0.241   8.763   9.547
   10        0.520   0.308   8.774   9.602
   11        0.516   0.310   8.774   9.601
   12        0.520   0.308   8.774   9.602
   13        0.516   0.310   8.774   9.601
   14        0.516   0.310   8.774   9.601
   15        0.517   0.309   8.776   9.602
   16        0.520   0.308   8.774   9.602
   17        0.517   0.309   8.776   9.602
   18        0.517   0.309   8.776   9.602
   19        0.517   0.306   8.769   9.592
   20        0.537   0.325   8.760   9.623
   21        0.537   0.325   8.760   9.623
   22        0.517   0.308   8.776   9.601
   23        0.537   0.325   8.760   9.623
   24        0.517   0.308   8.776   9.601
   25        0.517   0.306   8.769   9.592
   26        0.517   0.306   8.769   9.592
   27        0.517   0.308   8.776   9.601
   28        0.539   0.223   8.775   9.538
   29        0.527   0.235   8.774   9.536
   30        0.527   0.235   8.774   9.536
   31        0.527   0.235   8.774   9.536
   32        0.527   0.235   8.774   9.536
   33        0.527   0.235   8.774   9.536
   34        0.527   0.235   8.774   9.536
   35        0.539   0.225   8.770   9.534
   36        0.497   0.569   8.369   9.435
   37        1.361   2.071   0.000   3.432
tot         20.358  12.258 315.332 347.948

 BZINTS: Fermi energy:    0.633442;  400.000000 electrons
         Band energy:-0.123617E+04;  BLOECHL correction:   -0.051446