 vasp.6.2.0 18Jan21 (build Jun 12 2021 23:27:24) complex

 executed on             LinuxIFC date 2022.05.26  19:45:46

 INCAR:
   ISMEAR = -5
   SIGMA = 0.1
   ISPIN = 1
   EDIFF = 1.d-5
   EDIFFG = -0.01
   NSW = 0
   NELM = 150
   ENCUT = 500
   ISIF = 2
   IBRION = 2
   LREAL = Auto
   ALGO = Fast
   ICHARG = 11
   LORBIT = 10
   LCHARG = .F.
   LWAVE = .F.

 POTCAR:    PAW_PBE Ag 02Apr2005
 POTCAR:    PAW_PBE Nb_sv 25May2007
 POTCAR:    PAW_PBE H 15Jun2001
|           W    W    AA    RRRRR   N    N  II  N    N   GGGG   !!!           |
|           W    W   A  A   R    R  NN   N  II  NN   N  G    G  !!!           |
|           W    W  A    A  R    R  N N  N  II  N N  N  G       !!!           |
|           W WW W  AAAAAA  RRRRR   N  N N  II  N  N N  G  GGG   !            |
|           WW  WW  A    A  R   R   N   NN  II  N   NN  G    G                |
|           W    W  A    A  R    R  N    N  II  N    N   GGGG   !!!           |
|     For optimal performance we recommend to set                             |
|       NCORE = 2 up to number-of-cores-per-socket                            |
|     This setting can greatly improve the performance of VASP for DFT.       |
|     The default, NCORE=1 might be grossly inefficient on modern             |
|     multi-core architectures or massively parallel machines. Do your        |
|     Unfortunately you need to use the default for GW and RPA                |
|     calculations (for HF NCORE is supported but not extensively tested      |
|     yet).                                                                   |

 POTCAR:    PAW_PBE Ag 02Apr2005
   VRHFIN =Ag : s1 d10

   TITEL  = PAW_PBE Ag 02Apr2005
   POMASS =  107.868; ZVAL   =   11.000    mass and valenz
   ENMAX  =  249.844; ENMIN  =  187.383 eV

 POTCAR:    PAW_PBE Nb_sv 25May2007
   VRHFIN =Nb: 4p5s4d

   TITEL  = PAW_PBE Nb_sv 25May2007
   POMASS =   92.910; ZVAL   =   13.000    mass and valenz
   ENMAX  =  293.235; ENMIN  =  219.927 eV

 POTCAR:    PAW_PBE H 15Jun2001
   VRHFIN =H: ultrasoft test

   TITEL  = PAW_PBE H 15Jun2001
   POMASS =    1.000; ZVAL   =    1.000    mass and valenz
   ENMAX  =  250.000; ENMIN  =  200.000 eV

 Optimization of the real space projectors (new method)

 maximal supplied QI-value         = 15.12
 optimisation between [QCUT,QGAM] = [ 11.34, 22.83] = [ 36.00,145.93] Ry
 Optimized for a Real-space Cutoff    1.43 Angstroem

   l    n(q)    QCUT    max X(q) W(low)/X(q) W(high)/X(q)  e(spline)
   2      9    11.338    53.897    0.16E-03    0.20E-03    0.28E-06
   2      9    11.338    52.416    0.16E-03    0.20E-03    0.29E-06
   0     10    11.338   122.045    0.31E-04    0.76E-04    0.15E-06
   0     10    11.338    73.629    0.30E-04    0.72E-04    0.15E-06
   1      9    11.338    15.255    0.20E-03    0.19E-04    0.17E-06
   1      9    11.338     9.562    0.16E-03    0.15E-04    0.14E-06
 Optimization of the real space projectors (new method)

[...]

   l    n(q)    QCUT    max X(q) W(low)/X(q) W(high)/X(q)  e(spline)
   0     11    11.450    10.201    0.21E-04    0.96E-05    0.78E-07
   0     11    11.450     8.174    0.31E-04    0.18E-04    0.14E-06
   1     10    11.450     3.488    0.27E-04    0.12E-04    0.96E-07
   1     10    11.450     4.917    0.11E-03    0.11E-03    0.37E-06
   2     10    11.450   153.744    0.37E-03    0.81E-03    0.10E-05
   2     10    11.450   126.342    0.37E-03    0.81E-03    0.10E-05
 Optimization of the real space projectors (new method)

 maximal supplied QI-value         = 34.20
 optimisation between [QCUT,QGAM] = [ 11.29, 22.57] = [ 35.68,142.71] Ry
 Optimized for a Real-space Cutoff    1.16 Angstroem

   l    n(q)    QCUT    max X(q) W(low)/X(q) W(high)/X(q)  e(spline)
   0      8    11.287    19.460    0.40E-03    0.73E-03    0.16E-06
   0      8    11.287    12.209    0.38E-03    0.70E-03    0.15E-06
   1      7    11.287     4.655    0.22E-03    0.25E-04    0.22E-06
  PAW_PBE Ag 02Apr2005                  :
  PAW_PBE Nb_sv 25May2007               :
  PAW_PBE H 15Jun2001                   :

 POSCAR: Ag-Nb-H
  positions in direct lattice
  velocities in cartesian coordinates
 exchange correlation table for  LEXCH =        8
   RHO(1)=    0.500       N(1)  =     2000
   RHO(2)=  100.500       N(2)  =     4000

 VTST: version 3.2, (02/03/18)

 CHAIN: initializing optimizer

 OPT: Using VASP Conjugate-Gradient optimizer
 CHAIN: Read ICHAIN            0

 POSCAR: Ag-Nb-H
  positions in direct lattice
  velocities in cartesian coordinates

 ion  position               nearest neighbor table
   1  0.000  0.000  0.238-   2 2.93   8 2.93   7 2.93   6 2.93   4 2.93  12 2.93  16 2.93  10 2.93
                             3 2.93
   2  0.333  0.000  0.238-   1 2.93   8 2.93   9 2.93   3 2.93   4 2.93   5 2.93  10 2.93  17 2.93
                            11 2.93
   3  0.667  0.000  0.238-   9 2.93   2 2.93   5 2.93  11 2.93   7 2.93  18 2.93   1 2.93   6 2.93
                            12 2.93
   4  0.000  0.333  0.238-   5 2.93   6 2.93   2 2.93   1 2.93   7 2.93  13 2.93  15 2.93   9 2.93
                            10 2.93
   5  0.333  0.333  0.238-   4 2.93   3 2.93   7 2.93   2 2.93   8 2.93  14 2.93  13 2.93  11 2.93
                             6 2.93
   6  0.667  0.333  0.238-   4 2.93   9 2.93   1 2.93  15 2.93   8 2.93  12 2.93   3 2.93   5 2.93
                            14 2.93
   7  0.000  0.667  0.238-   8 2.93   1 2.93   5 2.93   3 2.93   4 2.93  16 2.93  18 2.93  13 2.93
                             9 2.93
   8  0.333  0.667  0.238-   7 2.93   1 2.93   2 2.93   9 2.93   5 2.93  16 2.93   6 2.93  17 2.93
                            14 2.93
   9  0.667  0.667  0.238-   3 2.93   2 2.93   8 2.93   6 2.93  17 2.93   4 2.93  15 2.93   7 2.93
                            18 2.93
  10  0.111  0.111  0.346-  20 2.90  19 2.93  26 2.93  12 2.93  16 2.93  15 2.93  17 2.93  13 2.93
                            11 2.93   2 2.93   1 2.93   4 2.93
  11  0.444  0.111  0.346-  21 2.90  20 2.90  14 2.93  17 2.93  18 2.93   3 2.93  12 2.93  13 2.93
                            10 2.93   5 2.93   2 2.93  27 2.93
  12  0.778  0.111  0.346-  21 2.90  25 2.93  19 2.93  10 2.93  16 2.93  18 2.93  15 2.93  11 2.93
                             1 2.93  14 2.93   6 2.93   3 2.93
  13  0.111  0.444  0.346-  20 2.90  23 2.90  15 2.93  14 2.93  18 2.93  10 2.93  11 2.93  16 2.93
                             4 2.93   5 2.93   7 2.93  22 2.93
  14  0.444  0.444  0.346-  23 2.90  21 2.90  13 2.93  11 2.93  16 2.93   5 2.93  12 2.93  17 2.93
                             8 2.93  15 2.93   6 2.93  24 2.93
  15  0.778  0.444  0.346-  19 2.93  13 2.93  10 2.93  12 2.93  17 2.93  18 2.93   4 2.93   6 2.93
                             9 2.93  14 2.93  24 2.93  22 2.93
  16  0.111  0.778  0.346-  23 2.90  26 2.93  25 2.93  18 2.93  12 2.93  10 2.93  14 2.93  17 2.93
                            13 2.93   7 2.93   8 2.93   1 2.93
  17  0.444  0.778  0.346-  26 2.93  11 2.93  10 2.93   9 2.93  18 2.93  15 2.93  16 2.93   2 2.93
                            14 2.93   8 2.93  27 2.93  24 2.93
  18  0.778  0.778  0.346-  25 2.93  16 2.93  12 2.93  13 2.93  11 2.93  17 2.93  15 2.93   7 2.93
                             3 2.93   9 2.93  22 2.93  27 2.93
  19  0.889  0.222  0.454-  15 2.93  10 2.93  12 2.93  20 2.93  21 2.93  28 2.93  24 2.93  22 2.93
                            26 2.93  25 2.93  32 2.97  31 2.97
  20  0.222  0.222  0.452-  36 2.82  10 2.90  13 2.90  11 2.90  19 2.93  26 2.93  27 2.93  22 2.93
                            21 2.94  23 2.94  31 2.97  29 2.97
  21  0.556  0.222  0.452-  36 2.82  12 2.90  11 2.90  14 2.90  25 2.93  19 2.93  27 2.93  24 2.93
                            20 2.94  23 2.94  30 2.97  32 2.97
  22  0.889  0.556  0.454-  24 2.93  27 2.93  25 2.93  19 2.93  18 2.93  15 2.93  23 2.93  20 2.93
                            35 2.93  13 2.93  33 2.95  31 2.95
  23  0.222  0.556  0.452-  36 2.82  16 2.90  14 2.90  13 2.90  26 2.93  25 2.93  22 2.93  24 2.93
                            21 2.94  20 2.94  34 2.97  33 2.97
  24  0.556  0.556  0.454-  27 2.93  22 2.93  19 2.93  26 2.93  15 2.93  17 2.93  23 2.93  21 2.93
                            35 2.93  14 2.93  32 2.95  34 2.95
  25  0.889  0.889  0.454-  18 2.93  16 2.93  12 2.93  23 2.93  21 2.93  28 2.93  22 2.93  27 2.93
                            26 2.93  19 2.93  33 2.97  30 2.97
  26  0.222  0.889  0.454-  17 2.93  16 2.93  10 2.93  23 2.93  20 2.93  28 2.93  27 2.93  24 2.93
                            25 2.93  19 2.93  34 2.97  29 2.97
  27  0.556  0.889  0.454-  24 2.93  22 2.93  26 2.93  25 2.93  17 2.93  18 2.93  20 2.93  21 2.93
                            35 2.93  11 2.93  29 2.95  30 2.95
  28  0.000  0.000  0.561-  26 2.93  25 2.93  19 2.93  29 2.95  34 2.95  33 2.95  32 2.95  31 2.95
                            30 2.95
  29  0.333  0.004  0.563-  30 2.90  31 2.90  36 2.91  35 2.95  28 2.95  27 2.95  20 2.97  26 2.97
                            34 2.99
  30  0.663  0.004  0.563-  29 2.90  32 2.90  36 2.91  35 2.95  28 2.95  27 2.95  21 2.97  25 2.97
                            33 2.99
  31  0.004  0.333  0.563-  33 2.90  29 2.90  36 2.91  35 2.95  28 2.95  22 2.95  20 2.97  19 2.97
                            32 2.99
  32  0.663  0.333  0.563-  34 2.90  30 2.90  36 2.91  35 2.95  28 2.95  24 2.95  21 2.97  19 2.97
                            31 2.99
  33  0.004  0.663  0.563-  31 2.90  34 2.90  36 2.91  35 2.95  28 2.95  22 2.95  23 2.97  25 2.97
                            30 2.99
  34  0.333  0.663  0.563-  32 2.90  33 2.90  36 2.91  35 2.95  28 2.95  24 2.95  23 2.97  26 2.97
                            29 2.99
  35  0.667  0.667  0.562-  24 2.93  27 2.93  22 2.93  30 2.95  29 2.95  32 2.95  34 2.95  31 2.95
                            33 2.95
  36  0.333  0.333  0.554-  37 1.78  21 2.82  20 2.82  23 2.82  31 2.91  33 2.91  30 2.91  29 2.91
                            34 2.91  32 2.91
  37  0.333  0.333  0.634-  36 1.78

  LATTYP: Found a hexagonal cell.
 ALAT       =     8.7913665772
 C/A-ratio  =     2.5227160501

  Lattice vectors:

 A1 = (  -4.3956832886,  -7.6135467898,   0.0000000000)
 A2 = (   8.7913665771,   0.0000000000,   0.0000000000)
 A3 = (   0.0000000000,   0.0000000000,  22.1781215668)

Analysis of symmetry for initial positions (statically):
 Subroutine PRICEL returns:
 Original cell was already a primitive cell.

 Routine SETGRP: Setting up the symmetry group for a
 hexagonal supercell.

 Subroutine GETGRP returns: Found  6 space group operations
 (whereof  6 operations were pure point group operations)
 out of a pool of 24 trial point group operations.

The static configuration has the point symmetry C_3v.

Analysis of symmetry for dynamics (positions and initial velocities):
 Subroutine PRICEL returns:
 Original cell was already a primitive cell.

[...]

The dynamic configuration has the point symmetry C_3v.

Analysis of constrained symmetry for selective dynamics:
 Subroutine PRICEL returns:
 Original cell was already a primitive cell.

 Routine SETGRP: Setting up the symmetry group for a
 hexagonal supercell.

 Subroutine GETGRP returns: Found  6 space group operations
 (whereof  6 operations were pure point group operations)
[...]
     24      -4.7203      2.00000
     25      -4.7048      2.00000
     26      -4.6803      2.00000
     27      -4.6661      2.00000
     28      -4.6567      2.00000
     29      -4.6375      2.00000
     30      -4.6288      2.00000
     31      -4.5982      2.00000
     32      -4.5904      2.00000
     33      -4.5887      2.00000
     34      -4.5669      2.00000
     35      -4.5514      2.00000
     36      -4.5219      2.00000
     37      -4.5149      2.00000
     38      -4.4827      2.00000
     39      -4.4604      2.00000
     40      -4.4389      2.00000
     41      -4.3997      2.00000
     42      -4.3698      2.00000
     43      -4.3665      2.00000
     44      -4.3552      2.00000
     45      -4.3523      2.00000
     46      -4.3345      2.00000
     47      -4.2395      2.00000
     48      -4.2218      2.00000
     49      -4.2106      2.00000
     50      -4.1997      2.00000
     51      -4.1931      2.00000
     52      -4.1867      2.00000
     53      -4.1840      2.00000
     54      -4.1778      2.00000
     55      -4.1707      2.00000
     56      -4.1617      2.00000
     57      -4.0946      2.00000
     58      -4.0859      2.00000
     59      -4.0764      2.00000
     60      -4.0635      2.00000
[...]
    238       6.2457      0.00000
    239       6.3303      0.00000
    240       6.3451      0.00000
    241       6.3910      0.00000
    242       7.2122      0.00000
    243       7.2563      0.00000
    244       7.2883      0.00000
    245       7.3342      0.00000
    246       7.3382      0.00000
    247       7.3800      0.00000
    248       7.4323      0.00000
    249       7.5582      0.00000
    250       7.6205      0.00000
    251       7.6383      0.00000
    252       7.7272      0.00000

 soft charge-density along one line, spin component           1
         0         1         2         3         4         5         6         7         8         9
 total charge-density along one line

------------------------ aborting loop because EDIFF is reached ----------------------------------------

 total charge

# of ion       s       p       d       tot
    1        0.423   0.199   9.179   9.801
    2        0.414   0.204   9.178   9.796
    3        0.414   0.204   9.178   9.796
    4        0.414   0.204   9.178   9.796
    5        0.420   0.202   9.176   9.798
    6        0.414   0.204   9.178   9.796
    7        0.414   0.204   9.178   9.796
    8        0.414   0.204   9.178   9.796
    9        0.417   0.203   9.177   9.797
   10        0.411   0.268   9.163   9.842
   11        0.405   0.268   9.169   9.842
   12        0.411   0.268   9.163   9.842
   13        0.405   0.268   9.169   9.842
   14        0.405   0.268   9.169   9.842
   15        0.404   0.267   9.165   9.836
   16        0.411   0.268   9.163   9.842
   17        0.404   0.267   9.165   9.836
   18        0.404   0.267   9.165   9.836
   19        0.403   0.263   9.167   9.833
   20        0.447   0.296   9.135   9.878
   21        0.447   0.296   9.135   9.878
   22        0.393   0.272   9.165   9.830
   23        0.447   0.296   9.135   9.878
   24        0.393   0.272   9.165   9.830
   25        0.403   0.263   9.167   9.833
   26        0.403   0.263   9.167   9.833
   27        0.393   0.272   9.165   9.830
   28        0.409   0.202   9.173   9.784
   29        0.444   0.216   9.150   9.810
   30        0.444   0.216   9.150   9.810
   31        0.444   0.216   9.150   9.810
   32        0.444   0.216   9.150   9.810
   33        0.444   0.216   9.150   9.810
   34        0.444   0.216   9.150   9.810
   35        0.403   0.204   9.177   9.783
   36        2.194   5.980   2.319  10.492
   37        0.529   0.009   0.000   0.538
tot         17.332  14.420 323.065 354.817

  FORCE on cell =-STRESS in cart. coord.  units (eV):
  Direction    XX          YY          ZZ          XY          YZ          ZX
  Alpha Z   758.90820   758.90820   758.90820
  Ewald  121992.99534121992.99544************     0.00003     0.00001     0.00000
  Hartree132308.89410132308.89413************     0.00001     0.00000     0.00000
  E(xc)   -2090.61636 -2090.61635 -2096.29575    -0.00001     0.00000     0.00000
  Local  ************************265994.06809     0.00019    -0.00004    -0.00008
  n-local  -329.98085  -315.19533  -328.01077     9.66778    -0.59231     0.50653
  augment  3236.92683  3236.92702  3251.65328    -0.00017    -0.00000     0.00002
  Kinetic  5012.08351  5016.89623  5057.57490     3.65622     0.17922     0.17852
  Fock        0.00000     0.00000     0.00000     0.00000     0.00000     0.00000
  Total      -8.29015    -8.29015    -0.13592    -0.00000     0.00000     0.00000
  in kB      -8.94757    -8.94757    -0.14670    -0.00000     0.00000     0.00000

 VOLUME and BASIS-vectors are now :
  energy-cutoff  :      500.00
  volume of cell :     1484.46
      direct lattice vectors                 reciprocal lattice vectors
     8.791366577  0.000000000  0.000000000     0.113747958 -0.065672414  0.000000000
     4.395683289  7.613546790  0.000000000     0.000000000  0.131344829  0.000000000
     0.000000000  0.000000000 22.178121567     0.000000000  0.000000000  0.045089481

  length of vectors
     8.791366577  8.791366577 22.178121567     0.131344829  0.131344829  0.045089481

 FORCES acting on ions
    electron-ion (+dipol)            ewald-force                    non-local-force                 convergence-correction
   0.461E-04 -.281E-04 0.252E+04   -.954E-04 0.593E-04 -.251E+04   -.319E-17 0.619E-17 -.185E+01   -.129E-03 -.181E-03 0.877E-01
   0.246E+00 0.807E+00 0.252E+04   -.310E+00 -.943E+00 -.251E+04   0.445E-01 0.196E+00 -.165E+01   0.204E-01 -.660E-01 0.186E+00
   -.246E+00 0.807E+00 0.252E+04   0.310E+00 -.943E+00 -.251E+04   -.445E-01 0.196E+00 -.165E+01   -.209E-01 -.641E-01 0.187E+00
   0.822E+00 -.190E+00 0.252E+04   -.972E+00 0.203E+00 -.251E+04   0.192E+00 -.594E-01 -.165E+01   -.468E-01 0.509E-01 0.186E+00
   -.721E-05 -.198E-04 0.252E+04   0.980E-04 -.199E-05 -.252E+04   -.131E-17 -.209E-17 -.122E+01   0.630E-02 0.385E-02 0.276E+00
   -.822E+00 -.190E+00 0.252E+04   0.972E+00 0.203E+00 -.251E+04   -.192E+00 -.594E-01 -.165E+01   0.453E-01 0.518E-01 0.187E+00
   0.576E+00 -.617E+00 0.252E+04   -.662E+00 0.740E+00 -.251E+04   0.147E+00 -.136E+00 -.165E+01   -.655E-01 0.144E-01 0.187E+00
   -.576E+00 -.617E+00 0.252E+04   0.662E+00 0.740E+00 -.251E+04   -.147E+00 -.136E+00 -.165E+01   0.672E-01 0.134E-01 0.187E+00
   0.363E-04 -.130E-04 0.251E+04   0.792E-04 -.643E-04 -.251E+04   -.649E-18 -.265E-17 -.166E+01   -.670E-02 -.346E-02 0.181E+00
   0.546E+01 0.315E+01 0.861E+03   -.515E+01 -.297E+01 -.861E+03   -.358E+00 -.207E+00 -.632E+00   0.162E-01 0.940E-02 0.512E+00
   -.285E-04 0.899E+01 0.868E+03   0.410E-04 -.903E+01 -.868E+03   0.597E-12 0.908E-01 -.164E+00   0.640E-02 -.841E-01 0.455E+00
   -.546E+01 0.315E+01 0.861E+03   0.515E+01 -.297E+01 -.861E+03   0.358E+00 -.207E+00 -.632E+00   -.181E-01 0.109E-01 0.513E+00
   0.778E+01 -.449E+01 0.868E+03   -.782E+01 0.452E+01 -.868E+03   0.787E-01 -.454E-01 -.164E+00   -.697E-01 0.476E-01 0.455E+00
   -.778E+01 -.449E+01 0.868E+03   0.782E+01 0.452E+01 -.868E+03   -.787E-01 -.454E-01 -.164E+00   0.808E-01 0.469E-01 0.455E+00
   0.160E-04 -.238E+01 0.857E+03   -.109E-03 0.224E+01 -.856E+03   0.551E-12 0.840E-01 -.710E+00   -.202E-02 0.448E-01 0.442E+00
   -.822E-05 -.630E+01 0.861E+03   0.207E-04 0.595E+01 -.861E+03   0.272E-11 0.414E+00 -.632E+00   0.334E-03 -.212E-01 0.513E+00
   -.206E+01 0.119E+01 0.857E+03   0.194E+01 -.112E+01 -.856E+03   0.727E-01 -.420E-01 -.710E+00   0.378E-01 -.242E-01 0.442E+00
   0.206E+01 0.119E+01 0.857E+03   -.194E+01 -.112E+01 -.856E+03   -.727E-01 -.420E-01 -.710E+00   -.379E-01 -.219E-01 0.442E+00
   0.411E-04 -.711E+00 -.831E+03   -.131E-03 0.671E+00 0.829E+03   0.438E-12 0.667E-01 0.883E+00   -.188E-02 -.366E-01 0.527E+00
   0.380E+02 0.219E+02 -.771E+03   -.369E+02 -.213E+02 0.771E+03   -.118E+01 -.684E+00 -.102E+01   -.234E-01 -.135E-01 0.701E+00
   -.380E+02 0.219E+02 -.771E+03   0.369E+02 -.213E+02 0.771E+03   0.118E+01 -.684E+00 -.102E+01   0.342E-01 -.123E-01 0.701E+00
   0.143E+02 -.828E+01 -.826E+03   -.144E+02 0.833E+01 0.825E+03   0.169E+00 -.979E-01 0.409E+00   -.304E-01 0.178E-01 0.469E+00
   -.566E-04 -.439E+02 -.771E+03   0.487E-04 0.426E+02 0.771E+03   0.899E-11 0.137E+01 -.102E+01   0.680E-02 0.364E-01 0.701E+00
   -.143E+02 -.828E+01 -.826E+03   0.144E+02 0.833E+01 0.825E+03   -.169E+00 -.979E-01 0.409E+00   0.289E-01 0.168E-01 0.469E+00
   0.616E+00 0.355E+00 -.831E+03   -.581E+00 -.335E+00 0.829E+03   -.578E-01 -.334E-01 0.883E+00   0.327E-01 0.187E-01 0.526E+00
   -.616E+00 0.355E+00 -.831E+03   0.581E+00 -.335E+00 0.829E+03   0.578E-01 -.334E-01 0.883E+00   -.329E-01 0.165E-01 0.527E+00
   0.211E-04 0.166E+02 -.826E+03   0.109E-03 -.167E+02 0.825E+03   0.129E-11 0.196E+00 0.409E+00   -.469E-03 -.353E-01 0.469E+00
   0.543E-04 -.359E-04 -.249E+04   -.117E-03 0.779E-04 0.249E+04   -.283E-17 -.415E-17 0.173E+01   -.117E-03 -.204E-03 0.100E-01
   0.313E+02 0.486E+02 -.251E+04   -.304E+02 -.475E+02 0.250E+04   -.101E+01 -.137E+01 0.122E+01   0.168E+00 0.297E+00 0.151E+00
   -.313E+02 0.486E+02 -.251E+04   0.304E+02 -.475E+02 0.250E+04   0.101E+01 -.137E+01 0.122E+01   -.168E+00 0.299E+00 0.151E+00
   0.577E+02 0.279E+01 -.251E+04   -.564E+02 -.258E+01 0.250E+04   -.169E+01 -.189E+00 0.122E+01   0.341E+00 -.261E-02 0.151E+00
   -.577E+02 0.279E+01 -.251E+04   0.564E+02 -.258E+01 0.250E+04   0.169E+01 -.189E+00 0.122E+01   -.343E+00 -.180E-02 0.150E+00
   0.264E+02 -.513E+02 -.251E+04   -.260E+02 0.501E+02 0.250E+04   -.682E+00 0.156E+01 0.122E+01   0.175E+00 -.295E+00 0.151E+00
   -.264E+02 -.513E+02 -.251E+04   0.260E+02 0.501E+02 0.250E+04   0.682E+00 0.156E+01 0.122E+01   -.173E+00 -.296E+00 0.150E+00
   0.220E-04 -.102E-04 -.249E+04   0.105E-03 -.665E-04 0.249E+04   0.222E-17 0.526E-20 0.197E+01   -.677E-02 -.348E-02 0.927E-01
   0.230E-03 -.161E-03 -.281E+04   0.123E-03 0.141E-04 0.281E+04   -.135E-17 -.120E-18 -.234E+01   0.741E-02 0.452E-02 0.583E+00
   0.729E-05 -.566E-05 -.297E+03   0.452E-05 0.607E-07 0.299E+03   0.126E-18 -.595E-19 -.204E+01   0.142E-03 0.866E-04 -.945E-01
   0.566E-03 -.858E-03 -.671E+00   -.461E-13 0.330E-13 -.932E-11   -.110E-15 0.222E-15 -.117E+02   0.265E-01 0.187E-01 0.125E+02

 POSITION                                       TOTAL-FORCE (eV/Angst)
      0.00000      0.00000      5.28219         0.000000     -0.000000     -0.037836
      2.93046      0.00000      5.28219         0.001970     -0.005414      0.036831
      5.86091      0.00000      5.28219        -0.001970     -0.005414      0.036831
      1.46523      2.53785      5.28219        -0.003703      0.004413      0.036831
      4.39568      2.53785      5.28219         0.000000     -0.000000      0.015542
      7.32614      2.53785      5.28219         0.003703      0.004413      0.036831
      2.93046      5.07570      5.28219        -0.005674      0.001000      0.036831
      5.86091      5.07570      5.28219         0.005674      0.001000      0.036831
      8.79137      5.07570      5.28219         0.000000     -0.000000      0.000610
      1.46523      0.84595      7.67490        -0.033487     -0.019334     -0.061627
      4.39568      0.84595      7.67490        -0.000000     -0.045477     -0.057674
      7.32614      0.84595      7.67490         0.033487     -0.019334     -0.061627
      2.93046      3.38380      7.67490        -0.039384      0.022739     -0.057674
      5.86091      3.38380      7.67490         0.039384      0.022739     -0.057674
      8.79137      3.38380      7.67490        -0.000000     -0.010255      0.023817
      4.39568      5.92165      7.67490         0.000000      0.038668     -0.061627
      7.32614      5.92165      7.67490        -0.008881      0.005127      0.023817
     10.25659      5.92165      7.67490         0.008881      0.005127      0.023817
      8.79137      1.69211     10.06133        -0.000000     -0.010274      0.010064
      2.92756      1.69022     10.03254        -0.123734     -0.071438     -0.113918
      5.86381      1.69022     10.03254         0.123734     -0.071438     -0.113918
     10.25459      4.23091     10.07004         0.043150     -0.024913      0.015211
      4.39568      4.23310     10.03254         0.000000      0.142876     -0.113918
      7.32815      4.23091     10.07004        -0.043150     -0.024913      0.015211
     11.72164      6.76749     10.06133         0.008897      0.005137      0.010064
      5.86110      6.76749     10.06133        -0.008897      0.005137      0.010064
      8.79137      6.76528     10.07004         0.000000      0.049825      0.015211
      0.00000      0.00000     12.45237         0.000000     -0.000000      0.030822
      2.94700      0.02679     12.48745        -0.013257     -0.045509     -0.046232
      5.84437      0.02679     12.48745         0.013257     -0.045509     -0.046232
      1.49670      2.53878     12.48745        -0.046040      0.011273     -0.046232
      7.29466      2.53878     12.48745         0.046040      0.011273     -0.046232
      2.94539      5.04797     12.48745        -0.032783      0.034236     -0.046232
      5.84598      5.04797     12.48745         0.032783      0.034236     -0.046232
      8.79137      5.07570     12.46721         0.000000     -0.000000      0.044368
      4.39568      2.53785     12.28926         0.000000     -0.000000      0.526332
      4.39568      2.53785     14.06650         0.000000     -0.000000      0.028943
    total drift:                                0.027064      0.017818      0.108861

  FREE ENERGIE OF THE ION-ELECTRON SYSTEM (eV)
  free  energy   TOTEN  =      -100.06837884 eV

  energy  without entropy=     -100.06837884  energy(sigma->0) =     -100.06837884

 stress matrix after NEB project (eV)
     -8.29015     -0.00000      0.00000
     -0.00000     -8.29015      0.00000
      0.00000      0.00000     -0.13592
  FORCES: max atom, RMS     0.028943    0.004758
  FORCE total and by dimension    0.028943    0.028943
  Stress total and by dimension   11.724834    8.290152
|           W    W    AA    RRRRR   N    N  II  N    N   GGGG   !!!           |
|           W    W   A  A   R    R  NN   N  II  NN   N  G    G  !!!           |
|           W    W  A    A  R    R  N N  N  II  N N  N  G       !!!           |
|           W WW W  AAAAAA  RRRRR   N  N N  II  N  N N  G  GGG   !            |
|           WW  WW  A    A  R   R   N   NN  II  N   NN  G    G                |
|           W    W  A    A  R    R  N    N  II  N    N   GGGG   !!!           |
|     Tetrahedron method does not include variations of the Fermi             |
|     occupations, so forces and stress will be inaccurate. We suggest        |
|     using a different smearing scheme ISMEAR = 1 or 2 for metals in         |
|     relaxations.                                                            |

 total charge

# of ion       s       p       d       tot
    1        0.423   0.199   9.179   9.801
    2        0.414   0.204   9.178   9.796
    3        0.414   0.204   9.178   9.796
    4        0.414   0.204   9.178   9.796
    5        0.420   0.202   9.176   9.798
    6        0.414   0.204   9.178   9.796
    7        0.414   0.204   9.178   9.796
    8        0.414   0.204   9.178   9.796
    9        0.417   0.203   9.177   9.797
   10        0.411   0.268   9.163   9.842
   11        0.405   0.268   9.169   9.842
   12        0.411   0.268   9.163   9.842
   13        0.405   0.268   9.169   9.842
   14        0.405   0.268   9.169   9.842
   15        0.404   0.267   9.165   9.836
   16        0.411   0.268   9.163   9.842
   17        0.404   0.267   9.165   9.836
   18        0.404   0.267   9.165   9.836
   19        0.403   0.263   9.167   9.833
   20        0.447   0.296   9.135   9.878
   21        0.447   0.296   9.135   9.878
   22        0.393   0.272   9.165   9.830
   23        0.447   0.296   9.135   9.878
   24        0.393   0.272   9.165   9.830
   25        0.403   0.263   9.167   9.833
   26        0.403   0.263   9.167   9.833
   27        0.393   0.272   9.165   9.830
   28        0.409   0.202   9.173   9.784
   29        0.444   0.216   9.150   9.810
   30        0.444   0.216   9.150   9.810
   31        0.444   0.216   9.150   9.810
   32        0.444   0.216   9.150   9.810
   33        0.444   0.216   9.150   9.810
   34        0.444   0.216   9.150   9.810
   35        0.403   0.204   9.177   9.783
   36        2.194   5.980   2.319  10.492
   37        0.529   0.009   0.000   0.538
tot         17.332  14.420 323.065 354.817

 BZINTS: Fermi energy:    0.812613;  399.000000 electrons
         Band energy:-0.157606E+04;  BLOECHL correction:   -0.020152