 vasp.6.2.0 18Jan21 (build Jun 12 2021 23:27:24) complex

 executed on             LinuxIFC date 2022.05.27  06:10:36

 INCAR:
   ISMEAR = -5
   SIGMA = 0.1
   ISPIN = 1
   EDIFF = 1.d-5
   EDIFFG = -0.01
   NSW = 0
   NELM = 150
   ENCUT = 500
   ISIF = 2
   IBRION = 2
   LREAL = Auto
   ALGO = Fast
   ICHARG = 11
   LORBIT = 10
   LCHARG = .F.
   LWAVE = .F.

 POTCAR:    PAW_PBE Cu 22Jun2005
 POTCAR:    PAW_PBE Ru 04Feb2005
 POTCAR:    PAW_PBE O 08Apr2002
 POTCAR:    PAW_PBE H 15Jun2001
|           W    W    AA    RRRRR   N    N  II  N    N   GGGG   !!!           |
|           W    W   A  A   R    R  NN   N  II  NN   N  G    G  !!!           |
|           W    W  A    A  R    R  N N  N  II  N N  N  G       !!!           |
|           W WW W  AAAAAA  RRRRR   N  N N  II  N  N N  G  GGG   !            |
|           WW  WW  A    A  R   R   N   NN  II  N   NN  G    G                |
|           W    W  A    A  R    R  N    N  II  N    N   GGGG   !!!           |
|     For optimal performance we recommend to set                             |
|       NCORE = 2 up to number-of-cores-per-socket                            |
|     This setting can greatly improve the performance of VASP for DFT.       |
|     The default, NCORE=1 might be grossly inefficient on modern             |
|     multi-core architectures or massively parallel machines. Do your        |
|     Unfortunately you need to use the default for GW and RPA                |
|     calculations (for HF NCORE is supported but not extensively tested      |
|     yet).                                                                   |

 POTCAR:    PAW_PBE Cu 22Jun2005
   VRHFIN =Cu: d10 p1

   TITEL  = PAW_PBE Cu 22Jun2005
   POMASS =   63.546; ZVAL   =   11.000    mass and valenz
   ENMAX  =  295.446; ENMIN  =  221.585 eV

 POTCAR:    PAW_PBE Ru 04Feb2005
   VRHFIN =Ru: s1 d7

   TITEL  = PAW_PBE Ru 04Feb2005
   POMASS =  101.070; ZVAL   =    8.000    mass and valenz
   ENMAX  =  213.271; ENMIN  =  159.953 eV

 POTCAR:    PAW_PBE O 08Apr2002
   VRHFIN =O: s2p4

   TITEL  = PAW_PBE O 08Apr2002
   POMASS =   16.000; ZVAL   =    6.000    mass and valenz
   ENMAX  =  400.000; ENMIN  =  300.000 eV

 POTCAR:    PAW_PBE H 15Jun2001
   VRHFIN =H: ultrasoft test

   TITEL  = PAW_PBE H 15Jun2001
   POMASS =    1.000; ZVAL   =    1.000    mass and valenz
   ENMAX  =  250.000; ENMIN  =  200.000 eV

 Optimization of the real space projectors (new method)

 maximal supplied QI-value         = 16.25
 optimisation between [QCUT,QGAM] = [ 11.38, 22.75] = [ 36.24,144.96] Ry
 Optimized for a Real-space Cutoff    1.52 Angstroem

   l    n(q)    QCUT    max X(q) W(low)/X(q) W(high)/X(q)  e(spline)
   2      9    11.376     4.610    0.21E-03    0.10E-03    0.26E-06
   2      9    11.376     8.522    0.33E-03    0.16E-03    0.37E-06
   0     10    11.376    51.609    0.62E-04    0.20E-04    0.13E-06
   0     10    11.376    27.747    0.54E-04    0.20E-04    0.13E-06
   1     10    11.376    20.408    0.13E-04    0.99E-04    0.19E-06
   1     10    11.376    13.425    0.12E-04    0.87E-04    0.17E-06
 Optimization of the real space projectors (new method)

[...]

   l    n(q)    QCUT    max X(q) W(low)/X(q) W(high)/X(q)  e(spline)
   0      7    11.387    20.381    0.39E-03    0.13E-02    0.15E-06
   0      7    11.387    15.268    0.42E-03    0.14E-02    0.17E-06
   1      6    11.387     5.964    0.41E-03    0.11E-02    0.17E-06
   1      6    11.387     5.382    0.39E-03    0.87E-03    0.15E-06
 Optimization of the real space projectors (new method)

 maximal supplied QI-value         = 34.20
 optimisation between [QCUT,QGAM] = [ 11.29, 22.57] = [ 35.68,142.71] Ry
 Optimized for a Real-space Cutoff    1.16 Angstroem

   l    n(q)    QCUT    max X(q) W(low)/X(q) W(high)/X(q)  e(spline)
   0      8    11.287    19.460    0.40E-03    0.73E-03    0.16E-06
   0      8    11.287    12.209    0.38E-03    0.70E-03    0.15E-06
   1      7    11.287     4.655    0.22E-03    0.25E-04    0.22E-06
  PAW_PBE Cu 22Jun2005                  :
  PAW_PBE Ru 04Feb2005                  :
  PAW_PBE O 08Apr2002                   :
  PAW_PBE H 15Jun2001                   :

 POSCAR: Cu-Ru-OH
  positions in direct lattice
  velocities in cartesian coordinates
 exchange correlation table for  LEXCH =        8
   RHO(1)=    0.500       N(1)  =     2000
   RHO(2)=  100.500       N(2)  =     4000

 VTST: version 3.2, (02/03/18)

 CHAIN: initializing optimizer

 OPT: Using VASP Conjugate-Gradient optimizer
 CHAIN: Read ICHAIN            0

 POSCAR: Cu-Ru-OH
  positions in direct lattice
  velocities in cartesian coordinates

 ion  position               nearest neighbor table
   1  0.000  0.000  0.252-   7 2.57   3 2.57   4 2.57   2 2.57   6 2.57   8 2.57  12 2.57  10 2.57
                            16 2.57
   2  0.333  0.000  0.252-   8 2.57   9 2.57   5 2.57   1 2.57   3 2.57  11 2.57   4 2.57  10 2.57
                            17 2.57
   3  0.667  0.000  0.252-   1 2.57   7 2.57   6 2.57   9 2.57   2 2.57  12 2.57   5 2.57  18 2.57
                            11 2.57
   4  0.000  0.333  0.252-   5 2.57   6 2.57   1 2.57   7 2.57   2 2.57  13 2.57   9 2.57  10 2.57
                            15 2.57
   5  0.333  0.333  0.252-   4 2.57   2 2.57   7 2.57  13 2.57   8 2.57   6 2.57   3 2.57  11 2.57
                            14 2.57
   6  0.667  0.333  0.252-   4 2.57   9 2.57  15 2.57   3 2.57   1 2.57   8 2.57  14 2.57   5 2.57
                            12 2.57
   7  0.000  0.667  0.252-   1 2.57   3 2.57  16 2.57  18 2.57   4 2.57   5 2.57   8 2.57   9 2.57
                            13 2.57
   8  0.333  0.667  0.252-   9 2.57   2 2.57  17 2.57   6 2.57   1 2.57   7 2.57   5 2.57  14 2.57
                            16 2.57
   9  0.667  0.667  0.252-   8 2.57   6 2.57   2 2.57  17 2.57   3 2.57   7 2.57   4 2.57  15 2.57
                            18 2.57
  10  0.111  0.111  0.351-  20 2.55  26 2.56  19 2.56  11 2.57  12 2.57  13 2.57   1 2.57   2 2.57
                             4 2.57  15 2.57  16 2.57  17 2.57
  11  0.444  0.111  0.351-  20 2.55  21 2.55  10 2.57  13 2.57   2 2.57  17 2.57  14 2.57  12 2.57
                             5 2.57   3 2.57  18 2.57  27 2.57
  12  0.778  0.111  0.351-  21 2.55  19 2.56  25 2.56  15 2.57  10 2.57  14 2.57  18 2.57   3 2.57
                             1 2.57  16 2.57  11 2.57   6 2.57
  13  0.111  0.444  0.351-  23 2.55  20 2.55  16 2.57  18 2.57  10 2.57  11 2.57  14 2.57   5 2.57
                             4 2.57   7 2.57  15 2.57  22 2.57
  14  0.444  0.444  0.351-  21 2.55  23 2.55  15 2.57  17 2.57  12 2.57  16 2.57  13 2.57  11 2.57
                             6 2.57   8 2.57   5 2.57  24 2.57
  15  0.778  0.444  0.351-  19 2.56  14 2.57  17 2.57  12 2.57   6 2.57  18 2.57  10 2.57   9 2.57
                            13 2.57   4 2.57  24 2.57  22 2.57
  16  0.111  0.778  0.351-  23 2.55  25 2.56  26 2.56  18 2.57  13 2.57   7 2.57  14 2.57  17 2.57
                            12 2.57  10 2.57   8 2.57   1 2.57
  17  0.444  0.778  0.351-  26 2.56  14 2.57  15 2.57   8 2.57   9 2.57  11 2.57  16 2.57  18 2.57
                            10 2.57   2 2.57  27 2.57  24 2.57
  18  0.778  0.778  0.351-  25 2.56  16 2.57  13 2.57   7 2.57  15 2.57  12 2.57  17 2.57   9 2.57
                             3 2.57  11 2.57  22 2.57  27 2.57
  19  0.889  0.223  0.449-  28 2.55  15 2.56  21 2.56  20 2.56  12 2.56  10 2.56  22 2.56  24 2.56
                            32 2.56  31 2.56  25 2.57  26 2.57
  20  0.222  0.222  0.448-  10 2.55  11 2.55  13 2.55  36 2.55  26 2.56  19 2.56  27 2.57  22 2.57
                            23 2.57  21 2.57  29 2.58  31 2.58
  21  0.556  0.222  0.448-  12 2.55  14 2.55  11 2.55  36 2.55  19 2.56  25 2.56  24 2.57  27 2.57
                            20 2.57  23 2.57  32 2.58  30 2.58
  22  0.888  0.556  0.449-  35 2.55  24 2.56  27 2.56  19 2.56  25 2.56  18 2.57  15 2.57  31 2.57
                            33 2.57  23 2.57  20 2.57  13 2.57
  23  0.222  0.556  0.448-  16 2.55  13 2.55  14 2.55  36 2.55  25 2.56  26 2.56  22 2.57  24 2.57
                            20 2.57  21 2.57  33 2.58  34 2.58
  24  0.556  0.556  0.449-  35 2.55  22 2.56  27 2.56  19 2.56  26 2.56  15 2.57  17 2.57  32 2.57
                            34 2.57  21 2.57  23 2.57  14 2.57
  25  0.889  0.889  0.449-  28 2.55  18 2.56  21 2.56  23 2.56  16 2.56  12 2.56  22 2.56  27 2.56
                            33 2.56  30 2.56  19 2.57  26 2.57
  26  0.223  0.889  0.449-  28 2.55  17 2.56  20 2.56  23 2.56  10 2.56  16 2.56  27 2.56  24 2.56
                            29 2.56  34 2.56  25 2.57  19 2.57
  27  0.556  0.888  0.449-  35 2.55  24 2.56  22 2.56  26 2.56  25 2.56  17 2.57  18 2.57  29 2.57
                            30 2.57  20 2.57  21 2.57  11 2.57
  28  0.000  0.000  0.546-  25 2.55  19 2.55  26 2.55  33 2.56  30 2.56  31 2.56  29 2.56  32 2.56
                            34 2.56
  29  0.333  0.999  0.548-  34 2.55  28 2.56  26 2.56  35 2.56  27 2.57  31 2.57  36 2.57  30 2.58
                            20 2.58
  30  0.668  0.999  0.548-  33 2.55  28 2.56  25 2.56  35 2.56  27 2.57  32 2.57  36 2.57  29 2.58
                            21 2.58
  31  0.999  0.333  0.548-  32 2.55  28 2.56  19 2.56  35 2.56  22 2.57  29 2.57  36 2.57  33 2.58
                            20 2.58
  32  0.668  0.333  0.548-  31 2.55  28 2.56  19 2.56  35 2.56  24 2.57  30 2.57  36 2.57  34 2.58
                            21 2.58
  33  0.999  0.668  0.548-  30 2.55  28 2.56  25 2.56  35 2.56  22 2.57  34 2.57  36 2.57  31 2.58
                            23 2.58
  34  0.333  0.668  0.548-  29 2.55  28 2.56  26 2.56  35 2.56  24 2.57  33 2.57  36 2.57  32 2.58
                            23 2.58
  35  0.667  0.667  0.547-  24 2.55  27 2.55  22 2.55  34 2.56  32 2.56  29 2.56  30 2.56  33 2.56
                            31 2.56
  36  0.333  0.333  0.546-  37 1.92  23 2.55  20 2.55  21 2.55  31 2.57  29 2.57  33 2.57  34 2.57
                            32 2.57  30 2.57
  37  0.333  0.333  0.636-  38 0.97  36 1.92
  38  0.333  0.333  0.681-  37 0.97

  LATTYP: Found a hexagonal cell.
 ALAT       =     7.6967864036
 C/A-ratio  =     2.7653617908

  Lattice vectors:

 A1 = (  -3.8483927580,  -6.6656128093,   0.0000000000)
 A2 = (   7.6967864037,   0.0000000000,   0.0000000000)
 A3 = (   0.0000000000,   0.0000000000,  21.2843990326)

Analysis of symmetry for initial positions (statically):
 Subroutine PRICEL returns:
 Original cell was already a primitive cell.

 Routine SETGRP: Setting up the symmetry group for a
 hexagonal supercell.

 Subroutine GETGRP returns: Found  6 space group operations
 (whereof  6 operations were pure point group operations)
 out of a pool of 24 trial point group operations.

The static configuration has the point symmetry C_3v.

Analysis of symmetry for dynamics (positions and initial velocities):
 Subroutine PRICEL returns:
 Original cell was already a primitive cell.

[...]

The dynamic configuration has the point symmetry C_3v.

Analysis of constrained symmetry for selective dynamics:
 Subroutine PRICEL returns:
 Original cell was already a primitive cell.

[...]
     33      -3.7459      2.00000
     34      -3.7281      2.00000
     35      -3.7177      2.00000
     36      -3.6974      2.00000
     37      -3.6486      2.00000
     38      -3.5596      2.00000
     39      -3.5377      2.00000
     40      -3.5111      2.00000
     41      -3.4334      2.00000
     42      -3.4266      2.00000
     43      -3.3559      2.00000
     44      -3.3432      2.00000
     45      -3.3254      2.00000
     46      -3.3153      2.00000
     47      -3.3099      2.00000
     48      -3.2378      2.00000
     49      -3.2215      2.00000
     50      -3.1040      2.00000
     51      -3.0912      2.00000
     52      -3.0871      2.00000
     53      -3.0767      2.00000
     54      -3.0260      2.00000
     55      -3.0185      2.00000
     56      -3.0088      2.00000
     57      -2.9956      2.00000
     58      -2.9906      2.00000
     59      -2.9760      2.00000
     60      -2.9483      2.00000
[...]
    238       6.4216      0.00000
    239       6.6734      0.00000
    240       6.7252      0.00000
    241       6.7595      0.00000
    242       6.9041      0.00000
    243       7.0878      0.00000
    244       7.0958      0.00000
    245       7.2747      0.00000
    246       7.4537      0.00000
    247       7.5394      0.00000
    248       7.6080      0.00000
    249       7.7043      0.00000
    250       7.8447      0.00000
    251       8.0219      0.00000
    252       8.2018      0.00000

 soft charge-density along one line, spin component           1
         0         1         2         3         4         5         6         7         8         9
 total charge-density along one line

------------------------ aborting loop because EDIFF is reached ----------------------------------------

 total charge

# of ion       s       p       d       tot
    1        0.448   0.284   9.189   9.922
    2        0.449   0.285   9.186   9.920
    3        0.449   0.285   9.186   9.920
    4        0.449   0.285   9.186   9.920
    5        0.448   0.287   9.181   9.916
    6        0.449   0.285   9.186   9.920
    7        0.449   0.285   9.186   9.920
    8        0.449   0.285   9.186   9.920
    9        0.446   0.283   9.187   9.916
   10        0.444   0.372   9.176   9.992
   11        0.442   0.367   9.183   9.993
   12        0.444   0.372   9.176   9.992
   13        0.442   0.367   9.183   9.993
   14        0.442   0.367   9.183   9.993
   15        0.438   0.368   9.181   9.988
   16        0.444   0.372   9.176   9.992
   17        0.438   0.368   9.181   9.988
   18        0.438   0.368   9.181   9.988
   19        0.440   0.369   9.183   9.992
   20        0.458   0.394   9.164  10.015
   21        0.458   0.394   9.164  10.015
   22        0.432   0.370   9.184   9.986
   23        0.458   0.394   9.164  10.015
   24        0.432   0.370   9.184   9.986
   25        0.440   0.369   9.183   9.992
   26        0.440   0.369   9.183   9.992
   27        0.432   0.370   9.184   9.986
   28        0.454   0.288   9.189   9.931
   29        0.449   0.299   9.185   9.933
   30        0.449   0.299   9.185   9.933
   31        0.449   0.299   9.185   9.933
   32        0.449   0.299   9.185   9.933
   33        0.449   0.299   9.185   9.933
   34        0.449   0.299   9.185   9.933
   35        0.443   0.293   9.189   9.925
   36        0.569   0.656   6.639   7.864
   37        1.546   3.518   0.000   5.064
   38        0.607   0.126   0.000   0.733
tot         18.315  15.960 328.018 362.293

  FORCE on cell =-STRESS in cart. coord.  units (eV):
  Direction    XX          YY          ZZ          XY          YZ          ZX
  Alpha Z   882.77124   882.77124   882.77124
  Ewald  172234.99204172234.99162************     0.00039     0.00012     0.00018
  Hartree185443.42610185443.42608************     0.00004     0.00006     0.00007
  E(xc)   -2318.06550 -2318.06507 -2321.25811    -0.00037    -0.00004    -0.00007
  Local  ************************370803.97393     0.01882    -0.00060    -0.00098
  n-local  -781.85232  -765.07470  -786.08975     8.72220     0.09009     0.16948
  augment  3361.27766  3361.29811  3375.64176    -0.01771     0.00022     0.00034
  Kinetic  3371.11836  3378.28910  3364.74368     4.23543     1.61565    -1.01825
  Fock        0.00000     0.00000     0.00000     0.00000     0.00000     0.00000
  Total      -4.76575    -4.76575     1.18936     0.00000     0.00000     0.00000
  in kB      -6.99248    -6.99248     1.74507     0.00000     0.00000     0.00000

 VOLUME and BASIS-vectors are now :
  energy-cutoff  :      500.00
  volume of cell :     1091.97
      direct lattice vectors                 reciprocal lattice vectors
     7.696786404  0.000000000  0.000000000     0.129924354 -0.075011849  0.000000000
     3.848392758  6.665612809  0.000000000     0.000000000  0.150023716  0.000000000
     0.000000000  0.000000000 21.284399033     0.000000000  0.000000000  0.046982769

  length of vectors
     7.696786404  7.696786404 21.284399033     0.150023716  0.150023716  0.046982769

 FORCES acting on ions
    electron-ion (+dipol)            ewald-force                    non-local-force                 convergence-correction
   -.416E-04 0.126E-06 0.349E+04   0.580E-04 -.436E-05 -.349E+04   -.353E-18 -.221E-17 -.295E+01   -.354E-03 -.172E-03 -.557E+00
   -.462E+00 -.235E-01 0.349E+04   0.194E+00 -.123E-03 -.349E+04   0.825E-01 0.841E-01 -.177E+01   0.183E+00 -.400E-01 -.476E+00
   0.462E+00 -.235E-01 0.349E+04   -.194E+00 -.165E-03 -.349E+04   -.825E-01 0.841E-01 -.177E+01   -.182E+00 -.375E-01 -.475E+00
   -.251E+00 -.388E+00 0.349E+04   0.970E-01 0.168E+00 -.349E+04   0.114E+00 0.294E-01 -.177E+01   0.568E-01 0.178E+00 -.476E+00
   -.655E-04 -.562E-05 0.349E+04   0.116E-03 -.101E-04 -.349E+04   0.226E-17 -.920E-19 -.170E+01   0.121E-01 0.743E-02 -.429E+00
   0.251E+00 -.388E+00 0.349E+04   -.971E-01 0.168E+00 -.349E+04   -.114E+00 0.294E-01 -.177E+01   -.583E-01 0.179E+00 -.475E+00
   0.210E+00 0.411E+00 0.349E+04   -.974E-01 -.168E+00 -.349E+04   0.316E-01 -.114E+00 -.177E+01   -.123E+00 -.139E+00 -.475E+00
   -.210E+00 0.411E+00 0.349E+04   0.971E-01 -.168E+00 -.349E+04   -.316E-01 -.114E+00 -.177E+01   0.127E+00 -.140E+00 -.475E+00
   -.144E-03 -.329E-04 0.349E+04   0.263E-03 0.205E-04 -.349E+04   0.233E-17 0.104E-17 -.238E+01   -.131E-01 -.678E-02 -.431E+00
   0.610E+00 0.352E+00 0.119E+04   -.417E-01 -.241E-01 -.119E+04   -.606E+00 -.350E+00 -.127E+01   0.601E-01 0.347E-01 -.438E-01
   -.910E-04 -.249E+00 0.119E+04   0.190E-03 -.342E-01 -.119E+04   -.157E-07 0.236E+00 -.364E+00   0.119E-01 0.512E-02 -.914E-01
   -.610E+00 0.352E+00 0.119E+04   0.415E-01 -.242E-01 -.119E+04   0.606E+00 -.350E+00 -.127E+01   -.619E-01 0.358E-01 -.438E-01
   -.216E+00 0.125E+00 0.119E+04   -.295E-01 0.169E-01 -.119E+04   0.204E+00 -.118E+00 -.364E+00   0.109E-01 0.858E-02 -.913E-01
   0.216E+00 0.125E+00 0.119E+04   0.292E-01 0.169E-01 -.119E+04   -.204E+00 -.118E+00 -.364E+00   0.128E-01 0.699E-02 -.933E-01
   -.142E-03 -.129E+01 0.119E+04   0.298E-03 0.953E+00 -.119E+04   -.113E-07 0.170E+00 -.901E+00   -.346E-02 0.151E+00 -.165E+00
   -.919E-04 -.704E+00 0.119E+04   0.186E-03 0.482E-01 -.119E+04   -.466E-07 0.699E+00 -.127E+01   -.900E-03 -.728E-01 -.439E-01
   -.112E+01 0.647E+00 0.119E+04   0.825E+00 -.476E+00 -.119E+04   0.147E+00 -.851E-01 -.901E+00   0.130E+00 -.785E-01 -.165E+00
   0.112E+01 0.647E+00 0.119E+04   -.826E+00 -.476E+00 -.119E+04   -.147E+00 -.851E-01 -.901E+00   -.128E+00 -.758E-01 -.163E+00
   -.602E-04 -.162E+01 -.112E+04   0.685E-04 0.150E+01 0.112E+04   -.681E-08 0.102E+00 0.881E+00   -.991E-03 0.794E-02 0.407E+00
   -.222E+02 -.128E+02 -.114E+04   0.238E+02 0.137E+02 0.114E+04   -.152E+01 -.875E+00 -.127E+01   -.440E-01 -.255E-01 0.315E+00
   0.222E+02 -.128E+02 -.114E+04   -.238E+02 0.137E+02 0.114E+04   0.152E+01 -.875E+00 -.127E+01   0.455E-01 -.273E-01 0.314E+00
   -.143E+02 0.827E+01 -.113E+04   0.138E+02 -.795E+01 0.113E+04   0.612E+00 -.353E+00 0.874E+00   0.926E-03 0.122E-01 0.407E+00
   -.821E-04 0.256E+02 -.114E+04   0.146E-03 -.275E+02 0.114E+04   -.116E-06 0.175E+01 -.127E+01   -.211E-02 0.518E-01 0.314E+00
   0.143E+02 0.827E+01 -.113E+04   -.138E+02 -.795E+01 0.113E+04   -.612E+00 -.353E+00 0.874E+00   0.209E-01 0.112E-01 0.408E+00
   0.141E+01 0.812E+00 -.112E+04   -.130E+01 -.749E+00 0.112E+04   -.885E-01 -.511E-01 0.881E+00   -.772E-02 -.444E-02 0.408E+00
   -.141E+01 0.812E+00 -.112E+04   0.130E+01 -.749E+00 0.112E+04   0.885E-01 -.511E-01 0.881E+00   0.673E-02 -.463E-02 0.407E+00
   -.122E-03 -.165E+02 -.113E+04   0.243E-03 0.159E+02 0.113E+04   -.470E-07 0.707E+00 0.874E+00   0.110E-01 -.534E-02 0.407E+00
   -.372E-04 0.161E-04 -.341E+04   0.375E-04 -.336E-04 0.340E+04   0.829E-17 -.408E-18 0.177E+01   -.192E-02 -.106E-02 0.388E+00
   -.862E+01 -.130E+02 -.339E+04   0.841E+01 0.120E+02 0.339E+04   0.132E+00 0.797E+00 0.236E+01   -.324E-01 -.565E-01 0.406E+00
   0.862E+01 -.130E+02 -.339E+04   -.841E+01 0.120E+02 0.339E+04   -.132E+00 0.797E+00 0.236E+01   0.551E-01 -.550E-01 0.405E+00
   -.156E+02 -.972E+00 -.339E+04   0.146E+02 0.127E+01 0.339E+04   0.756E+00 -.284E+00 0.236E+01   -.651E-01 0.949E-04 0.406E+00
   0.156E+02 -.972E+00 -.339E+04   -.146E+02 0.127E+01 0.339E+04   -.756E+00 -.284E+00 0.236E+01   0.863E-01 0.739E-03 0.406E+00
   -.694E+01 0.140E+02 -.339E+04   0.621E+01 -.133E+02 0.339E+04   0.624E+00 -.513E+00 0.236E+01   -.201E-01 0.752E-01 0.405E+00
   0.694E+01 0.140E+02 -.339E+04   -.621E+01 -.133E+02 0.339E+04   -.624E+00 -.513E+00 0.236E+01   0.445E-01 0.744E-01 0.406E+00
   -.152E-03 -.274E-04 -.341E+04   0.255E-03 0.404E-05 0.341E+04   -.668E-18 -.533E-18 0.220E+01   -.142E-01 -.738E-02 0.442E+00
   -.409E-04 -.202E-04 -.229E+04   0.100E-03 0.198E-04 0.229E+04   -.549E-18 0.268E-17 0.168E+01   0.702E-03 0.449E-03 0.282E+00
   0.186E-03 -.805E-04 -.208E+04   0.141E-04 0.702E-05 0.206E+04   0.137E-17 -.859E-18 0.211E+02   0.297E-02 0.182E-02 0.184E+00
   0.485E-05 -.133E-04 -.384E+03   0.540E-06 0.473E-06 0.392E+03   0.127E-18 -.138E-18 -.838E+01   0.165E-03 0.100E-03 0.348E-02
   -.102E-03 -.121E-03 -.106E+02   0.138E-12 0.489E-12 0.671E-11   -.111E-15 0.112E-15 0.868E+01   0.118E+00 0.653E-01 0.195E+01

 POSITION                                       TOTAL-FORCE (eV/Angst)
      0.00000      0.00000      5.37156        -0.000000     -0.000000     -0.002552
      2.56560      0.00000      5.37156        -0.001757      0.021555      0.063250
      5.13119      0.00000      5.37156         0.001757      0.021555      0.063250
      1.28280      2.22187      5.37156         0.017788     -0.012299      0.063250
      3.84839      2.22187      5.37156        -0.000000     -0.000000      0.031363
      6.41399      2.22187      5.37156        -0.017788     -0.012299      0.063250
      2.56560      4.44374      5.37156         0.019546     -0.009256      0.063250
      5.13119      4.44374      5.37156        -0.019546     -0.009256      0.063250
      7.69679      4.44374      5.37156        -0.000000     -0.000000      0.009707
      1.28280      0.74062      7.46636         0.024186      0.013964     -0.055115
      3.84839      0.74062      7.46636         0.000000     -0.048545     -0.064117
      6.41399      0.74062      7.46636        -0.024186      0.013964     -0.055115
      2.56560      2.96249      7.46636        -0.042041      0.024272     -0.064117
      5.13119      2.96249      7.46636         0.042041      0.024272     -0.064117
      7.69679      2.96249      7.46636         0.000000     -0.021060      0.002708
      3.84839      5.18437      7.46636         0.000000     -0.027928     -0.055115
      6.41399      5.18437      7.46636        -0.018239      0.010530      0.002708
      8.97958      5.18437      7.46636         0.018239      0.010530      0.002708
      7.69679      1.48414      9.55535         0.000000     -0.016331     -0.012939
      2.56128      1.47875      9.53998         0.023254      0.013425     -0.095258
      5.13551      1.47875      9.53998        -0.023254      0.013425     -0.095258
      8.97644      3.70493      9.56275         0.055173     -0.031854     -0.021111
      3.84839      3.70811      9.53998         0.000000     -0.026851     -0.095258
      6.41713      3.70493      9.56275        -0.055173     -0.031854     -0.021111
     10.25987      5.92354      9.55535         0.014143      0.008165     -0.012939
      5.13370      5.92354      9.55535        -0.014143      0.008165     -0.012939
      7.69679      5.92136      9.56275        -0.000000      0.063708     -0.021111
      0.00000      0.00000     11.63109        -0.000000     -0.000000      0.016500
      6.40750      6.66078     11.65531        -0.121195     -0.227439     -0.161388
      8.98608      6.66078     11.65531         0.121195     -0.227439     -0.161388
      8.97216      2.21866     11.65531        -0.257566      0.008761     -0.161388
      6.42142      2.21866     11.65531         0.257566      0.008761     -0.161388
     10.26144      4.45178     11.65531        -0.136370      0.218678     -0.161388
      5.13213      4.45178     11.65531         0.136370      0.218678     -0.161388
      7.69679      4.44374     11.63516        -0.000000     -0.000000      0.046030
      3.84839      2.22187     11.61289        -0.000000     -0.000000      1.252674
      3.84839      2.22187     13.53522        -0.000000     -0.000000     -0.016074
      3.84839      2.22187     14.50133        -0.000000     -0.000000     -0.011331
    total drift:                                0.118139      0.065178     -0.004069

  FREE ENERGIE OF THE ION-ELECTRON SYSTEM (eV)
  free  energy   TOTEN  =      -140.29253714 eV

  energy  without entropy=     -140.29253714  energy(sigma->0) =     -140.29253714

 stress matrix after NEB project (eV)
     -4.76575      0.00000      0.00000
      0.00000     -4.76575     -0.00000
     -0.00000      0.00000      1.18936
  FORCES: max atom, RMS     0.016074    0.003190
  FORCE total and by dimension    0.019667    0.016074
  Stress total and by dimension    6.843932    4.765754
|           W    W    AA    RRRRR   N    N  II  N    N   GGGG   !!!           |
|           W    W   A  A   R    R  NN   N  II  NN   N  G    G  !!!           |
|           W    W  A    A  R    R  N N  N  II  N N  N  G       !!!           |
|           W WW W  AAAAAA  RRRRR   N  N N  II  N  N N  G  GGG   !            |
|           WW  WW  A    A  R   R   N   NN  II  N   NN  G    G                |
|           W    W  A    A  R    R  N    N  II  N    N   GGGG   !!!           |
|     Tetrahedron method does not include variations of the Fermi             |
|     occupations, so forces and stress will be inaccurate. We suggest        |
|     using a different smearing scheme ISMEAR = 1 or 2 for metals in         |
|     relaxations.                                                            |

 total charge

# of ion       s       p       d       tot
    1        0.448   0.284   9.189   9.922
    2        0.449   0.285   9.186   9.920
    3        0.449   0.285   9.186   9.920
    4        0.449   0.285   9.186   9.920
    5        0.448   0.287   9.181   9.916
    6        0.449   0.285   9.186   9.920
    7        0.449   0.285   9.186   9.920
    8        0.449   0.285   9.186   9.920
    9        0.446   0.283   9.187   9.916
   10        0.444   0.372   9.176   9.992
   11        0.442   0.367   9.183   9.993
   12        0.444   0.372   9.176   9.992
   13        0.442   0.367   9.183   9.993
   14        0.442   0.367   9.183   9.993
   15        0.438   0.368   9.181   9.988
   16        0.444   0.372   9.176   9.992
   17        0.438   0.368   9.181   9.988
   18        0.438   0.368   9.181   9.988
   19        0.440   0.369   9.183   9.992
   20        0.458   0.394   9.164  10.015
   21        0.458   0.394   9.164  10.015
   22        0.432   0.370   9.184   9.986
   23        0.458   0.394   9.164  10.015
   24        0.432   0.370   9.184   9.986
   25        0.440   0.369   9.183   9.992
   26        0.440   0.369   9.183   9.992
   27        0.432   0.370   9.184   9.986
   28        0.454   0.288   9.189   9.931
   29        0.449   0.299   9.185   9.933
   30        0.449   0.299   9.185   9.933
   31        0.449   0.299   9.185   9.933
   32        0.449   0.299   9.185   9.933
   33        0.449   0.299   9.185   9.933
   34        0.449   0.299   9.185   9.933
   35        0.443   0.293   9.189   9.925
   36        0.569   0.656   6.639   7.864
   37        1.546   3.518   0.000   5.064
   38        0.607   0.126   0.000   0.733
tot         18.315  15.960 328.018 362.293

 BZINTS: Fermi energy:    0.342618;  400.000000 electrons
         Band energy:-0.102594E+04;  BLOECHL correction:   -0.043715