 vasp.6.2.0 18Jan21 (build Jun 12 2021 23:27:24) complex

 executed on             LinuxIFC date 2022.05.26  19:54:58

 INCAR:
   ISMEAR = -5
   SIGMA = 0.1
   ISPIN = 1
   EDIFF = 1.d-5
   EDIFFG = -0.01
   NSW = 0
   NELM = 150
   ENCUT = 500
   ISIF = 2
   IBRION = 2
   LREAL = Auto
   ALGO = Fast
   ICHARG = 11
   LORBIT = 10
   LCHARG = .F.
   LWAVE = .F.

 POTCAR:    PAW_PBE Ag 02Apr2005
 POTCAR:    PAW_PBE Ir 06Sep2000
 POTCAR:    PAW_PBE N 08Apr2002
|           W    W    AA    RRRRR   N    N  II  N    N   GGGG   !!!           |
|           W    W   A  A   R    R  NN   N  II  NN   N  G    G  !!!           |
|           W    W  A    A  R    R  N N  N  II  N N  N  G       !!!           |
|           W WW W  AAAAAA  RRRRR   N  N N  II  N  N N  G  GGG   !            |
|           WW  WW  A    A  R   R   N   NN  II  N   NN  G    G                |
|           W    W  A    A  R    R  N    N  II  N    N   GGGG   !!!           |
|     For optimal performance we recommend to set                             |
|       NCORE = 2 up to number-of-cores-per-socket                            |
|     This setting can greatly improve the performance of VASP for DFT.       |
|     The default, NCORE=1 might be grossly inefficient on modern             |
|     multi-core architectures or massively parallel machines. Do your        |
|     Unfortunately you need to use the default for GW and RPA                |
|     calculations (for HF NCORE is supported but not extensively tested      |
|     yet).                                                                   |

 POTCAR:    PAW_PBE Ag 02Apr2005
   VRHFIN =Ag : s1 d10

   TITEL  = PAW_PBE Ag 02Apr2005
   POMASS =  107.868; ZVAL   =   11.000    mass and valenz
   ENMAX  =  249.844; ENMIN  =  187.383 eV

 POTCAR:    PAW_PBE Ir 06Sep2000
   VRHFIN =Ir: s1d8

   TITEL  = PAW_PBE Ir 06Sep2000
   POMASS =  192.220; ZVAL   =    9.000    mass and valenz
   ENMAX  =  210.864; ENMIN  =  158.148 eV

 POTCAR:    PAW_PBE N 08Apr2002
   VRHFIN =N: s2p3

   TITEL  = PAW_PBE N 08Apr2002
   POMASS =   14.001; ZVAL   =    5.000    mass and valenz
   ENMAX  =  400.000; ENMIN  =  300.000 eV

 Optimization of the real space projectors (new method)

 maximal supplied QI-value         = 15.12
 optimisation between [QCUT,QGAM] = [ 11.34, 22.83] = [ 36.00,145.93] Ry
 Optimized for a Real-space Cutoff    1.43 Angstroem

   l    n(q)    QCUT    max X(q) W(low)/X(q) W(high)/X(q)  e(spline)
   2      9    11.338    53.897    0.16E-03    0.20E-03    0.28E-06
   2      9    11.338    52.416    0.16E-03    0.20E-03    0.29E-06
   0     10    11.338   122.045    0.31E-04    0.76E-04    0.15E-06
   0     10    11.338    73.629    0.30E-04    0.72E-04    0.15E-06
   1      9    11.338    15.255    0.20E-03    0.19E-04    0.17E-06
   1      9    11.338     9.562    0.16E-03    0.15E-04    0.14E-06
 Optimization of the real space projectors (new method)

[...]

   l    n(q)    QCUT    max X(q) W(low)/X(q) W(high)/X(q)  e(spline)
   2      9    11.346   134.116    0.47E-03    0.13E-03    0.92E-06
   2      9    11.346   130.192    0.47E-03    0.13E-03    0.92E-06
   0     10    11.346    60.310    0.74E-04    0.13E-03    0.69E-06
   0     10    11.346    39.218    0.68E-04    0.12E-03    0.65E-06
   1     10    11.346    18.439    0.15E-03    0.34E-04    0.20E-06
   1     10    11.346    12.760    0.12E-03    0.31E-04    0.16E-06
 Optimization of the real space projectors (new method)

 maximal supplied QI-value         = 25.13
 optimisation between [QCUT,QGAM] = [ 11.31, 22.87] = [ 35.82,146.48] Ry
 Optimized for a Real-space Cutoff    1.27 Angstroem

   l    n(q)    QCUT    max X(q) W(low)/X(q) W(high)/X(q)  e(spline)
   0      9    11.310    79.467    0.75E-04    0.16E-03    0.36E-06
   0      9    11.310    66.151    0.74E-04    0.16E-03    0.36E-06
   1      8    11.310    17.416    0.35E-03    0.12E-03    0.95E-06
   1      8    11.310    12.382    0.37E-03    0.13E-03    0.98E-06
  PAW_PBE Ag 02Apr2005                  :
  PAW_PBE Ir 06Sep2000                  :
  PAW_PBE N 08Apr2002                   :

 POSCAR: Ag-Ir-N
  positions in direct lattice
  velocities in cartesian coordinates
 exchange correlation table for  LEXCH =        8
   RHO(1)=    0.500       N(1)  =     2000
   RHO(2)=  100.500       N(2)  =     4000

 VTST: version 3.2, (02/03/18)

 CHAIN: initializing optimizer

 OPT: Using VASP Conjugate-Gradient optimizer
 CHAIN: Read ICHAIN            0

 POSCAR: Ag-Ir-N
  positions in direct lattice
  velocities in cartesian coordinates

 ion  position               nearest neighbor table
   1  0.000  0.000  0.238-   2 2.93   8 2.93   7 2.93   6 2.93   4 2.93  12 2.93  16 2.93  10 2.93
                             3 2.93
   2  0.333  0.000  0.238-   1 2.93   8 2.93   9 2.93   3 2.93   4 2.93   5 2.93  10 2.93  17 2.93
                            11 2.93
   3  0.667  0.000  0.238-   9 2.93   2 2.93   5 2.93  11 2.93   7 2.93  18 2.93   1 2.93   6 2.93
                            12 2.93
   4  0.000  0.333  0.238-   5 2.93   6 2.93   2 2.93   1 2.93   7 2.93  13 2.93  15 2.93   9 2.93
                            10 2.93
   5  0.333  0.333  0.238-   4 2.93   3 2.93   7 2.93   2 2.93   8 2.93  14 2.93  13 2.93  11 2.93
                             6 2.93
   6  0.667  0.333  0.238-   4 2.93   9 2.93   1 2.93  15 2.93   8 2.93  12 2.93   3 2.93   5 2.93
                            14 2.93
   7  0.000  0.667  0.238-   8 2.93   1 2.93   5 2.93   3 2.93   4 2.93  16 2.93  18 2.93  13 2.93
                             9 2.93
   8  0.333  0.667  0.238-   7 2.93   1 2.93   2 2.93   9 2.93   5 2.93  16 2.93   6 2.93  17 2.93
                            14 2.93
   9  0.667  0.667  0.238-   3 2.93   2 2.93   8 2.93   6 2.93  17 2.93   4 2.93  15 2.93   7 2.93
                            18 2.93
  10  0.111  0.111  0.346-  20 2.89  12 2.93  16 2.93  15 2.93  17 2.93  13 2.93  11 2.93   2 2.93
                             1 2.93   4 2.93  19 2.93  26 2.93
  11  0.444  0.111  0.346-  21 2.90  20 2.90  27 2.92  14 2.93  17 2.93  18 2.93   3 2.93  12 2.93
                            13 2.93  10 2.93   5 2.93   2 2.93
  12  0.778  0.111  0.346-  21 2.89  10 2.93  16 2.93  18 2.93  15 2.93  11 2.93   1 2.93  14 2.93
                             6 2.93   3 2.93  25 2.93  19 2.93
  13  0.111  0.444  0.346-  20 2.90  23 2.90  22 2.92  15 2.93  14 2.93  18 2.93  10 2.93  11 2.93
                            16 2.93   4 2.93   5 2.93   7 2.93
  14  0.444  0.444  0.346-  23 2.90  21 2.90  24 2.92  13 2.93  11 2.93  16 2.93   5 2.93  12 2.93
                            17 2.93   8 2.93  15 2.93   6 2.93
  15  0.778  0.444  0.346-  24 2.92  22 2.92  19 2.93  13 2.93  10 2.93  12 2.93  17 2.93  18 2.93
                             4 2.93   6 2.93   9 2.93  14 2.93
  16  0.111  0.778  0.346-  23 2.89  18 2.93  12 2.93  10 2.93  14 2.93  17 2.93  13 2.93   7 2.93
                             8 2.93   1 2.93  26 2.93  25 2.93
  17  0.444  0.778  0.346-  27 2.92  24 2.92  26 2.93  11 2.93  10 2.93   9 2.93  18 2.93  15 2.93
                            16 2.93   2 2.93  14 2.93   8 2.93
  18  0.778  0.778  0.346-  22 2.92  27 2.92  25 2.93  16 2.93  12 2.93  13 2.93  11 2.93  17 2.93
                            15 2.93   7 2.93   3 2.93   9 2.93
  19  0.888  0.223  0.454-  28 2.90  24 2.92  22 2.92  15 2.93  20 2.93  21 2.93  10 2.93  12 2.93
                            32 2.94  31 2.94  26 2.94  25 2.94
  20  0.222  0.222  0.452-  36 2.77  10 2.89  13 2.90  11 2.90  31 2.92  29 2.92  19 2.93  26 2.93
                            27 2.93  22 2.93  21 2.94  23 2.94
  21  0.556  0.222  0.452-  36 2.77  12 2.89  11 2.90  14 2.90  30 2.92  32 2.92  25 2.93  19 2.93
                            27 2.93  24 2.93  20 2.94  23 2.94
  22  0.888  0.556  0.453-  35 2.90  18 2.92  15 2.92  13 2.92  24 2.92  27 2.92  25 2.92  19 2.92
                            33 2.93  31 2.93  23 2.93  20 2.93
  23  0.222  0.556  0.452-  36 2.77  16 2.89  14 2.90  13 2.90  34 2.92  33 2.92  26 2.93  25 2.93
                            22 2.93  24 2.93  21 2.94  20 2.94
  24  0.556  0.556  0.453-  35 2.90  15 2.92  17 2.92  14 2.92  27 2.92  22 2.92  19 2.92  26 2.92
                            32 2.93  34 2.93  23 2.93  21 2.93
  25  0.888  0.888  0.454-  28 2.90  22 2.92  27 2.92  18 2.93  23 2.93  21 2.93  16 2.93  12 2.93
                            33 2.94  30 2.94  26 2.94  19 2.94
  26  0.223  0.888  0.454-  28 2.90  27 2.92  24 2.92  17 2.93  23 2.93  20 2.93  16 2.93  10 2.93
                            34 2.94  29 2.94  25 2.94  19 2.94
  27  0.556  0.888  0.453-  35 2.90  17 2.92  18 2.92  11 2.92  24 2.92  22 2.92  26 2.92  25 2.92
                            29 2.93  30 2.93  20 2.93  21 2.93
  28  0.000  0.000  0.560-  26 2.90  25 2.90  19 2.90  29 2.96  34 2.96  33 2.96  32 2.96  31 2.96
                            30 2.96
  29  0.333  0.007  0.561-  31 2.87  30 2.88  36 2.88  20 2.92  27 2.93  26 2.94  28 2.96  35 2.96
                            34 3.04
  30  0.660  0.007  0.561-  32 2.87  29 2.88  36 2.88  21 2.92  27 2.93  25 2.94  28 2.96  35 2.96
                            33 3.04
  31  0.007  0.333  0.561-  29 2.87  33 2.88  36 2.88  20 2.92  22 2.93  19 2.94  28 2.96  35 2.96
                            32 3.04
  32  0.660  0.333  0.561-  30 2.87  34 2.88  36 2.88  21 2.92  24 2.93  19 2.94  28 2.96  35 2.96
                            31 3.04
  33  0.007  0.660  0.561-  34 2.87  31 2.88  36 2.88  23 2.92  22 2.93  25 2.94  28 2.96  35 2.96
                            30 3.04
  34  0.333  0.660  0.561-  33 2.87  32 2.88  36 2.88  23 2.92  24 2.93  26 2.94  28 2.96  35 2.96
                            29 3.04
  35  0.667  0.667  0.560-  24 2.90  27 2.90  22 2.90  30 2.96  32 2.96  29 2.96  34 2.96  31 2.96
                            33 2.96
  36  0.333  0.333  0.551-  37 1.71  21 2.77  20 2.77  23 2.77  31 2.88  30 2.88  33 2.88  29 2.88
                            34 2.88  32 2.88
  37  0.333  0.333  0.628-  36 1.71

  LATTYP: Found a hexagonal cell.
 ALAT       =     8.7913665772
 C/A-ratio  =     2.5227160501

  Lattice vectors:

 A1 = (  -4.3956832886,  -7.6135467898,   0.0000000000)
 A2 = (   8.7913665771,   0.0000000000,   0.0000000000)
 A3 = (   0.0000000000,   0.0000000000,  22.1781215668)

Analysis of symmetry for initial positions (statically):
 Subroutine PRICEL returns:
 Original cell was already a primitive cell.

 Routine SETGRP: Setting up the symmetry group for a
 hexagonal supercell.

 Subroutine GETGRP returns: Found  6 space group operations
 (whereof  6 operations were pure point group operations)
 out of a pool of 24 trial point group operations.

The static configuration has the point symmetry C_3v.

Analysis of symmetry for dynamics (positions and initial velocities):
 Subroutine PRICEL returns:
 Original cell was already a primitive cell.

[...]

The dynamic configuration has the point symmetry C_3v.

Analysis of constrained symmetry for selective dynamics:
 Subroutine PRICEL returns:
 Original cell was already a primitive cell.

 Routine SETGRP: Setting up the symmetry group for a
 hexagonal supercell.

 Subroutine GETGRP returns: Found  6 space group operations
[...]
     24      -4.6625      2.00000
     25      -4.6563      2.00000
     26      -4.6296      2.00000
     27      -4.6150      2.00000
     28      -4.5945      2.00000
     29      -4.5687      2.00000
     30      -4.5659      2.00000
     31      -4.5508      2.00000
     32      -4.5305      2.00000
     33      -4.5251      2.00000
     34      -4.5224      2.00000
     35      -4.4882      2.00000
     36      -4.4739      2.00000
     37      -4.4330      2.00000
     38      -4.4140      2.00000
     39      -4.4029      2.00000
     40      -4.3849      2.00000
     41      -4.3447      2.00000
     42      -4.3246      2.00000
     43      -4.3011      2.00000
     44      -4.2779      2.00000
     45      -4.2308      2.00000
     46      -4.2080      2.00000
     47      -4.1865      2.00000
     48      -4.1822      2.00000
     49      -4.1670      2.00000
     50      -4.1569      2.00000
     51      -4.1534      2.00000
     52      -4.1442      2.00000
     53      -4.1326      2.00000
     54      -4.1224      2.00000
     55      -4.1009      2.00000
     56      -4.0601      2.00000
     57      -4.0388      2.00000
     58      -4.0352      2.00000
     59      -4.0154      2.00000
     60      -4.0003      2.00000
[...]
    238       6.2955      0.00000
    239       6.3848      0.00000
    240       6.4242      0.00000
    241       7.1829      0.00000
    242       7.2383      0.00000
    243       7.2671      0.00000
    244       7.3172      0.00000
    245       7.3626      0.00000
    246       7.3936      0.00000
    247       7.4471      0.00000
    248       7.5666      0.00000
    249       7.6310      0.00000
    250       7.6560      0.00000
    251       7.6908      0.00000
    252       7.7935      0.00000

 soft charge-density along one line, spin component           1
         0         1         2         3         4         5         6         7         8         9
 total charge-density along one line

------------------------ aborting loop because EDIFF is reached ----------------------------------------

 total charge

# of ion       s       p       d       tot
    1        0.418   0.201   9.178   9.797
    2        0.416   0.203   9.177   9.796
    3        0.416   0.203   9.177   9.796
    4        0.416   0.203   9.177   9.796
    5        0.418   0.204   9.176   9.797
    6        0.416   0.203   9.177   9.796
    7        0.416   0.203   9.177   9.796
    8        0.416   0.203   9.177   9.796
    9        0.413   0.203   9.177   9.794
   10        0.409   0.269   9.163   9.840
   11        0.405   0.274   9.165   9.843
   12        0.409   0.269   9.163   9.840
   13        0.405   0.274   9.165   9.843
   14        0.405   0.274   9.165   9.843
   15        0.402   0.269   9.166   9.837
   16        0.409   0.269   9.163   9.840
   17        0.402   0.269   9.166   9.837
   18        0.402   0.269   9.166   9.837
   19        0.404   0.268   9.165   9.837
   20        0.429   0.300   9.148   9.877
   21        0.429   0.300   9.148   9.877
   22        0.396   0.273   9.168   9.838
   23        0.429   0.300   9.148   9.877
   24        0.396   0.273   9.168   9.838
   25        0.404   0.268   9.165   9.837
   26        0.404   0.268   9.165   9.837
   27        0.396   0.273   9.168   9.838
   28        0.419   0.196   9.182   9.797
   29        0.397   0.216   9.184   9.797
   30        0.397   0.216   9.184   9.797
   31        0.397   0.216   9.184   9.797
   32        0.397   0.216   9.184   9.797
   33        0.397   0.216   9.184   9.797
   34        0.397   0.216   9.184   9.797
   35        0.415   0.196   9.182   9.794
   36        0.747   0.670   7.087   8.503
   37        1.353   2.167   0.000   3.520
tot         16.394  11.309 328.072 355.775

  FORCE on cell =-STRESS in cart. coord.  units (eV):
  Direction    XX          YY          ZZ          XY          YZ          ZX
  Alpha Z   767.28015   767.28015   767.28015
  Ewald  121519.39541121519.39546************     0.00003     0.00000     0.00003
  Hartree131768.49707131768.49709************     0.00001    -0.00000     0.00001
  E(xc)   -2091.34358 -2091.34358 -2096.37670    -0.00001     0.00000     0.00000
  Local  ************************264717.07810     0.00037    -0.00005    -0.00014
  n-local  -344.47932  -325.77884  -335.70182    11.23349    -0.24166     0.41761
  augment  3261.74076  3261.74093  3263.08090    -0.00015    -0.00000     0.00004
  Kinetic  4982.84436  4982.81861  4984.28861     2.73574     1.27495    -0.52241
  Fock        0.00000     0.00000     0.00000     0.00000     0.00000     0.00000
  Total      -6.50418    -6.50418     0.89672    -0.00000     0.00000     0.00000
  in kB      -7.01996    -7.01996     0.96783    -0.00000     0.00000     0.00000

 VOLUME and BASIS-vectors are now :
  energy-cutoff  :      500.00
  volume of cell :     1484.46
      direct lattice vectors                 reciprocal lattice vectors
     8.791366577  0.000000000  0.000000000     0.113747958 -0.065672414  0.000000000
     4.395683289  7.613546790  0.000000000     0.000000000  0.131344829  0.000000000
     0.000000000  0.000000000 22.178121567     0.000000000  0.000000000  0.045089481

  length of vectors
     8.791366577  8.791366577 22.178121567     0.131344829  0.131344829  0.045089481

 FORCES acting on ions
    electron-ion (+dipol)            ewald-force                    non-local-force                 convergence-correction
   0.457E-04 -.284E-04 0.251E+04   -.954E-04 0.593E-04 -.251E+04   0.591E-17 -.103E-17 -.207E+01   -.127E-03 -.180E-03 -.278E-01
   0.530E+00 0.586E+00 0.252E+04   -.582E+00 -.574E+00 -.251E+04   0.523E-01 0.897E-01 -.158E+01   0.180E-02 -.902E-01 -.395E-01
   -.530E+00 0.586E+00 0.252E+04   0.582E+00 -.574E+00 -.251E+04   -.523E-01 0.897E-01 -.158E+01   -.233E-02 -.882E-01 -.387E-01
   0.773E+00 0.166E+00 0.252E+04   -.788E+00 -.217E+00 -.251E+04   0.104E+00 0.418E-03 -.158E+01   -.770E-01 0.469E-01 -.395E-01
   -.622E-05 -.191E-04 0.252E+04   0.981E-04 -.197E-05 -.252E+04   0.682E-17 -.183E-18 -.154E+01   0.630E-02 0.385E-02 -.250E-01
   -.773E+00 0.166E+00 0.252E+04   0.788E+00 -.217E+00 -.251E+04   -.104E+00 0.418E-03 -.158E+01   0.756E-01 0.478E-01 -.385E-01
   0.243E+00 -.753E+00 0.252E+04   -.206E+00 0.791E+00 -.251E+04   0.515E-01 -.901E-01 -.158E+01   -.771E-01 0.426E-01 -.387E-01
   -.243E+00 -.752E+00 0.252E+04   0.206E+00 0.791E+00 -.251E+04   -.515E-01 -.901E-01 -.158E+01   0.788E-01 0.416E-01 -.385E-01
   0.360E-04 -.131E-04 0.252E+04   0.792E-04 -.643E-04 -.251E+04   -.199E-17 0.137E-17 -.179E+01   -.670E-02 -.346E-02 -.514E-01
   0.706E+01 0.407E+01 0.858E+03   -.661E+01 -.381E+01 -.858E+03   -.383E+00 -.221E+00 -.797E+00   -.795E-01 -.459E-01 -.397E-01
   -.288E-04 0.565E+01 0.866E+03   0.411E-04 -.562E+01 -.866E+03   0.635E-12 0.967E-01 -.308E+00   0.644E-02 -.152E+00 -.168E-01
   -.706E+01 0.407E+01 0.858E+03   0.661E+01 -.381E+01 -.858E+03   0.383E+00 -.221E+00 -.797E+00   0.777E-01 -.444E-01 -.391E-01
   0.490E+01 -.283E+01 0.866E+03   -.487E+01 0.281E+01 -.866E+03   0.837E-01 -.483E-01 -.308E+00   -.128E+00 0.815E-01 -.168E-01
   -.490E+01 -.283E+01 0.866E+03   0.487E+01 0.281E+01 -.866E+03   -.837E-01 -.483E-01 -.308E+00   0.139E+00 0.807E-01 -.166E-01
   0.161E-04 0.148E+01 0.859E+03   -.109E-03 -.155E+01 -.858E+03   0.133E-12 0.202E-01 -.616E+00   -.196E-02 0.238E-01 -.384E-01
   -.792E-05 -.815E+01 0.858E+03   0.205E-04 0.763E+01 -.858E+03   0.290E-11 0.442E+00 -.797E+00   0.386E-03 0.894E-01 -.391E-01
   0.128E+01 -.742E+00 0.859E+03   -.134E+01 0.776E+00 -.858E+03   0.175E-01 -.101E-01 -.616E+00   0.196E-01 -.136E-01 -.384E-01
   -.128E+01 -.742E+00 0.859E+03   0.134E+01 0.776E+00 -.858E+03   -.175E-01 -.101E-01 -.616E+00   -.197E-01 -.114E-01 -.380E-01
   0.403E-04 0.396E+01 -.834E+03   -.129E-03 -.396E+01 0.834E+03   -.158E-12 -.241E-01 0.472E+00   -.640E-02 0.977E-02 0.843E-02
   0.162E+02 0.933E+01 -.788E+03   -.150E+02 -.867E+01 0.788E+03   -.105E+01 -.607E+00 -.559E+00   -.149E+00 -.861E-01 -.556E-03
   -.162E+02 0.933E+01 -.788E+03   0.150E+02 -.867E+01 0.788E+03   0.105E+01 -.607E+00 -.559E+00   0.151E+00 -.849E-01 -.809E-03
   0.524E+01 -.303E+01 -.821E+03   -.553E+01 0.319E+01 0.820E+03   0.338E+00 -.195E+00 0.794E+00   -.487E-01 0.231E-01 -.715E-03
   -.552E-04 -.187E+02 -.788E+03   0.441E-04 0.173E+02 0.788E+03   0.797E-11 0.121E+01 -.559E+00   0.219E-02 0.174E+00 -.780E-03
   -.524E+01 -.303E+01 -.821E+03   0.553E+01 0.319E+01 0.820E+03   -.338E+00 -.195E+00 0.794E+00   0.381E-01 0.221E-01 -.550E-03
   -.343E+01 -.198E+01 -.834E+03   0.343E+01 0.198E+01 0.834E+03   0.209E-01 0.121E-01 0.472E+00   -.143E-01 -.840E-02 0.810E-02
   0.343E+01 -.198E+01 -.834E+03   -.343E+01 0.198E+01 0.834E+03   -.209E-01 0.121E-01 0.472E+00   0.496E-02 -.106E-01 0.847E-02
   0.204E-04 0.605E+01 -.821E+03   0.110E-03 -.638E+01 0.820E+03   0.256E-11 0.390E+00 0.794E+00   -.504E-02 -.538E-01 -.657E-03
   0.540E-04 -.369E-04 -.249E+04   -.116E-03 0.782E-04 0.249E+04   0.441E-17 -.220E-17 0.188E+01   -.586E-04 -.171E-03 -.700E-02
   0.259E+02 0.463E+02 -.248E+04   -.260E+02 -.465E+02 0.248E+04   -.995E-01 -.613E-01 0.210E+01   -.157E-01 -.826E-01 0.111E-01
   -.259E+02 0.463E+02 -.248E+04   0.260E+02 -.465E+02 0.248E+04   0.995E-01 -.613E-01 0.210E+01   0.155E-01 -.806E-01 0.110E-01
   0.531E+02 -.740E+00 -.248E+04   -.533E+02 0.778E+00 0.248E+04   -.103E+00 -.555E-01 0.210E+01   -.791E-01 0.278E-01 0.111E-01
   -.531E+02 -.739E+00 -.248E+04   0.533E+02 0.778E+00 0.248E+04   0.103E+00 -.555E-01 0.210E+01   0.778E-01 0.286E-01 0.103E-01
   0.272E+02 -.456E+02 -.248E+04   -.273E+02 0.457E+02 0.248E+04   -.336E-02 0.117E+00 0.210E+01   -.616E-01 0.542E-01 0.109E-01
   -.272E+02 -.456E+02 -.248E+04   0.273E+02 0.457E+02 0.248E+04   0.336E-02 0.117E+00 0.210E+01   0.633E-01 0.531E-01 0.102E-01
   0.219E-04 -.117E-04 -.249E+04   0.106E-03 -.662E-04 0.248E+04   0.109E-16 0.676E-17 0.194E+01   -.672E-02 -.345E-02 0.359E-01
   -.136E-04 -.258E-04 -.176E+04   0.867E-04 0.108E-04 0.176E+04   -.156E-16 -.816E-17 0.748E+00   0.271E-02 0.164E-02 -.247E-01
   0.107E-03 -.597E-04 -.141E+04   0.246E-04 0.364E-06 0.144E+04   0.213E-17 0.317E-17 -.245E+02   0.179E-02 0.110E-02 -.302E-01
   0.476E-03 -.756E-03 0.260E+02   0.415E-13 0.154E-12 -.955E-11   0.235E-15 0.182E-15 -.253E+02   -.165E-01 -.622E-02 -.561E+00

 POSITION                                       TOTAL-FORCE (eV/Angst)
      0.00000      0.00000      5.28219         0.000000      0.000000     -0.010768
      2.93046      0.00000      5.28219         0.003432      0.013101      0.032401
      5.86091      0.00000      5.28219        -0.003432      0.013101      0.032401
      1.46523      2.53785      5.28219         0.013062     -0.003578      0.032401
      4.39568      2.53785      5.28219         0.000000      0.000000      0.026061
      7.32614      2.53785      5.28219        -0.013062     -0.003578      0.032401
      2.93046      5.07570      5.28219         0.009630     -0.009523      0.032401
      5.86091      5.07570      5.28219        -0.009630     -0.009523      0.032401
      8.79137      5.07570      5.28219         0.000000      0.000000      0.012344
      1.46523      0.84595      7.67490        -0.009579     -0.005530      0.001528
      4.39568      0.84595      7.67490        -0.000000     -0.027910     -0.062561
      7.32614      0.84595      7.67490         0.009579     -0.005530      0.001528
      2.93046      3.38380      7.67490        -0.024170      0.013955     -0.062561
      5.86091      3.38380      7.67490         0.024170      0.013955     -0.062561
      8.79137      3.38380      7.67490        -0.000000     -0.025533     -0.005798
      4.39568      5.92165      7.67490         0.000000      0.011061      0.001528
      7.32614      5.92165      7.67490        -0.022112      0.012767     -0.005798
     10.25659      5.92165      7.67490         0.022112      0.012767     -0.005798
      8.79137      1.70006     10.06849        -0.000000     -0.020797     -0.025406
      2.92657      1.68966     10.02287        -0.053886     -0.031111     -0.207578
      5.86479      1.68966     10.02287         0.053886     -0.031111     -0.207578
     10.25237      4.23218     10.05185         0.007971     -0.004602     -0.026055
      4.39568      4.23423     10.02287         0.000000      0.062222     -0.207578
      7.33036      4.23218     10.05185        -0.007971     -0.004602     -0.026055
     11.71475      6.76352     10.06849         0.018011      0.010399     -0.025406
      5.86798      6.76352     10.06849        -0.018011      0.010399     -0.025406
      8.79137      6.76272     10.05185         0.000000      0.009204     -0.026055
      0.00000      0.00000     12.42216         0.000000      0.000000      0.026343
      2.95716      0.04978     12.43839        -0.178436     -0.330680     -0.100426
      5.83420      0.04978     12.43839         0.178436     -0.330680     -0.100426
      1.52169      2.53609     12.43839        -0.375595      0.010810     -0.100426
      7.26967      2.53609     12.43839         0.375595      0.010810     -0.100426
      2.96021      5.02768     12.43839        -0.197159      0.319870     -0.100426
      5.83115      5.02768     12.43839         0.197159      0.319870     -0.100426
      8.79137      5.07570     12.41166         0.000000      0.000000      0.036299
      4.39568      2.53785     12.21369         0.000000      0.000000      1.269911
      4.39568      2.53785     13.92484         0.000000      0.000000      0.025566
    total drift:                               -0.015982     -0.006976      0.084956

  FREE ENERGIE OF THE ION-ELECTRON SYSTEM (eV)
  free  energy   TOTEN  =      -103.59400907 eV

  energy  without entropy=     -103.59400907  energy(sigma->0) =     -103.59400907

 stress matrix after NEB project (eV)
     -6.50418     -0.00000      0.00000
     -0.00000     -6.50418      0.00000
      0.00000      0.00000      0.89672
  FORCES: max atom, RMS     0.025566    0.004203
  FORCE total and by dimension    0.025566    0.025566
  Stress total and by dimension    9.241905    6.504179
|           W    W    AA    RRRRR   N    N  II  N    N   GGGG   !!!           |
|           W    W   A  A   R    R  NN   N  II  NN   N  G    G  !!!           |
|           W    W  A    A  R    R  N N  N  II  N N  N  G       !!!           |
|           W WW W  AAAAAA  RRRRR   N  N N  II  N  N N  G  GGG   !            |
|           WW  WW  A    A  R   R   N   NN  II  N   NN  G    G                |
|           W    W  A    A  R    R  N    N  II  N    N   GGGG   !!!           |
|     Tetrahedron method does not include variations of the Fermi             |
|     occupations, so forces and stress will be inaccurate. We suggest        |
|     using a different smearing scheme ISMEAR = 1 or 2 for metals in         |
|     relaxations.                                                            |

 total charge

# of ion       s       p       d       tot
    1        0.418   0.201   9.178   9.797
    2        0.416   0.203   9.177   9.796
    3        0.416   0.203   9.177   9.796
    4        0.416   0.203   9.177   9.796
    5        0.418   0.204   9.176   9.797
    6        0.416   0.203   9.177   9.796
    7        0.416   0.203   9.177   9.796
    8        0.416   0.203   9.177   9.796
    9        0.413   0.203   9.177   9.794
   10        0.409   0.269   9.163   9.840
   11        0.405   0.274   9.165   9.843
   12        0.409   0.269   9.163   9.840
   13        0.405   0.274   9.165   9.843
   14        0.405   0.274   9.165   9.843
   15        0.402   0.269   9.166   9.837
   16        0.409   0.269   9.163   9.840
   17        0.402   0.269   9.166   9.837
   18        0.402   0.269   9.166   9.837
   19        0.404   0.268   9.165   9.837
   20        0.429   0.300   9.148   9.877
   21        0.429   0.300   9.148   9.877
   22        0.396   0.273   9.168   9.838
   23        0.429   0.300   9.148   9.877
   24        0.396   0.273   9.168   9.838
   25        0.404   0.268   9.165   9.837
   26        0.404   0.268   9.165   9.837
   27        0.396   0.273   9.168   9.838
   28        0.419   0.196   9.182   9.797
   29        0.397   0.216   9.184   9.797
   30        0.397   0.216   9.184   9.797
   31        0.397   0.216   9.184   9.797
   32        0.397   0.216   9.184   9.797
   33        0.397   0.216   9.184   9.797
   34        0.397   0.216   9.184   9.797
   35        0.415   0.196   9.182   9.794
   36        0.747   0.670   7.087   8.503
   37        1.353   2.167   0.000   3.520
tot         16.394  11.309 328.072 355.775

 BZINTS: Fermi energy:    0.855119;  399.000000 electrons
         Band energy:-0.131711E+04;  BLOECHL correction:   -0.065104