 vasp.6.2.0 18Jan21 (build Jun 12 2021 23:27:24) complex

 executed on             LinuxIFC date 2022.05.28  02:04:05

 INCAR:
   ISMEAR = -5
   SIGMA = 0.1
   ISPIN = 1
   EDIFF = 1.d-5
   EDIFFG = -0.01
   NSW = 0
   NELM = 150
   ENCUT = 500
   ISIF = 2
   IBRION = 2
   LREAL = Auto
   ALGO = Fast
   ICHARG = 11
   LORBIT = 10
   LCHARG = .F.
   LWAVE = .F.

 POTCAR:    PAW_PBE Ag 02Apr2005
 POTCAR:    PAW_PBE Re 17Jan2003
 POTCAR:    PAW_PBE H 15Jun2001
 POTCAR:    PAW_PBE O 08Apr2002
|           W    W    AA    RRRRR   N    N  II  N    N   GGGG   !!!           |
|           W    W   A  A   R    R  NN   N  II  NN   N  G    G  !!!           |
|           W    W  A    A  R    R  N N  N  II  N N  N  G       !!!           |
|           W WW W  AAAAAA  RRRRR   N  N N  II  N  N N  G  GGG   !            |
|           WW  WW  A    A  R   R   N   NN  II  N   NN  G    G                |
|           W    W  A    A  R    R  N    N  II  N    N   GGGG   !!!           |
|     For optimal performance we recommend to set                             |
|       NCORE = 2 up to number-of-cores-per-socket                            |
|     This setting can greatly improve the performance of VASP for DFT.       |
|     The default, NCORE=1 might be grossly inefficient on modern             |
|     multi-core architectures or massively parallel machines. Do your        |
|     Unfortunately you need to use the default for GW and RPA                |
|     calculations (for HF NCORE is supported but not extensively tested      |
|     yet).                                                                   |

 POTCAR:    PAW_PBE Ag 02Apr2005
   VRHFIN =Ag : s1 d10

   TITEL  = PAW_PBE Ag 02Apr2005
   POMASS =  107.868; ZVAL   =   11.000    mass and valenz
   ENMAX  =  249.844; ENMIN  =  187.383 eV

 POTCAR:    PAW_PBE Re 17Jan2003
   VRHFIN =Re: 5p6s5d

   TITEL  = PAW_PBE Re 17Jan2003
   POMASS =  186.207; ZVAL   =    7.000    mass and valenz
   ENMAX  =  226.216; ENMIN  =  169.662 eV

 POTCAR:    PAW_PBE H 15Jun2001
   VRHFIN =H: ultrasoft test

   TITEL  = PAW_PBE H 15Jun2001
   POMASS =    1.000; ZVAL   =    1.000    mass and valenz
   ENMAX  =  250.000; ENMIN  =  200.000 eV

 POTCAR:    PAW_PBE O 08Apr2002
   VRHFIN =O: s2p4

   TITEL  = PAW_PBE O 08Apr2002
   POMASS =   16.000; ZVAL   =    6.000    mass and valenz
   ENMAX  =  400.000; ENMIN  =  300.000 eV

 Optimization of the real space projectors (new method)

 maximal supplied QI-value         = 15.12
 optimisation between [QCUT,QGAM] = [ 11.34, 22.83] = [ 36.00,145.93] Ry
 Optimized for a Real-space Cutoff    1.43 Angstroem

   l    n(q)    QCUT    max X(q) W(low)/X(q) W(high)/X(q)  e(spline)
   2      9    11.338    53.897    0.16E-03    0.20E-03    0.28E-06
   2      9    11.338    52.416    0.16E-03    0.20E-03    0.29E-06
   0     10    11.338   122.045    0.31E-04    0.76E-04    0.15E-06
   0     10    11.338    73.629    0.30E-04    0.72E-04    0.15E-06
   1      9    11.338    15.255    0.20E-03    0.19E-04    0.17E-06
   1      9    11.338     9.562    0.16E-03    0.15E-04    0.14E-06
 Optimization of the real space projectors (new method)

[...]

   l    n(q)    QCUT    max X(q) W(low)/X(q) W(high)/X(q)  e(spline)
   0      8    11.287    19.460    0.40E-03    0.73E-03    0.16E-06
   0      8    11.287    12.209    0.38E-03    0.70E-03    0.15E-06
   1      7    11.287     4.655    0.22E-03    0.25E-04    0.22E-06
 Optimization of the real space projectors (new method)

 maximal supplied QI-value         = 24.76
 optimisation between [QCUT,QGAM] = [ 11.39, 22.77] = [ 36.31,145.25] Ry
 Optimized for a Real-space Cutoff    1.00 Angstroem

   l    n(q)    QCUT    max X(q) W(low)/X(q) W(high)/X(q)  e(spline)
   0      7    11.387    20.381    0.39E-03    0.13E-02    0.15E-06
   0      7    11.387    15.268    0.42E-03    0.14E-02    0.17E-06
   1      6    11.387     5.964    0.41E-03    0.11E-02    0.17E-06
   1      6    11.387     5.382    0.39E-03    0.87E-03    0.15E-06
  PAW_PBE Ag 02Apr2005                  :
  PAW_PBE Re 17Jan2003                  :
  PAW_PBE H 15Jun2001                   :
  PAW_PBE O 08Apr2002                   :

 POSCAR: Ag-Re-H2O
  positions in direct lattice
  velocities in cartesian coordinates
 exchange correlation table for  LEXCH =        8
   RHO(1)=    0.500       N(1)  =     2000
   RHO(2)=  100.500       N(2)  =     4000

 VTST: version 3.2, (02/03/18)

 CHAIN: initializing optimizer

 OPT: Using VASP Conjugate-Gradient optimizer
 CHAIN: Read ICHAIN            0

 POSCAR: Ag-Re-H2O
  positions in direct lattice
  velocities in cartesian coordinates

 ion  position               nearest neighbor table
   1  0.000  0.000  0.212-   2 2.93   8 2.93   7 2.93   6 2.93   4 2.93  12 2.93  16 2.93  10 2.93
                             3 2.93
   2  0.333  0.000  0.212-   1 2.93   8 2.93   9 2.93   3 2.93   4 2.93   5 2.93  10 2.93  17 2.93
                            11 2.93
   3  0.667  0.000  0.212-   9 2.93   2 2.93   5 2.93  11 2.93   7 2.93  18 2.93   1 2.93   6 2.93
                            12 2.93
   4  0.000  0.333  0.212-   5 2.93   6 2.93   2 2.93   1 2.93   7 2.93  13 2.93  15 2.93   9 2.93
                            10 2.93
   5  0.333  0.333  0.212-   4 2.93   3 2.93   7 2.93   2 2.93   8 2.93  14 2.93  13 2.93  11 2.93
                             6 2.93
   6  0.667  0.333  0.212-   4 2.93   9 2.93   1 2.93  15 2.93   8 2.93  12 2.93   3 2.93   5 2.93
                            14 2.93
   7  0.000  0.667  0.212-   8 2.93   1 2.93   5 2.93   3 2.93   4 2.93  16 2.93  18 2.93  13 2.93
                             9 2.93
   8  0.333  0.667  0.212-   7 2.93   1 2.93   2 2.93   9 2.93   5 2.93  16 2.93   6 2.93  17 2.93
                            14 2.93
   9  0.667  0.667  0.212-   3 2.93   2 2.93   8 2.93   6 2.93  17 2.93   4 2.93  15 2.93   7 2.93
                            18 2.93
  10  0.111  0.111  0.308-  20 2.89  12 2.93  16 2.93  15 2.93  17 2.93  13 2.93  11 2.93   2 2.93
                             1 2.93   4 2.93  19 2.93  26 2.93
  11  0.444  0.111  0.308-  21 2.89  20 2.89  27 2.93  14 2.93  17 2.93  18 2.93   3 2.93  12 2.93
                            13 2.93  10 2.93   5 2.93   2 2.93
  12  0.778  0.111  0.308-  21 2.89  10 2.93  16 2.93  18 2.93  15 2.93  11 2.93   1 2.93  14 2.93
                             6 2.93   3 2.93  25 2.93  19 2.93
  13  0.111  0.444  0.308-  20 2.89  23 2.89  22 2.93  15 2.93  14 2.93  18 2.93  10 2.93  11 2.93
                            16 2.93   4 2.93   5 2.93   7 2.93
  14  0.444  0.444  0.308-  23 2.89  21 2.89  24 2.93  13 2.93  11 2.93  16 2.93   5 2.93  12 2.93
                            17 2.93   8 2.93  15 2.93   6 2.93
  15  0.778  0.444  0.308-  24 2.92  22 2.92  19 2.93  13 2.93  10 2.93  12 2.93  17 2.93  18 2.93
                             4 2.93   6 2.93   9 2.93  14 2.93
  16  0.111  0.778  0.308-  23 2.89  18 2.93  12 2.93  10 2.93  14 2.93  17 2.93  13 2.93   7 2.93
                             8 2.93   1 2.93  26 2.93  25 2.93
  17  0.444  0.778  0.308-  27 2.92  24 2.92  26 2.93  11 2.93  10 2.93   9 2.93  18 2.93  15 2.93
                            16 2.93   2 2.93  14 2.93   8 2.93
  18  0.778  0.778  0.308-  22 2.92  27 2.92  25 2.93  16 2.93  12 2.93  13 2.93  11 2.93  17 2.93
                            15 2.93   7 2.93   3 2.93   9 2.93
  19  0.889  0.223  0.403-  28 2.91  24 2.93  22 2.93  15 2.93  20 2.93  21 2.93  10 2.93  12 2.93
                            26 2.94  25 2.94  32 2.97  31 2.97
  20  0.222  0.222  0.402-  36 2.76  10 2.89  13 2.89  11 2.89  19 2.93  26 2.93  21 2.93  23 2.93
                            27 2.94  22 2.94  31 2.94  29 2.94
  21  0.556  0.222  0.402-  36 2.76  12 2.89  11 2.89  14 2.89  25 2.93  19 2.93  20 2.93  23 2.93
                            27 2.94  24 2.94  30 2.94  32 2.94
  22  0.888  0.556  0.403-  35 2.91  24 2.92  27 2.92  18 2.92  15 2.92  13 2.93  25 2.93  19 2.93
                            23 2.94  20 2.94  33 2.95  31 2.95
  23  0.222  0.556  0.402-  36 2.76  16 2.89  14 2.89  13 2.89  26 2.93  25 2.93  21 2.93  20 2.93
                            22 2.94  24 2.94  34 2.94  33 2.94
  24  0.556  0.556  0.403-  35 2.91  27 2.92  22 2.92  15 2.92  17 2.92  14 2.93  19 2.93  26 2.93
                            23 2.94  21 2.94  32 2.95  34 2.95
  25  0.889  0.889  0.403-  28 2.91  22 2.93  27 2.93  18 2.93  23 2.93  21 2.93  16 2.93  12 2.93
                            26 2.94  19 2.94  33 2.97  30 2.97
  26  0.223  0.889  0.403-  28 2.91  27 2.93  24 2.93  17 2.93  23 2.93  20 2.93  16 2.93  10 2.93
                            25 2.94  19 2.94  34 2.97  29 2.97
  27  0.556  0.888  0.403-  35 2.91  24 2.92  22 2.92  17 2.92  18 2.92  11 2.93  26 2.93  25 2.93
                            20 2.94  21 2.94  29 2.95  30 2.95
  28  0.000  0.000  0.498-  26 2.91  25 2.91  19 2.91  29 2.96  34 2.96  33 2.96  32 2.96  31 2.96
                            30 2.96
  29  0.333  0.008  0.500-  31 2.86  30 2.87  36 2.88  20 2.94  27 2.95  28 2.96  26 2.97  35 2.97
                            34 3.06
  30  0.659  0.008  0.500-  32 2.86  29 2.87  36 2.88  21 2.94  27 2.95  28 2.96  25 2.97  35 2.97
                            33 3.06
  31  0.008  0.333  0.500-  29 2.86  33 2.87  36 2.88  20 2.94  22 2.95  28 2.96  19 2.97  35 2.97
                            32 3.06
  32  0.659  0.333  0.500-  30 2.86  34 2.87  36 2.88  21 2.94  24 2.95  28 2.96  19 2.97  35 2.97
                            31 3.06
  33  0.008  0.659  0.500-  34 2.86  31 2.87  36 2.88  23 2.94  22 2.95  28 2.96  25 2.97  35 2.97
                            30 3.06
  34  0.333  0.659  0.500-  33 2.86  32 2.87  36 2.88  23 2.94  24 2.95  28 2.96  26 2.97  35 2.97
                            29 3.06
  35  0.667  0.667  0.498-  24 2.91  27 2.91  22 2.91  30 2.97  32 2.97  29 2.97  34 2.97  31 2.97
                            33 2.97
  36  0.333  0.333  0.489-  39 2.28  21 2.76  20 2.76  23 2.76  31 2.88  30 2.88  33 2.88  29 2.88
                            34 2.88  32 2.88
  37  0.279  0.265  0.589-  39 0.98
  38  0.457  0.266  0.589-  39 0.98
  39  0.331  0.338  0.580-  37 0.98  38 0.98  36 2.28

  LATTYP: Found a hexagonal cell.
 ALAT       =     8.7913665772
 C/A-ratio  =     2.8382349142

  Lattice vectors:

 A1 = (  -4.3956832886,  -7.6135467898,   0.0000000000)
 A2 = (   8.7913665771,   0.0000000000,   0.0000000000)
 A3 = (   0.0000000000,   0.0000000000,  24.9519635625)

Analysis of symmetry for initial positions (statically):
 Subroutine PRICEL returns:
 Original cell was already a primitive cell.

 Routine SETGRP: Setting up the symmetry group for a
 hexagonal supercell.

 Subroutine GETGRP returns: Found  1 space group operations
 (whereof  1 operations were pure point group operations)
 out of a pool of 24 trial point group operations.

The static configuration has the point symmetry C_1 .

Analysis of symmetry for dynamics (positions and initial velocities):
 Subroutine PRICEL returns:
 Original cell was already a primitive cell.

[...]

The dynamic configuration has the point symmetry C_1 .

Analysis of constrained symmetry for selective dynamics:
 Subroutine PRICEL returns:
[...]
     41      -4.6921      2.00000
     42      -4.6656      2.00000
     43      -4.6597      2.00000
     44      -4.6507      2.00000
     45      -4.6403      2.00000
     46      -4.6346      2.00000
     47      -4.5402      2.00000
     48      -4.5154      2.00000
     49      -4.5018      2.00000
     50      -4.4965      2.00000
     51      -4.4947      2.00000
     52      -4.4872      2.00000
     53      -4.4793      2.00000
     54      -4.4762      2.00000
     55      -4.4684      2.00000
     56      -4.4561      2.00000
     57      -4.3801      2.00000
     58      -4.3760      2.00000
     59      -4.3676      2.00000
     60      -4.3635      2.00000
[...]
    238       5.7199      0.00000
    239       5.8454      0.00000
    240       5.8721      0.00000
    241       6.0103      0.00000
    242       6.1272      0.00000
    243       6.2530      0.00000
    244       6.3161      0.00000
    245       6.4032      0.00000
    246       6.4382      0.00000
    247       6.6168      0.00000
    248       6.7030      0.00000
    249       6.8771      0.00000
    250       6.9448      0.00000
    251       6.9860      0.00000
    252       7.1609      0.00000

 soft charge-density along one line, spin component           1
         0         1         2         3         4         5         6         7         8         9
 total charge-density along one line

------------------------ aborting loop because EDIFF is reached ----------------------------------------

 total charge

# of ion       s       p       d       tot
    1        0.420   0.201   9.178   9.798
    2        0.417   0.203   9.177   9.797
    3        0.417   0.203   9.177   9.797
    4        0.418   0.203   9.177   9.798
    5        0.418   0.202   9.175   9.796
    6        0.418   0.203   9.177   9.798
    7        0.417   0.203   9.178   9.797
    8        0.417   0.203   9.178   9.797
    9        0.414   0.201   9.179   9.795
   10        0.410   0.268   9.161   9.840
   11        0.410   0.267   9.169   9.846
   12        0.410   0.268   9.161   9.840
   13        0.409   0.268   9.169   9.846
   14        0.409   0.268   9.169   9.845
   15        0.404   0.268   9.166   9.838
   16        0.410   0.269   9.161   9.840
   17        0.404   0.268   9.166   9.837
   18        0.404   0.268   9.166   9.837
   19        0.403   0.263   9.166   9.832
   20        0.437   0.311   9.133   9.881
   21        0.437   0.311   9.133   9.881
   22        0.393   0.271   9.169   9.834
   23        0.438   0.311   9.132   9.881
   24        0.393   0.271   9.169   9.834
   25        0.401   0.263   9.167   9.832
   26        0.401   0.263   9.167   9.831
   27        0.394   0.271   9.169   9.834
   28        0.409   0.200   9.176   9.785
   29        0.433   0.227   9.156   9.816
   30        0.433   0.227   9.156   9.816
   31        0.433   0.226   9.156   9.815
   32        0.433   0.226   9.156   9.815
   33        0.429   0.220   9.161   9.809
   34        0.429   0.220   9.161   9.809
   35        0.400   0.202   9.178   9.780
   36        0.499   0.314   4.705   5.518
   37        0.604   0.119   0.000   0.723
   38        0.603   0.118   0.000   0.722
   39        1.567   3.606   0.000   5.173
tot         17.797  12.670 325.493 355.960

  FORCE on cell =-STRESS in cart. coord.  units (eV):
  Direction    XX          YY          ZZ          XY          YZ          ZX
  Alpha Z   687.29922   687.29922   687.29922
  Ewald  160939.31059160874.74368************     0.21031   -15.48073    -0.11027
  Hartree170901.83245170889.88283************     0.03540     1.04650    -0.06933
  E(xc)   -2096.45114 -2096.66527 -2102.09265     0.00058    -0.01440    -0.00048
  Local  ************************343027.87434    -0.18127     7.91642     0.16713
  n-local  -370.13883  -370.99780  -372.48949    -0.00701     0.09825    -0.00083
  augment  3233.95183  3235.14724  3247.33264    -0.00412     0.30971     0.00119
  Kinetic  4998.24648  5016.11739  5051.53265    -0.05106     6.08208     0.00725
  Fock        0.00000     0.00000     0.00000     0.00000     0.00000     0.00000
  Total      -9.20916    -9.42443     0.70836     0.00284    -0.04218    -0.00534
  in kB      -8.83451    -9.04102     0.67954     0.00272    -0.04046    -0.00512

 VOLUME and BASIS-vectors are now :
  energy-cutoff  :      500.00
  volume of cell :     1670.12
      direct lattice vectors                 reciprocal lattice vectors
     8.791366577  0.000000000  0.000000000     0.113747958 -0.065672414  0.000000000
     4.395683289  7.613546790  0.000000000     0.000000000  0.131344829  0.000000000
     0.000000000  0.000000000 24.951963562     0.000000000  0.000000000  0.040077006

  length of vectors
     8.791366577  8.791366577 24.951963562     0.131344829  0.131344829  0.040077006

 FORCES acting on ions
    electron-ion (+dipol)            ewald-force                    non-local-force                 convergence-correction
   0.584E-03 0.136E-02 0.272E+04   -.196E-04 -.741E-02 -.272E+04   -.125E-04 0.142E-01 -.219E+01   -.567E-03 -.507E-02 0.582E-01
   0.209E+00 0.413E+00 0.272E+04   -.410E+00 -.455E+00 -.272E+04   0.130E+00 0.124E+00 -.146E+01   0.670E-01 -.688E-01 0.853E-01
   -.209E+00 0.403E+00 0.272E+04   0.410E+00 -.455E+00 -.272E+04   -.130E+00 0.124E+00 -.146E+01   -.676E-01 -.592E-01 0.870E-01
   0.506E+00 0.369E-02 0.272E+04   -.593E+00 -.120E+00 -.272E+04   0.143E+00 0.327E-01 -.146E+01   -.458E-01 0.728E-01 0.929E-01
   -.126E-01 -.290E-01 0.272E+04   -.641E-04 0.115E-01 -.272E+04   -.210E-02 0.164E-01 -.126E+01   0.150E-01 -.235E-02 0.115E+00
   -.498E+00 0.216E-03 0.272E+04   0.593E+00 -.120E+00 -.272E+04   -.143E+00 0.324E-01 -.146E+01   0.382E-01 0.767E-01 0.957E-01
   0.184E+00 -.412E+00 0.272E+04   -.183E+00 0.575E+00 -.272E+04   0.699E-01 -.162E+00 -.151E+01   -.641E-01 -.238E-02 0.902E-01
   -.191E+00 -.408E+00 0.272E+04   0.183E+00 0.575E+00 -.272E+04   -.700E-01 -.162E+00 -.151E+01   0.719E-01 -.686E-02 0.914E-01
   0.127E-01 0.258E-01 0.272E+04   0.163E-03 -.397E-02 -.272E+04   0.232E-02 -.191E-01 -.192E+01   -.153E-01 -.225E-02 0.193E-01
   0.560E+01 0.326E+01 0.928E+03   -.505E+01 -.292E+01 -.927E+03   -.526E+00 -.303E+00 -.946E+00   -.120E-01 -.295E-01 -.509E-01
   -.757E-02 0.458E+01 0.932E+03   -.835E-03 -.468E+01 -.932E+03   -.222E-02 0.132E+00 -.259E+00   0.108E-01 -.818E-01 -.145E+00
   -.560E+01 0.326E+01 0.928E+03   0.505E+01 -.292E+01 -.927E+03   0.527E+00 -.304E+00 -.945E+00   0.877E-02 -.259E-01 -.596E-01
   0.390E+01 -.233E+01 0.932E+03   -.405E+01 0.241E+01 -.932E+03   0.144E+00 -.917E-01 -.303E+00   -.406E-01 0.399E-01 -.160E+00
   -.392E+01 -.233E+01 0.932E+03   0.405E+01 0.241E+01 -.932E+03   -.148E+00 -.917E-01 -.303E+00   0.595E-01 0.388E-01 -.169E+00
   0.434E-02 0.105E+01 0.928E+03   0.972E-03 -.126E+01 -.927E+03   0.533E-04 0.128E+00 -.771E+00   -.536E-02 0.576E-01 -.884E-01
   -.113E-02 -.643E+01 0.928E+03   -.216E-03 0.576E+01 -.927E+03   -.101E-03 0.629E+00 -.967E+00   0.151E-02 0.269E-01 -.647E-01
   0.100E+01 -.524E+00 0.928E+03   -.116E+01 0.597E+00 -.927E+03   0.849E-01 -.504E-01 -.799E+00   0.389E-01 -.916E-02 -.985E-01
   -.100E+01 -.528E+00 0.928E+03   0.116E+01 0.596E+00 -.927E+03   -.850E-01 -.507E-01 -.799E+00   -.411E-01 -.424E-02 -.984E-01
   -.212E-01 -.416E+00 -.896E+03   0.707E-02 0.274E+00 0.896E+03   -.207E-02 0.134E+00 0.625E+00   0.164E-01 -.520E-02 -.413E-01
   0.268E+01 0.115E+01 -.864E+03   -.773E+00 -.631E-01 0.866E+03   -.166E+01 -.926E+00 -.167E+01   -.222E+00 -.138E+00 -.236E+00
   -.266E+01 0.115E+01 -.864E+03   0.766E+00 -.673E-01 0.866E+03   0.166E+01 -.926E+00 -.167E+01   0.197E+00 -.137E+00 -.241E+00
   -.265E+01 0.132E+01 -.886E+03   0.226E+01 -.110E+01 0.885E+03   0.460E+00 -.249E+00 0.432E+00   -.546E-01 0.168E-01 -.101E+00
   0.144E-01 -.330E+01 -.865E+03   -.661E-02 0.104E+01 0.867E+03   0.250E-02 0.199E+01 -.167E+01   -.105E-01 0.245E+00 -.256E+00
   0.264E+01 0.131E+01 -.886E+03   -.225E+01 -.109E+01 0.885E+03   -.460E+00 -.250E+00 0.432E+00   0.583E-01 0.273E-01 -.999E-01
   0.328E-01 0.608E+00 -.896E+03   0.701E-01 -.524E+00 0.896E+03   -.101E+00 -.977E-01 0.708E+00   0.113E-01 0.204E-01 -.635E-01
   -.513E-01 0.595E+00 -.896E+03   -.690E-01 -.517E+00 0.896E+03   0.961E-01 -.976E-01 0.707E+00   0.109E-01 0.263E-01 -.627E-01
   0.881E-02 -.249E+01 -.885E+03   -.109E-02 0.201E+01 0.885E+03   0.504E-03 0.552E+00 0.390E+00   -.823E-02 -.432E-01 -.125E+00
   -.150E-01 0.158E+01 -.265E+04   0.143E-01 -.166E+01 0.265E+04   0.102E-03 0.464E-01 0.179E+01   0.633E-03 0.307E-01 -.109E+00
   0.195E+02 0.350E+02 -.264E+04   -.183E+02 -.333E+02 0.264E+04   -.103E+01 -.161E+01 0.792E+00   -.136E+00 -.237E+00 -.128E+00
   -.194E+02 0.351E+02 -.264E+04   0.183E+02 -.333E+02 0.264E+04   0.103E+01 -.161E+01 0.793E+00   0.147E+00 -.234E+00 -.124E+00
   0.379E+02 -.281E+01 -.264E+04   -.357E+02 0.289E+01 0.264E+04   -.197E+01 -.963E-01 0.868E+00   -.291E+00 0.166E-01 -.104E+00
   -.380E+02 -.281E+01 -.264E+04   0.358E+02 0.289E+01 0.264E+04   0.197E+01 -.967E-01 0.865E+00   0.312E+00 0.235E-01 -.989E-01
   0.168E+02 -.303E+02 -.265E+04   -.160E+02 0.286E+02 0.265E+04   -.757E+00 0.158E+01 0.129E+01   -.141E+00 0.222E+00 -.112E+00
   -.168E+02 -.304E+02 -.265E+04   0.160E+02 0.287E+02 0.265E+04   0.753E+00 0.158E+01 0.129E+01   0.165E+00 0.226E+00 -.111E+00
   -.525E-03 0.806E+00 -.266E+04   0.162E-01 -.766E+00 0.265E+04   0.228E-02 -.603E-03 0.210E+01   -.181E-01 -.374E-01 -.233E-01
   0.609E-01 -.341E+01 -.151E+04   -.583E-01 0.333E+01 0.151E+04   0.150E-03 0.375E-01 0.190E+01   -.283E-02 0.157E-02 -.116E+00
   0.678E+02 0.443E+02 -.292E+03   -.746E+02 -.488E+02 0.294E+03   0.677E+01 0.448E+01 -.170E+01   -.192E-01 -.112E-01 0.278E-01
   -.681E+02 0.439E+02 -.292E+03   0.748E+02 -.483E+02 0.294E+03   -.679E+01 0.443E+01 -.168E+01   0.191E-01 -.113E-01 0.280E-01
   0.193E+00 -.561E+02 -.166E+04   -.304E+00 0.998E+02 0.165E+04   0.122E+00 -.437E+02 0.560E+01   -.513E-02 0.115E-01 0.259E+00
   -.143E+00 0.348E+02 0.100E+02   -.428E-13 0.711E-13 -.296E-11   0.876E-01 -.348E+02 -.814E+01   0.477E-01 0.292E-01 -.204E+01

 POSITION                                       TOTAL-FORCE (eV/Angst)
      0.00000      0.00000      5.28219         0.000172      0.003261     -0.046676
      2.93046      0.00000      5.28219        -0.004186      0.012940      0.014678
      5.86091      0.00000      5.28219         0.004538      0.012866      0.014722
      1.46523      2.53785      5.28219         0.010554     -0.010595      0.014641
      4.39568      2.53785      5.28219         0.000376     -0.003183     -0.019139
      7.32614      2.53785      5.28219        -0.010129     -0.010561      0.014631
      2.93046      5.07570      5.28219         0.006855     -0.001617      0.017977
      5.86091      5.07570      5.28219        -0.006520     -0.001655      0.017938
      8.79137      5.07570      5.28219        -0.000011      0.000735     -0.003287
      1.46523      0.84595      7.67490         0.013160      0.009620     -0.003381
      4.39568      0.84595      7.67490         0.000367     -0.048991     -0.077877
      7.32614      0.84595      7.67490        -0.012718      0.009662     -0.003314
      2.93046      3.38380      7.67490        -0.039016      0.024381     -0.074948
      5.86091      3.38380      7.67490         0.039846      0.024446     -0.074978
      8.79137      3.38380      7.67490         0.000195     -0.029888      0.010225
      4.39568      5.92165      7.67490         0.000246     -0.014183     -0.010479
      7.32614      5.92165      7.67490        -0.027286      0.013423      0.011149
     10.25659      5.92165      7.67490         0.027603      0.013368      0.011083
      8.79137      1.69725     10.06774         0.000410     -0.012832     -0.009473
      2.92950      1.69135     10.02116         0.030446      0.023766     -0.049026
      5.86187      1.69135     10.02116        -0.030568      0.023712     -0.049125
     10.25061      4.23320     10.05696         0.018253     -0.010374     -0.004244
      4.39568      4.23086     10.02116        -0.000053     -0.022167     -0.030179
      7.33212      4.23320     10.05696        -0.017820     -0.010319     -0.004389
     11.71719      6.76492     10.06774         0.013874      0.006218     -0.001484
      5.86555      6.76492     10.06774        -0.013085      0.006142     -0.001452
      8.79137      6.76069     10.05696         0.000189      0.022833     -0.013444
      0.00000      0.00000     12.43040         0.000225     -0.002917      0.057017
      2.96174      0.05879     12.46433        -0.055834     -0.094832     -0.042036
      5.82963      0.05879     12.46433         0.056697     -0.094944     -0.041969
      1.53179      2.53554     12.46433        -0.103184      0.000460     -0.040929
      7.25958      2.53554     12.46433         0.104312      0.000349     -0.041182
      2.96573      5.01921     12.46433        -0.079764      0.096860     -0.051540
      5.82563      5.01921     12.46433         0.080504      0.096855     -0.051640
      8.79137      5.07570     12.42552         0.000085      0.002633      0.034485
      4.39568      2.53785     12.19879         0.000147     -0.037303      0.575372
      3.61515      2.01803     14.68986        -0.008667     -0.004335     -0.007612
      5.18176      2.02276     14.68830        -0.007011      0.006760     -0.011373
      4.39630      2.57030     14.48093         0.006798     -0.000594     -0.028743
    total drift:                               -0.007281     -0.008006     -0.147898

  FREE ENERGIE OF THE ION-ELECTRON SYSTEM (eV)
  free  energy   TOTEN  =      -111.99545894 eV

  energy  without entropy=     -111.99545894  energy(sigma->0) =     -111.99545894

 stress matrix after NEB project (eV)
     -9.20916      0.00284     -0.00534
      0.00284     -9.42443     -0.04218
     -0.00534     -0.04218      0.70836
  FORCES: max atom, RMS     0.029542    0.005659
  FORCE total and by dimension    0.035338    0.028743
  Stress total and by dimension   13.195980    9.424427
|           W    W    AA    RRRRR   N    N  II  N    N   GGGG   !!!           |
|           W    W   A  A   R    R  NN   N  II  NN   N  G    G  !!!           |
|           W    W  A    A  R    R  N N  N  II  N N  N  G       !!!           |
|           W WW W  AAAAAA  RRRRR   N  N N  II  N  N N  G  GGG   !            |
|           WW  WW  A    A  R   R   N   NN  II  N   NN  G    G                |
|           W    W  A    A  R    R  N    N  II  N    N   GGGG   !!!           |
|     Tetrahedron method does not include variations of the Fermi             |
|     occupations, so forces and stress will be inaccurate. We suggest        |
|     using a different smearing scheme ISMEAR = 1 or 2 for metals in         |
|     relaxations.                                                            |

 total charge

# of ion       s       p       d       tot
    1        0.420   0.201   9.178   9.798
    2        0.417   0.203   9.177   9.797
    3        0.417   0.203   9.177   9.797
    4        0.418   0.203   9.177   9.798
    5        0.418   0.202   9.175   9.796
    6        0.418   0.203   9.177   9.798
    7        0.417   0.203   9.178   9.797
    8        0.417   0.203   9.178   9.797
    9        0.414   0.201   9.179   9.795
   10        0.410   0.268   9.161   9.840
   11        0.410   0.267   9.169   9.846
   12        0.410   0.268   9.161   9.840
   13        0.409   0.268   9.169   9.846
   14        0.409   0.268   9.169   9.845
   15        0.404   0.268   9.166   9.838
   16        0.410   0.269   9.161   9.840
   17        0.404   0.268   9.166   9.837
   18        0.404   0.268   9.166   9.837
   19        0.403   0.263   9.166   9.832
   20        0.437   0.311   9.133   9.881
   21        0.437   0.311   9.133   9.881
   22        0.393   0.271   9.169   9.834
   23        0.438   0.311   9.132   9.881
   24        0.393   0.271   9.169   9.834
   25        0.401   0.263   9.167   9.832
   26        0.401   0.263   9.167   9.831
   27        0.394   0.271   9.169   9.834
   28        0.409   0.200   9.176   9.785
   29        0.433   0.227   9.156   9.816
   30        0.433   0.227   9.156   9.816
   31        0.433   0.226   9.156   9.815
   32        0.433   0.226   9.156   9.815
   33        0.429   0.220   9.161   9.809
   34        0.429   0.220   9.161   9.809
   35        0.400   0.202   9.178   9.780
   36        0.499   0.314   4.705   5.518
   37        0.604   0.119   0.000   0.723
   38        0.603   0.118   0.000   0.722
   39        1.567   3.606   0.000   5.173
tot         17.797  12.670 325.493 355.960

 BZINTS: Fermi energy:    0.474168;  400.000000 electrons
         Band energy:-0.148512E+04;  BLOECHL correction:   -0.027214