 vasp.6.2.0 18Jan21 (build Jun 12 2021 23:27:24) complex

 executed on             LinuxIFC date 2022.05.28  02:15:21

 INCAR:
   ISMEAR = -5
   SIGMA = 0.1
   ISPIN = 1
   EDIFF = 1.d-5
   EDIFFG = -0.01
   NSW = 0
   NELM = 150
   ENCUT = 500
   ISIF = 2
   IBRION = 2
   LREAL = Auto
   ALGO = Fast
   ICHARG = 11
   LORBIT = 10
   LCHARG = .F.
   LWAVE = .F.

 POTCAR:    PAW_PBE Cu 22Jun2005
 POTCAR:    PAW_PBE V 08Apr2002
 POTCAR:    PAW_PBE C 08Apr2002
 POTCAR:    PAW_PBE O 08Apr2002
|           W    W    AA    RRRRR   N    N  II  N    N   GGGG   !!!           |
|           W    W   A  A   R    R  NN   N  II  NN   N  G    G  !!!           |
|           W    W  A    A  R    R  N N  N  II  N N  N  G       !!!           |
|           W WW W  AAAAAA  RRRRR   N  N N  II  N  N N  G  GGG   !            |
|           WW  WW  A    A  R   R   N   NN  II  N   NN  G    G                |
|           W    W  A    A  R    R  N    N  II  N    N   GGGG   !!!           |
|     For optimal performance we recommend to set                             |
|       NCORE = 2 up to number-of-cores-per-socket                            |
|     This setting can greatly improve the performance of VASP for DFT.       |
|     The default, NCORE=1 might be grossly inefficient on modern             |
|     multi-core architectures or massively parallel machines. Do your        |
|     Unfortunately you need to use the default for GW and RPA                |
|     calculations (for HF NCORE is supported but not extensively tested      |
|     yet).                                                                   |

 POTCAR:    PAW_PBE Cu 22Jun2005
   VRHFIN =Cu: d10 p1

   TITEL  = PAW_PBE Cu 22Jun2005
   POMASS =   63.546; ZVAL   =   11.000    mass and valenz
   ENMAX  =  295.446; ENMIN  =  221.585 eV

 POTCAR:    PAW_PBE V 08Apr2002
   VRHFIN =V: p6 d4 s1

   TITEL  = PAW_PBE V 08Apr2002
   POMASS =   50.941; ZVAL   =    5.000    mass and valenz
   ENMAX  =  192.543; ENMIN  =  144.408 eV

 POTCAR:    PAW_PBE C 08Apr2002
   VRHFIN =C: s2p2

[...]

 POTCAR:    PAW_PBE O 08Apr2002
   VRHFIN =O: s2p4

   TITEL  = PAW_PBE O 08Apr2002
   POMASS =   16.000; ZVAL   =    6.000    mass and valenz
   ENMAX  =  400.000; ENMIN  =  300.000 eV

 Optimization of the real space projectors (new method)

 maximal supplied QI-value         = 16.25
 optimisation between [QCUT,QGAM] = [ 11.38, 22.75] = [ 36.24,144.96] Ry
 Optimized for a Real-space Cutoff    1.52 Angstroem

   l    n(q)    QCUT    max X(q) W(low)/X(q) W(high)/X(q)  e(spline)
   2      9    11.376     4.610    0.21E-03    0.10E-03    0.26E-06
   2      9    11.376     8.522    0.33E-03    0.16E-03    0.37E-06
   0     10    11.376    51.609    0.62E-04    0.20E-04    0.13E-06
   0     10    11.376    27.747    0.54E-04    0.20E-04    0.13E-06
   1     10    11.376    20.408    0.13E-04    0.99E-04    0.19E-06
   1     10    11.376    13.425    0.12E-04    0.87E-04    0.17E-06
 Optimization of the real space projectors (new method)

[...]

   l    n(q)    QCUT    max X(q) W(low)/X(q) W(high)/X(q)  e(spline)
   0      7    11.310   115.676    0.43E-03    0.13E-02    0.19E-06
   0      7    11.310    87.132    0.43E-03    0.13E-02    0.18E-06
   1      6    11.310     4.429    0.42E-03    0.74E-03    0.11E-06
   1      6    11.310     2.733    0.34E-03    0.55E-03    0.92E-07
 Optimization of the real space projectors (new method)

 maximal supplied QI-value         = 24.76
 optimisation between [QCUT,QGAM] = [ 11.39, 22.77] = [ 36.31,145.25] Ry
 Optimized for a Real-space Cutoff    1.00 Angstroem

   l    n(q)    QCUT    max X(q) W(low)/X(q) W(high)/X(q)  e(spline)
   0      7    11.387    20.381    0.39E-03    0.13E-02    0.15E-06
   0      7    11.387    15.268    0.42E-03    0.14E-02    0.17E-06
   1      6    11.387     5.964    0.41E-03    0.11E-02    0.17E-06
   1      6    11.387     5.382    0.39E-03    0.87E-03    0.15E-06
  PAW_PBE Cu 22Jun2005                  :
  PAW_PBE V 08Apr2002                   :
  PAW_PBE C 08Apr2002                   :
  PAW_PBE O 08Apr2002                   :

 POSCAR: Cu-V-CO2
  positions in direct lattice
  velocities in cartesian coordinates
 exchange correlation table for  LEXCH =        8
   RHO(1)=    0.500       N(1)  =     2000
   RHO(2)=  100.500       N(2)  =     4000

 VTST: version 3.2, (02/03/18)

 CHAIN: initializing optimizer

 OPT: Using VASP Conjugate-Gradient optimizer
 CHAIN: Read ICHAIN            0

 POSCAR: Cu-V-CO2
  positions in direct lattice
  velocities in cartesian coordinates

 ion  position               nearest neighbor table
   1  0.000  0.000  0.229-   7 2.57   3 2.57   4 2.57   2 2.57   6 2.57   8 2.57  12 2.57  10 2.57
                            16 2.57
   2  0.333  0.000  0.229-   8 2.57   9 2.57   5 2.57   1 2.57   3 2.57  11 2.57   4 2.57  10 2.57
                            17 2.57
   3  0.667  0.000  0.229-   1 2.57   7 2.57   6 2.57   9 2.57   2 2.57  12 2.57   5 2.57  18 2.57
                            11 2.57
   4  0.000  0.333  0.229-   5 2.57   6 2.57   1 2.57   7 2.57   2 2.57  13 2.57   9 2.57  10 2.57
                            15 2.57
   5  0.333  0.333  0.229-   4 2.57   2 2.57   7 2.57  13 2.57   8 2.57   6 2.57   3 2.57  11 2.57
                            14 2.57
   6  0.667  0.333  0.229-   4 2.57   9 2.57  15 2.57   3 2.57   1 2.57   8 2.57  14 2.57   5 2.57
                            12 2.57
   7  0.000  0.667  0.229-   1 2.57   3 2.57  16 2.57  18 2.57   4 2.57   5 2.57   8 2.57   9 2.57
                            13 2.57
   8  0.333  0.667  0.229-   9 2.57   2 2.57  17 2.57   6 2.57   1 2.57   7 2.57   5 2.57  14 2.57
                            16 2.57
   9  0.667  0.667  0.229-   8 2.57   6 2.57   2 2.57  17 2.57   3 2.57   7 2.57   4 2.57  15 2.57
                            18 2.57
  10  0.111  0.111  0.318-  26 2.56  19 2.56  20 2.56  11 2.57  12 2.57  13 2.57   1 2.57   2 2.57
                             4 2.57  15 2.57  16 2.57  17 2.57
  11  0.444  0.111  0.318-  20 2.56  21 2.56  10 2.57  13 2.57   2 2.57  17 2.57  14 2.57  12 2.57
                             5 2.57   3 2.57  18 2.57  27 2.57
  12  0.778  0.111  0.318-  19 2.56  25 2.56  21 2.56  15 2.57  10 2.57  14 2.57  18 2.57   3 2.57
                             1 2.57  16 2.57  11 2.57   6 2.57
  13  0.111  0.444  0.318-  23 2.56  20 2.56  16 2.57  18 2.57  10 2.57  11 2.57  14 2.57   5 2.57
                             4 2.57   7 2.57  15 2.57  22 2.57
  14  0.444  0.444  0.318-  21 2.56  23 2.56  15 2.57  17 2.57  12 2.57  16 2.57  13 2.57  11 2.57
                             6 2.57   8 2.57   5 2.57  24 2.57
  15  0.778  0.444  0.318-  19 2.56  24 2.57  22 2.57  14 2.57  17 2.57  12 2.57   6 2.57  18 2.57
                            10 2.57   9 2.57  13 2.57   4 2.57
  16  0.111  0.778  0.318-  25 2.56  26 2.56  23 2.56  18 2.57  13 2.57   7 2.57  14 2.57  17 2.57
                            12 2.57  10 2.57   8 2.57   1 2.57
  17  0.444  0.778  0.318-  26 2.56  27 2.57  24 2.57  14 2.57  15 2.57   8 2.57   9 2.57  11 2.57
                            16 2.57  18 2.57  10 2.57   2 2.57
  18  0.778  0.778  0.318-  25 2.56  22 2.57  27 2.57  16 2.57  13 2.57   7 2.57  15 2.57  12 2.57
                            17 2.57   9 2.57   3 2.57  11 2.57
  19  0.889  0.222  0.407-  12 2.56  10 2.56  15 2.56  28 2.56  25 2.56  26 2.56  21 2.57  20 2.57
                            22 2.57  24 2.57  32 2.58  31 2.58
  20  0.222  0.222  0.407-  36 2.54  11 2.56  13 2.56  10 2.56  23 2.56  21 2.56  26 2.57  19 2.57
                            27 2.57  22 2.57  29 2.57  31 2.57
  21  0.555  0.222  0.407-  36 2.54  14 2.56  11 2.56  12 2.56  20 2.56  23 2.56  19 2.57  25 2.57
                            24 2.57  27 2.57  32 2.57  30 2.57
  22  0.888  0.556  0.408-  24 2.56  27 2.56  35 2.56  18 2.57  15 2.57  19 2.57  25 2.57  31 2.57
                            33 2.57  13 2.57  23 2.57  20 2.57
  23  0.222  0.555  0.407-  36 2.54  13 2.56  14 2.56  16 2.56  20 2.56  21 2.56  25 2.57  26 2.57
                            22 2.57  24 2.57  33 2.57  34 2.57
  24  0.556  0.556  0.408-  22 2.56  27 2.56  35 2.56  15 2.57  17 2.57  19 2.57  26 2.57  32 2.57
                            34 2.57  14 2.57  21 2.57  23 2.57
  25  0.889  0.889  0.407-  12 2.56  16 2.56  18 2.56  28 2.56  19 2.56  26 2.56  21 2.57  23 2.57
                            22 2.57  27 2.57  33 2.58  30 2.58
  26  0.222  0.889  0.407-  10 2.56  16 2.56  17 2.56  28 2.56  25 2.56  19 2.56  20 2.57  23 2.57
                            27 2.57  24 2.57  29 2.58  34 2.58
  27  0.556  0.888  0.408-  24 2.56  22 2.56  35 2.56  17 2.57  18 2.57  26 2.57  25 2.57  29 2.57
                            30 2.57  11 2.57  20 2.57  21 2.57
  28  0.000  0.000  0.496-  25 2.56  19 2.56  26 2.56  33 2.57  30 2.57  31 2.57  29 2.57  32 2.57
                            34 2.57
  29  0.333  0.000  0.497-  30 2.56  36 2.56  31 2.56  27 2.57  35 2.57  28 2.57  20 2.57  34 2.57
                            26 2.58
  30  0.666  0.000  0.497-  29 2.56  36 2.56  32 2.56  27 2.57  35 2.57  28 2.57  21 2.57  33 2.57
                            25 2.58
  31  0.000  0.333  0.497-  33 2.56  36 2.56  29 2.56  22 2.57  35 2.57  28 2.57  20 2.57  32 2.57
                            19 2.58
  32  0.666  0.333  0.497-  34 2.56  36 2.56  30 2.56  24 2.57  35 2.57  28 2.57  21 2.57  31 2.57
                            19 2.58
  33  0.000  0.666  0.497-  31 2.56  36 2.56  34 2.56  22 2.57  35 2.57  28 2.57  23 2.57  30 2.57
                            25 2.58
  34  0.333  0.666  0.497-  32 2.56  36 2.56  33 2.56  24 2.57  35 2.57  28 2.57  23 2.57  29 2.57
                            26 2.58
  35  0.667  0.667  0.497-  24 2.56  27 2.56  22 2.56  34 2.57  32 2.57  29 2.57  30 2.57  33 2.57
                            31 2.57
  36  0.333  0.333  0.495-  37 2.08  23 2.54  20 2.54  21 2.54  31 2.56  29 2.56  33 2.56  32 2.56
                            34 2.56  30 2.56
  37  0.334  0.333  0.584-  38 1.23  39 1.23  36 2.08
  38  0.182  0.331  0.600-  37 1.23
  39  0.487  0.331  0.600-  37 1.23

  LATTYP: Found a hexagonal cell.
 ALAT       =     7.6967864036
 C/A-ratio  =     3.0484540560

  Lattice vectors:

 A1 = (  -3.8483927580,  -6.6656128093,   0.0000000000)
 A2 = (   7.6967864037,   0.0000000000,   0.0000000000)
 A3 = (   0.0000000000,   0.0000000000,  23.4632997305)

Analysis of symmetry for initial positions (statically):
 Subroutine PRICEL returns:
 Original cell was already a primitive cell.

 Routine SETGRP: Setting up the symmetry group for a
 hexagonal supercell.

 Subroutine GETGRP returns: Found  2 space group operations
 (whereof  2 operations were pure point group operations)
 out of a pool of 24 trial point group operations.

The static configuration has the point symmetry C_1h.

Analysis of symmetry for dynamics (positions and initial velocities):
 Subroutine PRICEL returns:
 Original cell was already a primitive cell.

[...]

The dynamic configuration has the point symmetry C_1h.

Analysis of constrained symmetry for selective dynamics:
 Subroutine PRICEL returns:
 Original cell was already a primitive cell.

 Routine SETGRP: Setting up the symmetry group for a
[...]
     41      -4.4033      2.00000
     42      -4.3797      2.00000
     43      -4.2492      2.00000
     44      -4.2446      2.00000
     45      -4.1831      2.00000
     46      -4.1690      2.00000
     47      -4.1632      2.00000
     48      -4.1449      2.00000
     49      -4.1263      2.00000
     50      -4.1195      2.00000
     51      -4.1169      2.00000
     52      -4.0300      2.00000
     53      -3.9301      2.00000
     54      -3.9206      2.00000
     55      -3.9071      2.00000
     56      -3.8964      2.00000
     57      -3.8493      2.00000
     58      -3.8418      2.00000
     59      -3.8332      2.00000
     60      -3.8178      2.00000
[...]
    238       5.2249      0.00000
    239       5.3814      0.00000
    240       5.4035      0.00000
    241       5.5117      0.00000
    242       5.6618      0.00000
    243       5.7415      0.00000
    244       5.8807      0.00000
    245       5.9312      0.00000
    246       5.9823      0.00000
    247       6.3237      0.00000
    248       6.3950      0.00000
    249       6.4602      0.00000
    250       6.5115      0.00000
    251       6.7420      0.00000
    252       6.8260      0.00000

 soft charge-density along one line, spin component           1
         0         1         2         3         4         5         6         7         8         9
 total charge-density along one line

------------------------ aborting loop because EDIFF is reached ----------------------------------------

 total charge

# of ion       s       p       d       tot
    1        0.450   0.284   9.189   9.923
    2        0.448   0.286   9.186   9.920
    3        0.448   0.286   9.186   9.920
    4        0.449   0.285   9.188   9.922
    5        0.448   0.285   9.187   9.919
    6        0.449   0.285   9.188   9.922
    7        0.448   0.286   9.186   9.920
    8        0.448   0.286   9.186   9.920
    9        0.450   0.285   9.187   9.922
   10        0.443   0.372   9.178   9.992
   11        0.441   0.367   9.183   9.992
   12        0.443   0.372   9.178   9.992
   13        0.441   0.368   9.182   9.991
   14        0.441   0.368   9.182   9.991
   15        0.438   0.372   9.177   9.987
   16        0.443   0.371   9.179   9.992
   17        0.440   0.369   9.181   9.989
   18        0.440   0.369   9.181   9.989
   19        0.439   0.368   9.185   9.992
   20        0.458   0.391   9.162  10.011
   21        0.458   0.391   9.162  10.011
   22        0.432   0.375   9.178   9.986
   23        0.459   0.389   9.165  10.012
   24        0.432   0.375   9.178   9.986
   25        0.442   0.367   9.183   9.992
   26        0.442   0.367   9.183   9.992
   27        0.435   0.371   9.182   9.988
   28        0.450   0.286   9.183   9.919
   29        0.471   0.299   9.168   9.939
   30        0.471   0.299   9.168   9.939
   31        0.457   0.300   9.174   9.931
   32        0.457   0.300   9.174   9.931
   33        0.471   0.299   9.169   9.939
   34        0.471   0.299   9.169   9.939
   35        0.445   0.290   9.183   9.917
   36        0.522   0.550   3.456   4.528
   37        0.894   1.717   0.000   2.611
   38        1.602   3.471   0.000   5.073
   39        1.602   3.471   0.000   5.073
tot         20.319  20.870 324.725 365.914

  FORCE on cell =-STRESS in cart. coord.  units (eV):
  Direction    XX          YY          ZZ          XY          YZ          ZX
  Alpha Z   828.28674   828.28674   828.28674
  Ewald  213228.19249212549.60185************     0.00039    -0.64477     0.00016
  Hartree225934.26039225610.76636************     0.00004     0.42736     0.00005
  E(xc)   -2341.65990 -2343.58695 -2347.91869    -0.00027     0.02715    -0.00005
  Local  ************************451291.93037     0.02033     0.33597    -0.00071
  n-local  -806.53637  -800.50951  -816.46828     1.74343     0.21868     0.05460
  augment  3338.35742  3339.76196  3360.84869    -0.01862    -0.08180     0.00033
  Kinetic  3455.80251  3501.62899  3525.00053     0.89540    -0.28223    -0.24679
  Fock        0.00000     0.00000     0.00000     0.00000     0.00000     0.00000
  Total      -4.58969    -4.81370     0.35165     0.00000     0.00037    -0.00000
  in kB      -6.10880    -6.40695     0.46804     0.00000     0.00049    -0.00000

 VOLUME and BASIS-vectors are now :
  energy-cutoff  :      500.00
  volume of cell :     1203.76
      direct lattice vectors                 reciprocal lattice vectors
     7.696786404  0.000000000  0.000000000     0.129924354 -0.075011849  0.000000000
     3.848392758  6.665612809  0.000000000     0.000000000  0.150023716  0.000000000
     0.000000000  0.000000000 23.463299730     0.000000000  0.000000000  0.042619751

  length of vectors
     7.696786404  7.696786404 23.463299730     0.150023716  0.150023716  0.042619751

 FORCES acting on ions
    electron-ion (+dipol)            ewald-force                    non-local-force                 convergence-correction
   -.420E-04 0.112E+00 0.372E+04   0.580E-04 -.483E-01 -.372E+04   0.594E-08 -.892E-01 -.215E+01   -.278E-03 0.189E-01 -.102E+00
   -.548E+00 -.465E+00 0.372E+04   0.547E+00 0.431E+00 -.372E+04   -.287E-01 -.992E-02 -.191E+01   0.302E-01 0.338E-01 -.788E-01
   0.548E+00 -.465E+00 0.372E+04   -.547E+00 0.431E+00 -.372E+04   0.287E-01 -.992E-02 -.191E+01   -.294E-01 0.363E-01 -.780E-01
   -.849E+00 -.254E+00 0.372E+04   0.688E+00 0.237E+00 -.372E+04   0.935E-01 -.144E-01 -.216E+01   0.609E-01 0.327E-01 -.146E+00
   -.636E-04 -.110E+00 0.372E+04   0.116E-03 0.238E-02 -.372E+04   -.373E-08 0.560E-01 -.198E+01   0.121E-01 0.455E-01 -.165E+00
   0.850E+00 -.254E+00 0.372E+04   -.688E+00 0.236E+00 -.372E+04   -.935E-01 -.144E-01 -.216E+01   -.625E-01 0.339E-01 -.145E+00
   -.209E+00 0.754E+00 0.372E+04   0.141E+00 -.667E+00 -.372E+04   0.794E-01 0.181E-01 -.191E+01   -.168E-01 -.913E-01 -.128E+00
   0.209E+00 0.754E+00 0.372E+04   -.142E+00 -.667E+00 -.372E+04   -.794E-01 0.181E-01 -.191E+01   0.202E-01 -.927E-01 -.128E+00
   -.144E-03 -.555E-01 0.372E+04   0.263E-03 0.459E-01 -.372E+04   -.271E-08 0.407E-01 -.190E+01   -.132E-01 -.303E-01 -.159E-01
   -.432E+01 -.219E+01 0.130E+04   0.451E+01 0.223E+01 -.130E+04   -.316E+00 -.895E-01 -.969E+00   0.116E+00 0.543E-01 0.653E+00
   -.908E-04 -.418E+01 0.129E+04   0.189E-03 0.400E+01 -.129E+04   -.396E-08 0.595E-01 -.669E+00   0.115E-01 0.877E-01 0.719E+00
   0.432E+01 -.219E+01 0.130E+04   -.451E+01 0.223E+01 -.130E+04   0.316E+00 -.895E-01 -.969E+00   -.117E+00 0.553E-01 0.651E+00
   -.404E+01 0.203E+01 0.129E+04   0.380E+01 -.193E+01 -.129E+04   0.134E+00 -.460E-01 -.628E+00   0.768E-01 -.409E-01 0.684E+00
   0.404E+01 0.203E+01 0.129E+04   -.381E+01 -.193E+01 -.129E+04   -.134E+00 -.460E-01 -.628E+00   -.532E-01 -.421E-01 0.682E+00
   -.139E-03 -.137E+01 0.130E+04   0.297E-03 0.130E+01 -.130E+04   -.194E-08 0.291E-01 -.104E+01   -.311E-02 0.477E-01 0.605E+00
   -.874E-04 0.498E+01 0.130E+04   0.186E-03 -.511E+01 -.130E+04   -.148E-07 0.223E+00 -.643E+00   -.702E-03 -.924E-01 0.689E+00
   -.104E+01 0.444E+00 0.130E+04   0.903E+00 -.401E+00 -.130E+04   0.100E+00 -.241E-01 -.696E+00   0.352E-01 -.296E-01 0.675E+00
   0.104E+01 0.444E+00 0.130E+04   -.903E+00 -.401E+00 -.130E+04   -.100E+00 -.241E-01 -.696E+00   -.340E-01 -.274E-01 0.676E+00
   -.657E-04 -.439E+01 -.112E+04   0.711E-04 0.423E+01 0.111E+04   -.619E-08 0.930E-01 0.126E+01   0.103E-02 0.430E-01 0.106E+01
   -.466E+02 -.249E+02 -.117E+04   0.467E+02 0.250E+02 0.117E+04   -.620E+00 -.384E+00 -.472E+00   0.450E+00 0.236E+00 0.157E+01
   0.466E+02 -.249E+02 -.117E+04   -.467E+02 0.250E+02 0.117E+04   0.620E+00 -.384E+00 -.472E+00   -.471E+00 0.235E+00 0.157E+01
   -.204E+02 0.922E+01 -.113E+04   0.200E+02 -.887E+01 0.113E+04   0.233E+00 -.311E+00 0.817E+00   0.193E+00 -.679E-01 0.109E+01
   -.833E-04 0.508E+02 -.117E+04   0.150E-03 -.508E+02 0.117E+04   -.424E-07 0.637E+00 -.121E+00   -.125E-01 -.509E+00 0.155E+01
   0.204E+02 0.922E+01 -.113E+04   -.200E+02 -.887E+01 0.113E+04   -.233E+00 -.311E+00 0.817E+00   -.192E+00 -.669E-01 0.109E+01
   0.510E+01 0.401E+01 -.112E+04   -.501E+01 -.400E+01 0.112E+04   0.707E-02 0.626E-01 0.928E+00   -.107E+00 -.455E-01 0.107E+01
   -.510E+01 0.401E+01 -.112E+04   0.501E+01 -.400E+01 0.112E+04   -.707E-02 0.626E-01 0.928E+00   0.108E+00 -.446E-01 0.107E+01
   -.123E-03 -.230E+02 -.113E+04   0.240E-03 0.224E+02 0.113E+04   -.281E-07 0.422E+00 0.739E+00   -.986E-03 0.225E+00 0.109E+01
   -.341E-04 0.139E+02 -.350E+04   0.370E-04 -.137E+02 0.350E+04   0.158E-07 -.237E+00 0.201E+01   -.136E-02 0.161E-02 0.448E+00
   -.211E+02 -.204E+02 -.347E+04   0.217E+02 0.201E+02 0.347E+04   -.921E+00 -.473E+00 0.195E+01   0.339E+00 0.593E+00 0.430E+00
   0.211E+02 -.204E+02 -.347E+04   -.217E+02 0.201E+02 0.347E+04   0.921E+00 -.473E+00 0.195E+01   -.317E+00 0.595E+00 0.430E+00
   -.289E+02 0.247E+01 -.343E+04   0.278E+02 -.226E+01 0.343E+04   0.211E+00 -.252E+00 0.353E+01   0.721E+00 0.548E-01 0.532E+00
   0.289E+02 0.247E+01 -.343E+04   -.278E+02 -.226E+01 0.343E+04   -.211E+00 -.252E+00 0.353E+01   -.698E+00 0.560E-01 0.533E+00
   -.271E+02 0.183E+02 -.347E+04   0.272E+02 -.181E+02 0.347E+04   -.466E+00 0.620E+00 0.186E+01   0.356E+00 -.659E+00 0.556E+00
   0.271E+02 0.183E+02 -.347E+04   -.272E+02 -.181E+02 0.347E+04   0.466E+00 0.620E+00 0.186E+01   -.331E+00 -.659E+00 0.557E+00
   -.132E-03 -.135E+02 -.351E+04   0.255E-03 0.133E+02 0.351E+04   -.207E-07 0.312E+00 0.235E+01   -.143E-01 -.460E-02 0.533E+00
   -.435E-04 -.622E+00 -.146E+04   0.627E-04 0.559E+00 0.146E+04   -.550E-08 0.826E-01 0.223E+01   -.135E-03 0.297E-01 0.238E+00
   -.117E-04 -.414E+01 -.134E+04   0.773E-05 0.425E+01 0.134E+04   0.119E-07 -.179E+00 0.575E+01   -.941E-03 0.468E-01 -.436E+00
   0.213E+03 0.150E+01 -.217E+04   -.263E+03 -.196E+01 0.219E+04   0.499E+02 0.439E+00 -.183E+02   0.177E+00 0.349E-01 -.404E+00
   -.213E+03 0.150E+01 -.217E+04   0.263E+03 -.196E+01 0.219E+04   -.499E+02 0.439E+00 -.183E+02   -.172E+00 0.350E-01 -.404E+00
   0.129E-05 -.623E+00 0.107E+02   -.568E-13 -.464E-13 -.136E-11   -.347E-07 0.521E+00 -.300E+02   0.601E-01 0.128E+00 0.192E+02

 POSITION                                       TOTAL-FORCE (eV/Angst)
      0.00000      0.00000      5.37156         0.000000     -0.007077      0.042877
      2.56560      0.00000      5.37156        -0.000200     -0.010291      0.071134
      5.13119      0.00000      5.37156         0.000200     -0.010291      0.071134
      1.28280      2.22187      5.37156        -0.006493      0.000276      0.049988
      3.84839      2.22187      5.37156         0.000000     -0.006330      0.063564
      6.41399      2.22187      5.37156         0.006493      0.000276      0.049988
      2.56560      4.44374      5.37156        -0.006489      0.012641      0.076465
      5.13119      4.44374      5.37156         0.006489      0.012641      0.076465
      7.69679      4.44374      5.37156        -0.000000      0.000061      0.034456
      1.28280      0.74062      7.46636        -0.006025      0.002168     -0.080883
      3.84839      0.74062      7.46636         0.000000     -0.033392     -0.081950
      6.41399      0.74062      7.46636         0.006025      0.002168     -0.080883
      2.56560      2.96249      7.46636        -0.034509      0.016382     -0.077625
      5.13119      2.96249      7.46636         0.034509      0.016382     -0.077625
      7.69679      2.96249      7.46636        -0.000000      0.002372     -0.000812
      3.84839      5.18437      7.46636        -0.000000      0.002982     -0.063374
      6.41399      5.18437      7.46636        -0.000878     -0.010133      0.016373
      8.97958      5.18437      7.46636         0.000878     -0.010133      0.016373
      7.69679      1.48017      9.54910         0.000000     -0.025949      0.079218
      2.56637      1.48170      9.55121        -0.100743     -0.070973     -0.127910
      5.13041      1.48170      9.55121         0.100743     -0.070973     -0.127910
      8.97729      3.70444      9.56154         0.053061     -0.027376      0.043599
      3.84839      3.70222      9.55121        -0.000000      0.101770     -0.106672
      6.41628      3.70444      9.56154        -0.053061     -0.027376      0.043599
     10.26332      5.92553      9.54910        -0.004416      0.023038      0.003257
      5.13026      5.92553      9.54910         0.004416      0.023038      0.003257
      7.69679      5.92234      9.56154        -0.000000      0.044112     -0.010520
      0.00000      0.00000     11.64072         0.000000     -0.052963     -0.037468
      2.56831      0.00307     11.65724        -0.001822     -0.198033     -0.158054
      5.12847      0.00307     11.65724         0.001822     -0.198033     -0.158054
      1.28681      2.22269     11.65724        -0.177965      0.005437     -0.071644
      6.40997      2.22269     11.65724         0.177965      0.005437     -0.071644
      2.56689      4.43985     11.65724        -0.006007      0.192759     -0.175454
      5.12989      4.43985     11.65724         0.006007      0.192759     -0.175454
      7.69679      4.44374     11.65596        -0.000000      0.055945     -0.026511
      3.84839      2.22187     11.62023        -0.000000      0.048449      0.957257
      3.84839      2.21948     13.70472         0.000000     -0.019913      0.003894
      2.67168      2.20777     14.07792         0.008728      0.009071      0.003776
      5.02510      2.20777     14.07792        -0.008728      0.009071      0.003776
    total drift:                                0.060052      0.026741     -0.133571

  FREE ENERGIE OF THE ION-ELECTRON SYSTEM (eV)
  free  energy   TOTEN  =      -151.90028544 eV

  energy  without entropy=     -151.90028544  energy(sigma->0) =     -151.90028544

 stress matrix after NEB project (eV)
     -4.58969      0.00000     -0.00000
      0.00000     -4.81370      0.00037
     -0.00000      0.00037      0.35165
  FORCES: max atom, RMS     0.020290    0.004406
  FORCE total and by dimension    0.027516    0.019913
  Stress total and by dimension    6.660379    4.813700
|           W    W    AA    RRRRR   N    N  II  N    N   GGGG   !!!           |
|           W    W   A  A   R    R  NN   N  II  NN   N  G    G  !!!           |
|           W    W  A    A  R    R  N N  N  II  N N  N  G       !!!           |
|           W WW W  AAAAAA  RRRRR   N  N N  II  N  N N  G  GGG   !            |
|           WW  WW  A    A  R   R   N   NN  II  N   NN  G    G                |
|           W    W  A    A  R    R  N    N  II  N    N   GGGG   !!!           |
|     Tetrahedron method does not include variations of the Fermi             |
|     occupations, so forces and stress will be inaccurate. We suggest        |
|     using a different smearing scheme ISMEAR = 1 or 2 for metals in         |
|     relaxations.                                                            |

 total charge

# of ion       s       p       d       tot
    1        0.450   0.284   9.189   9.923
    2        0.448   0.286   9.186   9.920
    3        0.448   0.286   9.186   9.920
    4        0.449   0.285   9.188   9.922
    5        0.448   0.285   9.187   9.919
    6        0.449   0.285   9.188   9.922
    7        0.448   0.286   9.186   9.920
    8        0.448   0.286   9.186   9.920
    9        0.450   0.285   9.187   9.922
   10        0.443   0.372   9.178   9.992
   11        0.441   0.367   9.183   9.992
   12        0.443   0.372   9.178   9.992
   13        0.441   0.368   9.182   9.991
   14        0.441   0.368   9.182   9.991
   15        0.438   0.372   9.177   9.987
   16        0.443   0.371   9.179   9.992
   17        0.440   0.369   9.181   9.989
   18        0.440   0.369   9.181   9.989
   19        0.439   0.368   9.185   9.992
   20        0.458   0.391   9.162  10.011
   21        0.458   0.391   9.162  10.011
   22        0.432   0.375   9.178   9.986
   23        0.459   0.389   9.165  10.012
   24        0.432   0.375   9.178   9.986
   25        0.442   0.367   9.183   9.992
   26        0.442   0.367   9.183   9.992
   27        0.435   0.371   9.182   9.988
   28        0.450   0.286   9.183   9.919
   29        0.471   0.299   9.168   9.939
   30        0.471   0.299   9.168   9.939
   31        0.457   0.300   9.174   9.931
   32        0.457   0.300   9.174   9.931
   33        0.471   0.299   9.169   9.939
   34        0.471   0.299   9.169   9.939
   35        0.445   0.290   9.183   9.917
   36        0.522   0.550   3.456   4.528
   37        0.894   1.717   0.000   2.611
   38        1.602   3.471   0.000   5.073
   39        1.602   3.471   0.000   5.073
tot         20.319  20.870 324.725 365.914

 BZINTS: Fermi energy:   -0.423564;  406.000000 electrons
         Band energy:-0.144218E+04;  BLOECHL correction:   -0.027767