 vasp.6.2.0 18Jan21 (build Jun 12 2021 23:27:24) complex

 executed on             LinuxIFC date 2022.05.28  01:41:49

 INCAR:
   ISMEAR = -5
   SIGMA = 0.1
   ISPIN = 1
   EDIFF = 1.d-5
   EDIFFG = -0.01
   NSW = 0
   NELM = 150
   ENCUT = 500
   ISIF = 2
   IBRION = 2
   LREAL = Auto
   ALGO = Fast
   ICHARG = 11
   LORBIT = 10
   LCHARG = .F.
   LWAVE = .F.

 POTCAR:    PAW_PBE Ag 02Apr2005
 POTCAR:    PAW_PBE Mo 08Apr2002
 POTCAR:    PAW_PBE O 08Apr2002
 POTCAR:    PAW_PBE H 15Jun2001
|           W    W    AA    RRRRR   N    N  II  N    N   GGGG   !!!           |
|           W    W   A  A   R    R  NN   N  II  NN   N  G    G  !!!           |
|           W    W  A    A  R    R  N N  N  II  N N  N  G       !!!           |
|           W WW W  AAAAAA  RRRRR   N  N N  II  N  N N  G  GGG   !            |
|           WW  WW  A    A  R   R   N   NN  II  N   NN  G    G                |
|           W    W  A    A  R    R  N    N  II  N    N   GGGG   !!!           |
|     For optimal performance we recommend to set                             |
|       NCORE = 2 up to number-of-cores-per-socket                            |
|     This setting can greatly improve the performance of VASP for DFT.       |
|     The default, NCORE=1 might be grossly inefficient on modern             |
|     multi-core architectures or massively parallel machines. Do your        |
|     Unfortunately you need to use the default for GW and RPA                |
|     calculations (for HF NCORE is supported but not extensively tested      |
|     yet).                                                                   |

 POTCAR:    PAW_PBE Ag 02Apr2005
   VRHFIN =Ag : s1 d10

   TITEL  = PAW_PBE Ag 02Apr2005
   POMASS =  107.868; ZVAL   =   11.000    mass and valenz
   ENMAX  =  249.844; ENMIN  =  187.383 eV

 POTCAR:    PAW_PBE Mo 08Apr2002
   VRHFIN =Mo: 4p5s4d

[...]

 POTCAR:    PAW_PBE O 08Apr2002
   VRHFIN =O: s2p4

   TITEL  = PAW_PBE O 08Apr2002
   POMASS =   16.000; ZVAL   =    6.000    mass and valenz
   ENMAX  =  400.000; ENMIN  =  300.000 eV

 POTCAR:    PAW_PBE H 15Jun2001
   VRHFIN =H: ultrasoft test

   TITEL  = PAW_PBE H 15Jun2001
   POMASS =    1.000; ZVAL   =    1.000    mass and valenz
   ENMAX  =  250.000; ENMIN  =  200.000 eV

 Optimization of the real space projectors (new method)

 maximal supplied QI-value         = 15.12
 optimisation between [QCUT,QGAM] = [ 11.34, 22.83] = [ 36.00,145.93] Ry
 Optimized for a Real-space Cutoff    1.43 Angstroem

   l    n(q)    QCUT    max X(q) W(low)/X(q) W(high)/X(q)  e(spline)
   2      9    11.338    53.897    0.16E-03    0.20E-03    0.28E-06
   2      9    11.338    52.416    0.16E-03    0.20E-03    0.29E-06
   0     10    11.338   122.045    0.31E-04    0.76E-04    0.15E-06
   0     10    11.338    73.629    0.30E-04    0.72E-04    0.15E-06
   1      9    11.338    15.255    0.20E-03    0.19E-04    0.17E-06
   1      9    11.338     9.562    0.16E-03    0.15E-04    0.14E-06
 Optimization of the real space projectors (new method)

[...]

   l    n(q)    QCUT    max X(q) W(low)/X(q) W(high)/X(q)  e(spline)
   0      7    11.387    20.381    0.39E-03    0.13E-02    0.15E-06
   0      7    11.387    15.268    0.42E-03    0.14E-02    0.17E-06
   1      6    11.387     5.964    0.41E-03    0.11E-02    0.17E-06
   1      6    11.387     5.382    0.39E-03    0.87E-03    0.15E-06
 Optimization of the real space projectors (new method)

 maximal supplied QI-value         = 34.20
 optimisation between [QCUT,QGAM] = [ 11.29, 22.57] = [ 35.68,142.71] Ry
 Optimized for a Real-space Cutoff    1.16 Angstroem

   l    n(q)    QCUT    max X(q) W(low)/X(q) W(high)/X(q)  e(spline)
   0      8    11.287    19.460    0.40E-03    0.73E-03    0.16E-06
   0      8    11.287    12.209    0.38E-03    0.70E-03    0.15E-06
   1      7    11.287     4.655    0.22E-03    0.25E-04    0.22E-06
  PAW_PBE Ag 02Apr2005                  :
  PAW_PBE Mo 08Apr2002                  :
  PAW_PBE O 08Apr2002                   :
  PAW_PBE H 15Jun2001                   :

 POSCAR: Ag-Mo-OOH
  positions in direct lattice
  velocities in cartesian coordinates
 exchange correlation table for  LEXCH =        8
   RHO(1)=    0.500       N(1)  =     2000
   RHO(2)=  100.500       N(2)  =     4000

 VTST: version 3.2, (02/03/18)

 CHAIN: initializing optimizer

 OPT: Using VASP Conjugate-Gradient optimizer
 CHAIN: Read ICHAIN            0

 POSCAR: Ag-Mo-OOH
  positions in direct lattice
  velocities in cartesian coordinates

 ion  position               nearest neighbor table
   1  0.000  0.000  0.204-   2 2.93   8 2.93   7 2.93   6 2.93   4 2.93  12 2.93  16 2.93  10 2.93
                             3 2.93
   2  0.333  0.000  0.204-   1 2.93   8 2.93   9 2.93   3 2.93   4 2.93   5 2.93  10 2.93  17 2.93
                            11 2.93
   3  0.667  0.000  0.204-   9 2.93   2 2.93   5 2.93  11 2.93   7 2.93  18 2.93   1 2.93   6 2.93
                            12 2.93
   4  0.000  0.333  0.204-   5 2.93   6 2.93   2 2.93   1 2.93   7 2.93  13 2.93  15 2.93   9 2.93
                            10 2.93
   5  0.333  0.333  0.204-   4 2.93   3 2.93   7 2.93   2 2.93   8 2.93  14 2.93  13 2.93  11 2.93
                             6 2.93
   6  0.667  0.333  0.204-   4 2.93   9 2.93   1 2.93  15 2.93   8 2.93  12 2.93   3 2.93   5 2.93
                            14 2.93
   7  0.000  0.667  0.204-   8 2.93   1 2.93   5 2.93   3 2.93   4 2.93  16 2.93  18 2.93  13 2.93
                             9 2.93
   8  0.333  0.667  0.204-   7 2.93   1 2.93   2 2.93   9 2.93   5 2.93  16 2.93   6 2.93  17 2.93
                            14 2.93
   9  0.667  0.667  0.204-   3 2.93   2 2.93   8 2.93   6 2.93  17 2.93   4 2.93  15 2.93   7 2.93
                            18 2.93
  10  0.111  0.111  0.296-  20 2.90  19 2.93  26 2.93  12 2.93  16 2.93  15 2.93  17 2.93  13 2.93
                            11 2.93   2 2.93   1 2.93   4 2.93
  11  0.444  0.111  0.296-  21 2.90  20 2.90  27 2.93  14 2.93  17 2.93  18 2.93   3 2.93  12 2.93
                            13 2.93  10 2.93   5 2.93   2 2.93
  12  0.778  0.111  0.296-  21 2.90  25 2.93  19 2.93  10 2.93  16 2.93  18 2.93  15 2.93  11 2.93
                             1 2.93  14 2.93   6 2.93   3 2.93
  13  0.111  0.444  0.296-  20 2.90  23 2.90  22 2.93  15 2.93  14 2.93  18 2.93  10 2.93  11 2.93
                            16 2.93   4 2.93   5 2.93   7 2.93
  14  0.444  0.444  0.296-  23 2.90  21 2.90  24 2.93  13 2.93  11 2.93  16 2.93   5 2.93  12 2.93
                            17 2.93   8 2.93  15 2.93   6 2.93
  15  0.778  0.444  0.296-  24 2.92  22 2.92  19 2.92  13 2.93  10 2.93  12 2.93  17 2.93  18 2.93
                             4 2.93   6 2.93   9 2.93  14 2.93
  16  0.111  0.778  0.296-  23 2.90  26 2.93  25 2.93  18 2.93  12 2.93  10 2.93  14 2.93  17 2.93
                            13 2.93   7 2.93   8 2.93   1 2.93
  17  0.444  0.778  0.296-  27 2.92  24 2.92  26 2.92  11 2.93  10 2.93   9 2.93  18 2.93  15 2.93
                            16 2.93   2 2.93  14 2.93   8 2.93
  18  0.778  0.778  0.296-  22 2.92  27 2.92  25 2.92  16 2.93  12 2.93  13 2.93  11 2.93  17 2.93
                            15 2.93   7 2.93   3 2.93   9 2.93
  19  0.889  0.222  0.388-  28 2.92  15 2.92  10 2.93  12 2.93  24 2.93  22 2.93  26 2.93  25 2.93
                            20 2.93  21 2.93  32 2.96  31 2.96
  20  0.222  0.222  0.387-  36 2.79  13 2.90  11 2.90  10 2.90  21 2.93  23 2.93  19 2.93  26 2.93
                            27 2.93  22 2.93  31 2.94  29 2.94
  21  0.555  0.222  0.387-  36 2.79  11 2.90  14 2.90  12 2.90  20 2.93  23 2.93  25 2.93  19 2.93
                            27 2.93  24 2.93  30 2.94  32 2.94
  22  0.888  0.556  0.388-  35 2.91  24 2.92  27 2.92  18 2.92  15 2.92  13 2.93  25 2.93  19 2.93
                            23 2.93  20 2.93  33 2.94  31 2.94
  23  0.222  0.555  0.387-  36 2.79  14 2.90  13 2.90  16 2.90  21 2.93  20 2.93  26 2.93  25 2.93
                            22 2.93  24 2.93  34 2.94  33 2.94
  24  0.556  0.556  0.388-  35 2.91  27 2.92  22 2.92  15 2.92  17 2.92  14 2.93  19 2.93  26 2.93
                            23 2.93  21 2.93  32 2.94  34 2.94
  25  0.889  0.889  0.388-  28 2.92  18 2.92  16 2.93  12 2.93  22 2.93  27 2.93  26 2.93  19 2.93
                            23 2.93  21 2.93  33 2.96  30 2.96
  26  0.222  0.889  0.388-  28 2.92  17 2.92  16 2.93  10 2.93  27 2.93  24 2.93  25 2.93  19 2.93
                            23 2.93  20 2.93  34 2.96  29 2.96
  27  0.556  0.888  0.388-  35 2.91  24 2.92  22 2.92  17 2.92  18 2.92  11 2.93  26 2.93  25 2.93
                            20 2.93  21 2.93  29 2.94  30 2.94
  28  0.000  0.000  0.480-  26 2.92  25 2.92  19 2.92  29 2.95  34 2.95  33 2.95  32 2.95  31 2.95
                            30 2.95
  29  0.333  0.005  0.481-  31 2.88  30 2.89  36 2.89  27 2.94  20 2.94  28 2.95  35 2.96  26 2.96
                            34 3.02
  30  0.662  0.005  0.481-  32 2.88  29 2.89  36 2.89  27 2.94  21 2.94  28 2.95  35 2.96  25 2.96
                            33 3.02
  31  0.005  0.333  0.481-  38 2.32  29 2.88  33 2.89  36 2.89  22 2.94  20 2.94  28 2.95  35 2.96
                            19 2.96  32 3.02
  32  0.662  0.333  0.481-  30 2.88  34 2.89  36 2.89  24 2.94  21 2.94  28 2.95  35 2.96  19 2.96
                            31 3.02
  33  0.005  0.662  0.481-  38 2.32  34 2.88  31 2.89  36 2.89  22 2.94  23 2.94  28 2.95  35 2.96
                            25 2.96  30 3.02
  34  0.333  0.662  0.481-  33 2.88  32 2.89  36 2.89  24 2.94  23 2.94  28 2.95  35 2.96  26 2.96
                            29 3.02
  35  0.667  0.667  0.480-  38 2.25  24 2.91  27 2.91  22 2.91  30 2.96  32 2.96  29 2.96  34 2.96
                            31 2.96  33 2.96
  36  0.333  0.333  0.473-  37 1.71  21 2.79  20 2.79  23 2.79  31 2.89  30 2.89  33 2.89  29 2.89
                            34 2.89  32 2.89
  37  0.313  0.343  0.539-  36 1.71
  38  0.879  0.561  0.540-  39 0.97  35 2.25  33 2.32  31 2.32
  39  0.879  0.562  0.578-  38 0.97

  LATTYP: Found a hexagonal cell.
 ALAT       =     8.7913665772
 C/A-ratio  =     2.9469639759

  Lattice vectors:

 A1 = (  -4.3956832886,  -7.6135467898,   0.0000000000)
 A2 = (   8.7913665771,   0.0000000000,   0.0000000000)
 A3 = (   0.0000000000,   0.0000000000,  25.9078406020)

Analysis of symmetry for initial positions (statically):
 Subroutine PRICEL returns:
 Original cell was already a primitive cell.

 Routine SETGRP: Setting up the symmetry group for a
 hexagonal supercell.

 Subroutine GETGRP returns: Found  1 space group operations
 (whereof  1 operations were pure point group operations)
 out of a pool of 24 trial point group operations.

The static configuration has the point symmetry C_1 .

Analysis of symmetry for dynamics (positions and initial velocities):
 Subroutine PRICEL returns:
 Original cell was already a primitive cell.

[...]

The dynamic configuration has the point symmetry C_1 .

Analysis of constrained symmetry for selective dynamics:
 Subroutine PRICEL returns:
 Original cell was already a primitive cell.

 Routine SETGRP: Setting up the symmetry group for a
 hexagonal supercell.

[...]
     41      -5.0973      2.00000
     42      -5.0875      2.00000
     43      -5.0426      2.00000
     44      -5.0368      2.00000
     45      -5.0064      2.00000
     46      -4.9765      2.00000
     47      -4.9378      2.00000
     48      -4.9129      2.00000
     49      -4.8940      2.00000
     50      -4.8854      2.00000
     51      -4.8774      2.00000
     52      -4.8712      2.00000
     53      -4.8651      2.00000
     54      -4.8546      2.00000
     55      -4.8410      2.00000
     56      -4.8156      2.00000
     57      -4.7990      2.00000
     58      -4.7783      2.00000
     59      -4.7605      2.00000
     60      -4.7476      2.00000
[...]
    238       5.2937      0.00000
    239       5.3537      0.00000
    240       5.5160      0.00000
    241       5.5895      0.00000
    242       5.7011      0.00000
    243       5.8773      0.00000
    244       5.9618      0.00000
    245       5.9929      0.00000
    246       6.0464      0.00000
    247       6.2122      0.00000
    248       6.2571      0.00000
    249       6.3208      0.00000
    250       6.5111      0.00000
    251       6.5787      0.00000
    252       6.6484      0.00000

 soft charge-density along one line, spin component           1
         0         1         2         3         4         5         6         7         8         9
 total charge-density along one line

------------------------ aborting loop because EDIFF is reached ----------------------------------------

 total charge

# of ion       s       p       d       tot
    1        0.419   0.200   9.178   9.797
    2        0.416   0.203   9.177   9.796
    3        0.415   0.204   9.176   9.795
    4        0.417   0.203   9.177   9.798
    5        0.419   0.202   9.176   9.796
    6        0.415   0.204   9.176   9.795
    7        0.417   0.203   9.177   9.798
    8        0.416   0.203   9.177   9.796
    9        0.415   0.205   9.176   9.796
   10        0.407   0.269   9.164   9.840
   11        0.401   0.273   9.164   9.838
   12        0.407   0.268   9.164   9.839
   13        0.406   0.271   9.167   9.843
   14        0.401   0.273   9.164   9.838
   15        0.405   0.268   9.166   9.839
   16        0.407   0.269   9.164   9.840
   17        0.403   0.269   9.165   9.836
   18        0.405   0.268   9.166   9.839
   19        0.404   0.265   9.166   9.835
   20        0.436   0.304   9.137   9.877
   21        0.440   0.297   9.142   9.879
   22        0.395   0.277   9.163   9.835
   23        0.436   0.304   9.137   9.877
   24        0.392   0.279   9.159   9.831
   25        0.404   0.265   9.166   9.835
   26        0.400   0.259   9.174   9.833
   27        0.392   0.279   9.159   9.831
   28        0.422   0.193   9.179   9.794
   29        0.421   0.213   9.174   9.808
   30        0.420   0.212   9.178   9.809
   31        0.382   0.240   9.182   9.804
   32        0.420   0.212   9.177   9.809
   33        0.382   0.241   9.181   9.805
   34        0.421   0.214   9.174   9.808
   35        0.375   0.239   9.183   9.797
   36        0.490   0.499   4.428   5.417
   37        1.608   3.289   0.000   4.898
   38        1.557   3.489   0.000   5.047
   39        0.616   0.119   0.000   0.735
tot         18.603  15.946 325.333 359.882

  FORCE on cell =-STRESS in cart. coord.  units (eV):
  Direction    XX          YY          ZZ          XY          YZ          ZX
  Alpha Z   668.52760   668.52760   668.52760
  Ewald  177239.84958177187.80709************   -45.71449    -6.40293    11.96423
  Hartree187236.26740187195.32142************   -36.43896   -11.03001    20.24435
  E(xc)   -2120.17485 -2120.25155 -2124.70410    -0.06398     0.01062    -0.01246
  Local  ************************375533.39490    81.08109    18.42432   -33.83026
  n-local  -387.81889  -387.19166  -383.96697     0.55252     0.44834    -0.92807
  augment  3243.16046  3243.24257  3249.00447     0.07074    -0.14395     0.28845
  Kinetic  5129.38689  5129.97600  5103.20956     0.46708    -1.38016     2.42666
  Fock        0.00000     0.00000     0.00000     0.00000     0.00000     0.00000
  Total      -3.92618    -3.99274    -0.30657    -0.04600    -0.07377     0.15288
  in kB      -3.62749    -3.68899    -0.28325    -0.04250    -0.06816     0.14125

 VOLUME and BASIS-vectors are now :
  energy-cutoff  :      500.00
  volume of cell :     1734.10
      direct lattice vectors                 reciprocal lattice vectors
     8.791366577  0.000000000  0.000000000     0.113747958 -0.065672414  0.000000000
     4.395683289  7.613546790  0.000000000     0.000000000  0.131344829  0.000000000
     0.000000000  0.000000000 25.907840602     0.000000000  0.000000000  0.038598354

  length of vectors
     8.791366577  8.791366577 25.907840602     0.131344829  0.131344829  0.038598354

 FORCES acting on ions
    electron-ion (+dipol)            ewald-force                    non-local-force                 convergence-correction
   -.313E-01 0.206E-01 0.281E+04   0.277E-01 -.164E-01 -.281E+04   -.103E-01 0.518E-02 -.191E+01   0.146E-01 -.977E-02 -.220E+00
   0.203E+00 0.187E+00 0.281E+04   -.135E+00 -.301E+00 -.281E+04   -.150E-01 0.748E-01 -.171E+01   -.419E-01 0.404E-01 -.155E+00
   -.173E+00 -.175E+00 0.281E+04   0.107E+00 -.745E-01 -.281E+04   0.256E-01 0.105E+00 -.171E+01   0.280E-01 0.149E+00 -.180E+00
   0.203E+00 0.442E+00 0.281E+04   -.300E+00 -.194E+00 -.281E+04   0.475E-01 -.740E-01 -.158E+01   0.516E-01 -.159E+00 -.258E+00
   -.212E+00 0.108E+00 0.281E+04   0.182E+00 -.103E+00 -.281E+04   -.229E-01 0.774E-02 -.172E+01   0.550E-01 -.133E-01 -.111E+00
   0.657E-01 0.224E+00 0.281E+04   0.118E+00 -.541E-01 -.281E+04   -.776E-01 -.733E-01 -.172E+01   -.115E+00 -.880E-01 -.179E+00
   -.293E+00 -.392E+00 0.281E+04   0.197E-01 0.356E+00 -.281E+04   0.882E-01 -.445E-02 -.158E+01   0.173E+00 0.305E-01 -.256E+00
   -.606E-01 -.259E+00 0.281E+04   0.193E+00 0.266E+00 -.281E+04   -.720E-01 -.236E-01 -.171E+01   -.561E-01 0.589E-02 -.151E+00
   0.368E+00 -.196E+00 0.281E+04   -.212E+00 0.121E+00 -.281E+04   -.220E-01 0.159E-01 -.165E+01   -.128E+00 0.550E-01 -.221E+00
   0.244E+01 0.303E+01 0.983E+03   -.218E+01 -.261E+01 -.982E+03   -.314E+00 -.281E+00 -.702E+00   0.245E-01 -.136E+00 -.134E+00
   -.527E+00 0.237E+01 0.983E+03   0.351E+00 -.272E+01 -.983E+03   0.669E-01 0.230E+00 -.524E+00   0.802E-01 0.537E-01 -.249E+00
   -.181E+01 0.104E+01 0.982E+03   0.183E+01 -.105E+01 -.981E+03   0.145E+00 -.835E-01 -.530E+00   -.114E+00 0.679E-01 -.108E+00
   0.455E+00 -.285E+00 0.986E+03   -.929E+00 0.544E+00 -.986E+03   0.217E+00 -.128E+00 -.607E+00   0.206E+00 -.102E+00 -.229E+00
   -.233E+01 -.755E+00 0.983E+03   0.254E+01 0.107E+01 -.982E+03   -.164E+00 -.176E+00 -.524E+00   0.222E-02 -.754E-01 -.257E+00
   0.187E+01 0.846E+00 0.984E+03   -.161E+01 -.854E+00 -.983E+03   -.572E-01 0.323E-01 -.670E+00   -.194E+00 -.511E-01 -.121E+00
   -.141E+01 -.361E+01 0.983E+03   0.118E+01 0.318E+01 -.982E+03   0.868E-01 0.407E+00 -.697E+00   0.131E+00 0.381E-01 -.138E+00
   0.116E+01 -.648E+00 0.981E+03   -.112E+01 0.635E+00 -.981E+03   0.114E-01 -.713E-02 -.673E+00   -.701E-01 0.308E-01 -.113E+00
   0.186E+00 -.202E+01 0.984E+03   -.579E-01 0.181E+01 -.983E+03   -.570E-01 0.319E-01 -.669E+00   -.453E-01 0.187E+00 -.117E+00
   0.623E+01 0.686E+01 -.863E+03   -.608E+01 -.648E+01 0.862E+03   -.465E-01 -.151E+00 0.635E+00   -.614E-01 -.178E+00 -.137E+00
   -.146E+02 0.469E+01 -.854E+03   0.155E+02 -.387E+01 0.855E+03   -.107E+01 -.611E+00 -.692E+00   -.790E-01 -.262E+00 -.412E+00
   0.882E+01 -.518E+01 -.865E+03   -.962E+01 0.565E+01 0.866E+03   0.911E+00 -.525E+00 -.315E+00   0.108E+00 -.700E-01 -.452E+00
   -.534E+01 0.310E+01 -.832E+03   0.505E+01 -.293E+01 0.832E+03   0.436E+00 -.252E+00 0.257E-01   -.104E+00 0.594E-01 -.112E+00
   -.115E+02 0.103E+02 -.855E+03   0.112E+02 -.115E+02 0.856E+03   -.137E-02 0.122E+01 -.685E+00   0.181E+00 0.185E+00 -.415E+00
   0.171E+02 0.360E+01 -.859E+03   -.165E+02 -.350E+01 0.859E+03   -.475E+00 -.162E+00 0.398E+00   -.725E-01 0.758E-01 -.183E+00
   -.289E+01 -.880E+01 -.862E+03   0.264E+01 0.848E+01 0.862E+03   0.108E+00 0.115E+00 0.632E+00   0.124E+00 0.144E+00 -.139E+00
   -.256E+01 0.155E+01 -.872E+03   0.255E+01 -.154E+01 0.870E+03   0.201E-01 -.140E-01 0.113E+01   -.897E-02 0.695E-02 -.105E+00
   0.542E+01 -.165E+02 -.859E+03   -.522E+01 0.159E+02 0.859E+03   -.974E-01 0.500E+00 0.400E+00   -.103E+00 0.263E-01 -.183E+00
   -.399E+01 0.234E+01 -.269E+04   0.401E+01 -.235E+01 0.269E+04   -.478E-01 0.233E-01 0.178E+01   0.552E-01 -.294E-01 -.813E-01
   0.104E+02 0.152E+02 -.268E+04   -.943E+01 -.142E+02 0.268E+04   -.867E+00 -.894E+00 0.213E+01   -.219E+00 -.332E+00 -.142E-01
   -.623E+01 -.353E+02 -.268E+04   0.526E+01 0.373E+02 0.268E+04   0.919E+00 -.182E+01 0.240E+01   0.153E+00 -.220E+00 0.251E-01
   0.125E+02 0.128E+03 -.258E+04   -.113E+02 -.130E+03 0.258E+04   -.113E+01 0.990E+00 0.231E+01   -.358E+00 -.726E-01 0.376E-01
   0.277E+02 0.226E+02 -.268E+04   -.299E+02 -.228E+02 0.268E+04   0.204E+01 0.103E+00 0.239E+01   0.271E+00 -.165E-01 0.272E-01
   -.106E+03 -.746E+02 -.258E+04   0.108E+03 0.742E+02 0.258E+04   -.142E+01 0.505E+00 0.227E+01   -.111E+00 0.341E+00 0.366E-01
   -.757E+01 -.158E+02 -.269E+04   0.716E+01 0.145E+02 0.268E+04   0.364E+00 0.123E+01 0.211E+01   0.181E+00 0.350E+00 -.122E-01
   0.114E+03 -.656E+02 -.258E+04   -.116E+03 0.664E+02 0.257E+04   0.753E+00 -.433E+00 0.172E+01   -.551E-01 0.146E-01 0.400E-01
   -.306E+02 0.165E+02 -.125E+04   0.306E+02 -.165E+02 0.125E+04   0.286E+00 -.155E+00 -.583E+00   0.502E-01 -.263E-01 0.118E-02
   -.354E+02 0.204E+02 -.180E+04   0.331E+02 -.192E+02 0.183E+04   0.234E+01 -.119E+01 -.298E+02   0.211E-02 0.690E-03 0.392E+00
   0.193E+02 -.107E+02 -.181E+04   -.185E+02 0.982E+01 0.178E+04   -.659E+00 0.804E+00 0.264E+02   -.880E-01 0.447E-01 0.721E-01
   0.246E+01 -.222E+01 -.365E+03   -.240E+01 0.226E+01 0.373E+03   -.707E-01 -.352E-01 -.811E+01   -.656E-02 0.338E-02 0.391E-02
   -.207E+01 0.641E+00 0.192E+02   0.537E-13 -.888E-15 0.159E-11   0.218E+01 -.691E+00 -.144E+02   -.139E+00 0.687E-01 -.481E+01

 POSITION                                       TOTAL-FORCE (eV/Angst)
      0.00000      0.00000      5.28219         0.001588     -0.000882     -0.012516
      2.93046      0.00000      5.28219         0.012183      0.001510      0.022060
      5.86091      0.00000      5.28219        -0.011005      0.003682      0.038602
      1.46523      2.53785      5.28219         0.003124      0.014460      0.021477
      4.39568      2.53785      5.28219         0.003050     -0.001303     -0.002265
      7.32614      2.53785      5.28219        -0.008868      0.007762      0.038655
      2.93046      5.07570      5.28219        -0.010818     -0.009970      0.021487
      5.86091      5.07570      5.28219         0.004605     -0.011454      0.022042
      8.79137      5.07570      5.28219         0.007510     -0.004352      0.009481
      1.46523      0.84595      7.67490        -0.019990     -0.005480     -0.032039
      4.39568      0.84595      7.67490        -0.028065     -0.070278     -0.029016
      7.32614      0.84595      7.67490         0.044022     -0.025815     -0.032226
      2.93046      3.38380      7.67490        -0.049854      0.028822     -0.084433
      5.86091      3.38380      7.67490         0.047172      0.059804     -0.028675
      8.79137      3.38380      7.67490         0.007129     -0.027305      0.002514
      4.39568      5.92165      7.67490        -0.005310      0.020207     -0.032734
      7.32614      5.92165      7.67490        -0.015950      0.009652      0.016365
     10.25659      5.92165      7.67490         0.026908      0.007916      0.002825
      8.79137      1.69286     10.06155         0.049645      0.045093      0.056490
      2.93202      1.69280     10.03008        -0.272551     -0.046827     -0.087574
      5.85935      1.69280     10.03008         0.216285     -0.126132     -0.222303
     10.25345      4.23157     10.06207         0.037409     -0.021908     -0.029801
      4.39568      4.22795     10.03008        -0.097151      0.262194     -0.090757
      7.32929      4.23157     10.06207         0.030356      0.011107      0.096774
     11.72099      6.76712     10.06155        -0.013671     -0.065647      0.055444
      5.86174      6.76712     10.06155         0.004327     -0.002843      0.003519
      8.79137      6.76396     10.06207         0.005205     -0.030932      0.096712
      0.00000      0.00000     12.43674         0.021147     -0.011561     -0.013697
      2.95191      0.04038     12.46589        -0.135790     -0.242118     -0.223353
      5.83946      0.04038     12.46589         0.109405     -0.041572     -0.243528
      1.51092      2.53624     12.46589        -0.260167     -0.418477     -0.131537
      7.28044      2.53624     12.46589         0.088802     -0.072197     -0.241694
      2.95470      5.03693     12.46589         0.237797      0.430521     -0.132605
      5.83667      5.03693     12.46589         0.138101      0.232218     -0.220824
      8.79137      5.07570     12.43630        -0.516628      0.298086     -0.023067
      4.39568      2.53785     12.24527         0.354432     -0.199902      1.447533
      4.25355      2.60853     13.95177         0.014258     -0.005085     -0.021161
     10.18995      4.27131     14.00064        -0.008637      0.005373     -0.015573
     10.19608      4.27703     14.97407        -0.010005      0.003635     -0.000603
    total drift:                               -0.034197      0.018533      0.060691

  FREE ENERGIE OF THE ION-ELECTRON SYSTEM (eV)
  free  energy   TOTEN  =      -115.10107388 eV

  energy  without entropy=     -115.10107388  energy(sigma->0) =     -115.10107388

 stress matrix after NEB project (eV)
     -3.92618     -0.04600      0.15288
     -0.04600     -3.99274     -0.07377
      0.15288     -0.07377     -0.30657
  FORCES: max atom, RMS     0.026018    0.005398
  FORCE total and by dimension    0.033714    0.021161
  Stress total and by dimension    5.613622    3.992744
|           W    W    AA    RRRRR   N    N  II  N    N   GGGG   !!!           |
|           W    W   A  A   R    R  NN   N  II  NN   N  G    G  !!!           |
|           W    W  A    A  R    R  N N  N  II  N N  N  G       !!!           |
|           W WW W  AAAAAA  RRRRR   N  N N  II  N  N N  G  GGG   !            |
|           WW  WW  A    A  R   R   N   NN  II  N   NN  G    G                |
|           W    W  A    A  R    R  N    N  II  N    N   GGGG   !!!           |
|     Tetrahedron method does not include variations of the Fermi             |
|     occupations, so forces and stress will be inaccurate. We suggest        |
|     using a different smearing scheme ISMEAR = 1 or 2 for metals in         |
|     relaxations.                                                            |

 total charge

# of ion       s       p       d       tot
    1        0.419   0.200   9.178   9.797
    2        0.416   0.203   9.177   9.796
    3        0.415   0.204   9.176   9.795
    4        0.417   0.203   9.177   9.798
    5        0.419   0.202   9.176   9.796
    6        0.415   0.204   9.176   9.795
    7        0.417   0.203   9.177   9.798
    8        0.416   0.203   9.177   9.796
    9        0.415   0.205   9.176   9.796
   10        0.407   0.269   9.164   9.840
   11        0.401   0.273   9.164   9.838
   12        0.407   0.268   9.164   9.839
   13        0.406   0.271   9.167   9.843
   14        0.401   0.273   9.164   9.838
   15        0.405   0.268   9.166   9.839
   16        0.407   0.269   9.164   9.840
   17        0.403   0.269   9.165   9.836
   18        0.405   0.268   9.166   9.839
   19        0.404   0.265   9.166   9.835
   20        0.436   0.304   9.137   9.877
   21        0.440   0.297   9.142   9.879
   22        0.395   0.277   9.163   9.835
   23        0.436   0.304   9.137   9.877
   24        0.392   0.279   9.159   9.831
   25        0.404   0.265   9.166   9.835
   26        0.400   0.259   9.174   9.833
   27        0.392   0.279   9.159   9.831
   28        0.422   0.193   9.179   9.794
   29        0.421   0.213   9.174   9.808
   30        0.420   0.212   9.178   9.809
   31        0.382   0.240   9.182   9.804
   32        0.420   0.212   9.177   9.809
   33        0.382   0.241   9.181   9.805
   34        0.421   0.214   9.174   9.808
   35        0.375   0.239   9.183   9.797
   36        0.490   0.499   4.428   5.417
   37        1.608   3.289   0.000   4.898
   38        1.557   3.489   0.000   5.047
   39        0.616   0.119   0.000   0.735
tot         18.603  15.946 325.333 359.882

 BZINTS: Fermi energy:    0.122403;  404.000000 electrons
         Band energy:-0.166244E+04;  BLOECHL correction:   -0.024111