 vasp.6.2.0 18Jan21 (build Jun 12 2021 23:27:24) complex

 executed on             LinuxIFC date 2022.05.27  06:16:15

 INCAR:
   ISMEAR = -5
   SIGMA = 0.1
   ISPIN = 1
   EDIFF = 1.d-5
   EDIFFG = -0.01
   NSW = 0
   NELM = 150
   ENCUT = 500
   ISIF = 2
   IBRION = 2
   LREAL = Auto
   ALGO = Fast
   ICHARG = 11
   LORBIT = 10
   LCHARG = .F.
   LWAVE = .F.

 POTCAR:    PAW_PBE Cu 22Jun2005
 POTCAR:    PAW_PBE Ta 17Jan2003
 POTCAR:    PAW_PBE N 08Apr2002
|           W    W    AA    RRRRR   N    N  II  N    N   GGGG   !!!           |
|           W    W   A  A   R    R  NN   N  II  NN   N  G    G  !!!           |
|           W    W  A    A  R    R  N N  N  II  N N  N  G       !!!           |
|           W WW W  AAAAAA  RRRRR   N  N N  II  N  N N  G  GGG   !            |
|           WW  WW  A    A  R   R   N   NN  II  N   NN  G    G                |
|           W    W  A    A  R    R  N    N  II  N    N   GGGG   !!!           |
|     For optimal performance we recommend to set                             |
|       NCORE = 2 up to number-of-cores-per-socket                            |
|     This setting can greatly improve the performance of VASP for DFT.       |
|     The default, NCORE=1 might be grossly inefficient on modern             |
|     multi-core architectures or massively parallel machines. Do your        |
|     Unfortunately you need to use the default for GW and RPA                |
|     calculations (for HF NCORE is supported but not extensively tested      |
|     yet).                                                                   |

 POTCAR:    PAW_PBE Cu 22Jun2005
   VRHFIN =Cu: d10 p1

   TITEL  = PAW_PBE Cu 22Jun2005
   POMASS =   63.546; ZVAL   =   11.000    mass and valenz
   ENMAX  =  295.446; ENMIN  =  221.585 eV

 POTCAR:    PAW_PBE Ta 17Jan2003
   VRHFIN =Ta:  6s5d

   TITEL  = PAW_PBE Ta 17Jan2003
   POMASS =  180.948; ZVAL   =    5.000    mass and valenz
   ENMAX  =  223.667; ENMIN  =  167.750 eV

 POTCAR:    PAW_PBE N 08Apr2002
   VRHFIN =N: s2p3

   TITEL  = PAW_PBE N 08Apr2002
   POMASS =   14.001; ZVAL   =    5.000    mass and valenz
   ENMAX  =  400.000; ENMIN  =  300.000 eV

 Optimization of the real space projectors (new method)

 maximal supplied QI-value         = 16.25
 optimisation between [QCUT,QGAM] = [ 11.38, 22.75] = [ 36.24,144.96] Ry
 Optimized for a Real-space Cutoff    1.52 Angstroem

   l    n(q)    QCUT    max X(q) W(low)/X(q) W(high)/X(q)  e(spline)
   2      9    11.376     4.610    0.21E-03    0.10E-03    0.26E-06
   2      9    11.376     8.522    0.33E-03    0.16E-03    0.37E-06
   0     10    11.376    51.609    0.62E-04    0.20E-04    0.13E-06
   0     10    11.376    27.747    0.54E-04    0.20E-04    0.13E-06
   1     10    11.376    20.408    0.13E-04    0.99E-04    0.19E-06
   1     10    11.376    13.425    0.12E-04    0.87E-04    0.17E-06
 Optimization of the real space projectors (new method)

[...]

   l    n(q)    QCUT    max X(q) W(low)/X(q) W(high)/X(q)  e(spline)
   2     10    11.437    62.315    0.14E-03    0.26E-03    0.80E-06
   2     10    11.437    52.185    0.14E-03    0.26E-03    0.80E-06
   0     11    11.437   103.837    0.25E-04    0.17E-04    0.84E-07
   0     11    11.437    59.728    0.20E-04    0.15E-04    0.73E-07
   1     11    11.437    13.958    0.47E-03    0.12E-03    0.89E-06
   1     11    11.437     8.441    0.33E-03    0.88E-04    0.61E-06
 Optimization of the real space projectors (new method)

 maximal supplied QI-value         = 25.13
 optimisation between [QCUT,QGAM] = [ 11.31, 22.87] = [ 35.82,146.48] Ry
 Optimized for a Real-space Cutoff    1.27 Angstroem

   l    n(q)    QCUT    max X(q) W(low)/X(q) W(high)/X(q)  e(spline)
   0      9    11.310    79.467    0.75E-04    0.16E-03    0.36E-06
   0      9    11.310    66.151    0.74E-04    0.16E-03    0.36E-06
   1      8    11.310    17.416    0.35E-03    0.12E-03    0.95E-06
   1      8    11.310    12.382    0.37E-03    0.13E-03    0.98E-06
  PAW_PBE Cu 22Jun2005                  :
  PAW_PBE Ta 17Jan2003                  :
  PAW_PBE N 08Apr2002                   :

 POSCAR: Cu-Ta-N2
  positions in direct lattice
  velocities in cartesian coordinates
 exchange correlation table for  LEXCH =        8
   RHO(1)=    0.500       N(1)  =     2000
   RHO(2)=  100.500       N(2)  =     4000

 VTST: version 3.2, (02/03/18)

 CHAIN: initializing optimizer

 OPT: Using VASP Conjugate-Gradient optimizer
 CHAIN: Read ICHAIN            0

 POSCAR: Cu-Ta-N2
  positions in direct lattice
  velocities in cartesian coordinates

 ion  position               nearest neighbor table
   1  0.000  0.000  0.252-   7 2.57   3 2.57   4 2.57   2 2.57   6 2.57   8 2.57  12 2.57  10 2.57
                            16 2.57
   2  0.333  0.000  0.252-   8 2.57   9 2.57   5 2.57   1 2.57   3 2.57  11 2.57   4 2.57  10 2.57
                            17 2.57
   3  0.667  0.000  0.252-   1 2.57   7 2.57   6 2.57   9 2.57   2 2.57  12 2.57   5 2.57  18 2.57
                            11 2.57
   4  0.000  0.333  0.252-   5 2.57   6 2.57   1 2.57   7 2.57   2 2.57  13 2.57   9 2.57  10 2.57
                            15 2.57
   5  0.333  0.333  0.252-   4 2.57   2 2.57   7 2.57  13 2.57   8 2.57   6 2.57   3 2.57  11 2.57
                            14 2.57
   6  0.667  0.333  0.252-   4 2.57   9 2.57  15 2.57   3 2.57   1 2.57   8 2.57  14 2.57   5 2.57
                            12 2.57
   7  0.000  0.667  0.252-   1 2.57   3 2.57  16 2.57  18 2.57   4 2.57   5 2.57   8 2.57   9 2.57
                            13 2.57
   8  0.333  0.667  0.252-   9 2.57   2 2.57  17 2.57   6 2.57   1 2.57   7 2.57   5 2.57  14 2.57
                            16 2.57
   9  0.667  0.667  0.252-   8 2.57   6 2.57   2 2.57  17 2.57   3 2.57   7 2.57   4 2.57  15 2.57
                            18 2.57
  10  0.111  0.111  0.351-  20 2.55  26 2.56  19 2.56  11 2.57  12 2.57  13 2.57   1 2.57   2 2.57
                             4 2.57  15 2.57  16 2.57  17 2.57
  11  0.444  0.111  0.351-  20 2.56  21 2.56  10 2.57  13 2.57   2 2.57  17 2.57  14 2.57  12 2.57
                             5 2.57   3 2.57  18 2.57  27 2.57
  12  0.778  0.111  0.351-  21 2.55  19 2.56  25 2.56  15 2.57  10 2.57  14 2.57  18 2.57   3 2.57
                             1 2.57  16 2.57  11 2.57   6 2.57
  13  0.111  0.444  0.351-  23 2.56  20 2.56  16 2.57  18 2.57  10 2.57  11 2.57  14 2.57   5 2.57
                             4 2.57   7 2.57  15 2.57  22 2.57
  14  0.444  0.444  0.351-  21 2.56  23 2.56  15 2.57  17 2.57  12 2.57  16 2.57  13 2.57  11 2.57
                             6 2.57   8 2.57   5 2.57  24 2.57
  15  0.778  0.444  0.351-  19 2.56  14 2.57  17 2.57  12 2.57   6 2.57  18 2.57  10 2.57   9 2.57
                            13 2.57   4 2.57  24 2.57  22 2.57
  16  0.111  0.778  0.351-  23 2.55  25 2.56  26 2.56  18 2.57  13 2.57   7 2.57  14 2.57  17 2.57
                            12 2.57  10 2.57   8 2.57   1 2.57
  17  0.444  0.778  0.351-  26 2.56  14 2.57  15 2.57   8 2.57   9 2.57  11 2.57  16 2.57  18 2.57
                            10 2.57   2 2.57  27 2.57  24 2.57
  18  0.778  0.778  0.351-  25 2.56  16 2.57  13 2.57   7 2.57  15 2.57  12 2.57  17 2.57   9 2.57
                             3 2.57  11 2.57  22 2.57  27 2.57
  19  0.889  0.222  0.449-  12 2.56  10 2.56  15 2.56  21 2.56  20 2.56  25 2.56  26 2.56  22 2.57
                            24 2.57  28 2.57  32 2.59  31 2.59
  20  0.222  0.222  0.449-  10 2.55  11 2.56  13 2.56  26 2.56  19 2.56  27 2.57  22 2.57  23 2.58
                            21 2.58  36 2.61  29 2.61  31 2.61
  21  0.557  0.222  0.449-  12 2.55  14 2.56  11 2.56  19 2.56  25 2.56  24 2.57  27 2.57  20 2.58
                            23 2.58  36 2.61  32 2.61  30 2.61
  22  0.888  0.556  0.450-  24 2.56  27 2.56  19 2.57  25 2.57  23 2.57  20 2.57  18 2.57  15 2.57
                            35 2.57  13 2.57  31 2.59  33 2.59
  23  0.222  0.557  0.449-  16 2.55  13 2.56  14 2.56  25 2.56  26 2.56  22 2.57  24 2.57  20 2.58
                            21 2.58  36 2.61  33 2.61  34 2.61
  24  0.556  0.556  0.450-  22 2.56  27 2.56  19 2.57  26 2.57  21 2.57  23 2.57  15 2.57  17 2.57
                            35 2.57  14 2.57  32 2.59  34 2.59
  25  0.889  0.889  0.449-  12 2.56  16 2.56  18 2.56  21 2.56  23 2.56  19 2.56  26 2.56  22 2.57
                            27 2.57  28 2.57  33 2.59  30 2.59
  26  0.222  0.889  0.449-  10 2.56  16 2.56  17 2.56  20 2.56  23 2.56  25 2.56  19 2.56  27 2.57
                            24 2.57  28 2.57  29 2.59  34 2.59
  27  0.556  0.888  0.450-  24 2.56  22 2.56  26 2.57  25 2.57  20 2.57  21 2.57  17 2.57  18 2.57
                            35 2.57  11 2.57  29 2.59  30 2.59
  28  0.000  0.000  0.548-  33 2.55  30 2.55  31 2.55  29 2.55  32 2.55  34 2.55  25 2.57  19 2.57
                            26 2.57
  29  0.333  0.997  0.549-  34 2.52  35 2.55  28 2.55  31 2.59  27 2.59  36 2.59  30 2.59  26 2.59
                            20 2.61
  30  0.670  0.997  0.549-  33 2.52  35 2.55  28 2.55  32 2.59  27 2.59  36 2.59  29 2.59  25 2.59
                            21 2.61
  31  0.997  0.333  0.549-  32 2.52  35 2.55  28 2.55  29 2.59  22 2.59  36 2.59  33 2.59  19 2.59
                            20 2.61
  32  0.670  0.333  0.549-  31 2.52  35 2.55  28 2.55  30 2.59  24 2.59  36 2.59  34 2.59  19 2.59
                            21 2.61
  33  0.997  0.670  0.549-  30 2.52  35 2.55  28 2.55  34 2.59  22 2.59  36 2.59  31 2.59  25 2.59
                            23 2.61
  34  0.333  0.670  0.549-  29 2.52  35 2.55  28 2.55  33 2.59  24 2.59  36 2.59  32 2.59  26 2.59
                            23 2.61
  35  0.667  0.667  0.549-  34 2.55  32 2.55  29 2.55  30 2.55  33 2.55  31 2.55  24 2.57  27 2.57
                            22 2.57
  36  0.333  0.333  0.549-  38 2.42  37 2.42  31 2.59  29 2.59  33 2.59  34 2.59  32 2.59  30 2.59
                            23 2.61  20 2.61  21 2.61
  37  0.258  0.335  0.660-  38 1.15  36 2.42
  38  0.408  0.335  0.660-  37 1.15  36 2.42

  LATTYP: Found a hexagonal cell.
 ALAT       =     7.6967864036
 C/A-ratio  =     2.7653617908

  Lattice vectors:

 A1 = (  -3.8483927580,  -6.6656128093,   0.0000000000)
 A2 = (   7.6967864037,   0.0000000000,   0.0000000000)
 A3 = (   0.0000000000,   0.0000000000,  21.2843990326)

Analysis of symmetry for initial positions (statically):
 Subroutine PRICEL returns:
 Original cell was already a primitive cell.

 Routine SETGRP: Setting up the symmetry group for a
 hexagonal supercell.

 Subroutine GETGRP returns: Found  2 space group operations
 (whereof  2 operations were pure point group operations)
 out of a pool of 24 trial point group operations.

The static configuration has the point symmetry C_1h.

Analysis of symmetry for dynamics (positions and initial velocities):
 Subroutine PRICEL returns:
 Original cell was already a primitive cell.

[...]

The dynamic configuration has the point symmetry C_1h.

Analysis of constrained symmetry for selective dynamics:
 Subroutine PRICEL returns:
 Original cell was already a primitive cell.

 Routine SETGRP: Setting up the symmetry group for a
 hexagonal supercell.

[...]
     33      -3.9183      2.00000
     34      -3.9014      2.00000
     35      -3.8964      2.00000
     36      -3.8882      2.00000
     37      -3.8727      2.00000
     38      -3.8673      2.00000
     39      -3.8345      2.00000
     40      -3.7575      2.00000
     41      -3.7358      2.00000
     42      -3.5904      2.00000
     43      -3.5852      2.00000
     44      -3.5264      2.00000
     45      -3.5101      2.00000
     46      -3.4926      2.00000
     47      -3.4850      2.00000
     48      -3.4700      2.00000
     49      -3.4613      2.00000
     50      -3.4577      2.00000
     51      -3.3086      2.00000
     52      -3.2769      2.00000
     53      -3.2706      2.00000
     54      -3.2510      2.00000
     55      -3.2065      2.00000
     56      -3.1874      2.00000
     57      -3.1814      2.00000
     58      -3.1709      2.00000
     59      -3.1617      2.00000
     60      -3.1503      2.00000
[...]
    238       6.1356      0.00000
    239       6.1640      0.00000
    240       6.3716      0.00000
    241       6.3935      0.00000
    242       6.7379      0.00000
    243       6.8099      0.00000
    244       6.9892      0.00000
    245       7.0514      0.00000
    246       7.0975      0.00000
    247       7.2149      0.00000
    248       7.2979      0.00000
    249       7.4825      0.00000
    250       7.5326      0.00000
    251       7.6140      0.00000
    252       7.7357      0.00000

 soft charge-density along one line, spin component           1
         0         1         2         3         4         5         6         7         8         9
 total charge-density along one line

------------------------ aborting loop because EDIFF is reached ----------------------------------------

 total charge

# of ion       s       p       d       tot
    1        0.450   0.282   9.189   9.921
    2        0.448   0.286   9.185   9.918
    3        0.448   0.286   9.185   9.918
    4        0.446   0.285   9.187   9.918
    5        0.449   0.285   9.181   9.916
    6        0.446   0.285   9.187   9.918
    7        0.447   0.285   9.186   9.918
    8        0.447   0.285   9.186   9.918
    9        0.449   0.283   9.188   9.920
   10        0.444   0.371   9.175   9.990
   11        0.443   0.365   9.182   9.989
   12        0.444   0.371   9.175   9.990
   13        0.442   0.364   9.183   9.990
   14        0.442   0.364   9.183   9.990
   15        0.438   0.370   9.175   9.983
   16        0.443   0.371   9.175   9.989
   17        0.438   0.369   9.176   9.984
   18        0.438   0.369   9.176   9.984
   19        0.440   0.369   9.179   9.988
   20        0.467   0.401   9.152  10.020
   21        0.467   0.401   9.152  10.020
   22        0.429   0.371   9.179   9.979
   23        0.470   0.397   9.156  10.022
   24        0.429   0.371   9.179   9.979
   25        0.443   0.367   9.179   9.989
   26        0.443   0.367   9.179   9.989
   27        0.431   0.369   9.182   9.982
   28        0.446   0.295   9.180   9.921
   29        0.483   0.319   9.160   9.962
   30        0.483   0.319   9.160   9.962
   31        0.479   0.314   9.165   9.958
   32        0.479   0.314   9.165   9.958
   33        0.483   0.319   9.160   9.962
   34        0.483   0.319   9.160   9.962
   35        0.441   0.299   9.179   9.919
   36        0.703   0.650   3.208   4.561
   37        1.356   2.448   0.000   3.804
   38        1.356   2.448   0.000   3.804
tot         19.212  17.331 324.350 360.892

  FORCE on cell =-STRESS in cart. coord.  units (eV):
  Direction    XX          YY          ZZ          XY          YZ          ZX
  Alpha Z   908.80231   908.80231   908.80231
  Ewald  167951.51968167649.73524************     0.00037    -0.92935     0.00016
  Hartree180851.16586180746.33991************     0.00003    -0.88389     0.00005
  E(xc)   -2310.53550 -2311.15207 -2315.02510    -0.00027     0.00136    -0.00004
  Local  ************************361333.82138     0.02010     1.87871    -0.00072
  n-local  -785.24831  -771.38725  -789.24449     1.66482    -0.12716     0.08131
  augment  3311.36476  3310.38247  3335.82980    -0.01831     0.02108     0.00028
  Kinetic  3365.57999  3374.45279  3409.01799     0.46850    -0.17482    -0.24075
  Fock        0.00000     0.00000     0.00000     0.00000     0.00000     0.00000
  Total      -7.23739    -7.11090    -3.00326     0.00000    -0.21408     0.00000
  in kB     -10.61895   -10.43337    -4.40649     0.00000    -0.31410     0.00000

 VOLUME and BASIS-vectors are now :
  energy-cutoff  :      500.00
  volume of cell :     1091.97
      direct lattice vectors                 reciprocal lattice vectors
     7.696786404  0.000000000  0.000000000     0.129924354 -0.075011849  0.000000000
     3.848392758  6.665612809  0.000000000     0.000000000  0.150023716  0.000000000
     0.000000000  0.000000000 21.284399033     0.000000000  0.000000000  0.046982769

  length of vectors
     7.696786404  7.696786404 21.284399033     0.150023716  0.150023716  0.046982769

 FORCES acting on ions
    electron-ion (+dipol)            ewald-force                    non-local-force                 convergence-correction
   -.406E-04 0.353E-01 0.347E+04   0.581E-04 -.988E-02 -.346E+04   0.300E-08 -.451E-01 -.241E+01   -.363E-03 0.632E-02 0.103E+00
   -.981E+00 -.677E+00 0.346E+04   0.811E+00 0.612E+00 -.346E+04   0.137E+00 0.154E+00 -.176E+01   0.406E-01 -.848E-01 0.158E+00
   0.981E+00 -.677E+00 0.346E+04   -.811E+00 0.612E+00 -.346E+04   -.137E+00 0.154E+00 -.176E+01   -.398E-01 -.824E-01 0.159E+00
   -.104E+01 -.440E+00 0.346E+04   0.944E+00 0.390E+00 -.346E+04   0.193E+00 -.303E-01 -.199E+01   -.763E-01 0.776E-01 0.125E+00
   -.617E-04 -.194E-01 0.346E+04   0.116E-03 -.140E-02 -.346E+04   0.158E-08 -.237E-01 -.139E+01   0.121E-01 0.395E-01 0.307E+00
   0.104E+01 -.440E+00 0.346E+04   -.944E+00 0.390E+00 -.346E+04   -.193E+00 -.303E-01 -.199E+01   0.748E-01 0.787E-01 0.126E+00
   -.207E+00 0.114E+01 0.346E+04   0.133E+00 -.100E+01 -.346E+04   0.140E+00 -.135E+00 -.185E+01   -.627E-01 -.887E-02 0.144E+00
   0.207E+00 0.114E+01 0.346E+04   -.133E+00 -.100E+01 -.346E+04   -.140E+00 -.135E+00 -.185E+01   0.660E-01 -.103E-01 0.144E+00
   -.143E-03 -.448E-01 0.346E+04   0.263E-03 0.113E-01 -.346E+04   -.417E-08 0.627E-01 -.215E+01   -.131E-01 -.157E-01 0.663E-01
   -.540E+01 -.298E+01 0.117E+04   0.580E+01 0.326E+01 -.117E+04   -.452E+00 -.273E+00 -.106E+01   0.360E-01 -.102E-01 -.289E+00
   -.911E-04 -.637E+01 0.115E+04   0.190E-03 0.603E+01 -.115E+04   -.177E-07 0.266E+00 -.734E-01   0.120E-01 0.286E-01 -.263E+00
   0.540E+01 -.298E+01 0.117E+04   -.580E+01 0.326E+01 -.117E+04   0.452E+00 -.273E+00 -.106E+01   -.378E-01 -.991E-02 -.289E+00
   -.567E+01 0.309E+01 0.116E+04   0.530E+01 -.301E+01 -.115E+04   0.285E+00 -.104E+00 -.154E+00   0.569E-01 0.591E-01 -.307E+00
   0.567E+01 0.309E+01 0.116E+04   -.530E+01 -.301E+01 -.115E+04   -.285E+00 -.104E+00 -.154E+00   -.338E-01 0.572E-01 -.310E+00
   -.141E-03 -.222E+01 0.117E+04   0.296E-03 0.200E+01 -.117E+04   -.744E-08 0.112E+00 -.106E+01   -.291E-02 0.100E+00 -.332E+00
   -.927E-04 0.627E+01 0.117E+04   0.187E-03 -.666E+01 -.117E+04   -.337E-07 0.505E+00 -.834E+00   -.126E-02 -.913E-01 -.260E+00
   -.187E+01 0.104E+01 0.117E+04   0.169E+01 -.939E+00 -.117E+04   0.134E+00 -.524E-01 -.844E+00   0.417E-01 -.490E-01 -.273E+00
   0.187E+01 0.104E+01 0.117E+04   -.169E+01 -.939E+00 -.117E+04   -.134E+00 -.524E-01 -.844E+00   -.398E-01 -.464E-01 -.270E+00
   -.667E-04 -.775E+01 -.112E+04   0.721E-04 0.771E+01 0.112E+04   -.187E-08 0.282E-01 0.117E+01   0.924E-03 0.387E-02 -.609E+00
   -.600E+02 -.342E+02 -.119E+04   0.614E+02 0.349E+02 0.119E+04   -.132E+01 -.599E+00 -.794E+00   -.109E+00 -.112E+00 -.813E+00
   0.600E+02 -.342E+02 -.119E+04   -.614E+02 0.349E+02 0.119E+04   0.132E+01 -.599E+00 -.794E+00   0.884E-01 -.116E+00 -.814E+00
   -.311E+02 0.174E+02 -.114E+04   0.306E+02 -.171E+02 0.114E+04   0.530E+00 -.382E+00 0.819E+00   -.273E-01 0.786E-01 -.697E+00
   -.873E-04 0.687E+02 -.119E+04   0.152E-03 -.702E+02 0.119E+04   -.935E-07 0.140E+01 -.603E+00   -.144E-01 0.120E+00 -.755E+00
   0.311E+02 0.174E+02 -.114E+04   -.306E+02 -.171E+02 0.114E+04   -.530E+00 -.382E+00 0.819E+00   0.515E-01 0.777E-01 -.696E+00
   0.705E+01 0.420E+01 -.112E+04   -.702E+01 -.422E+01 0.112E+04   0.158E-01 0.579E-01 0.102E+01   -.430E-01 -.296E-01 -.576E+00
   -.705E+01 0.420E+01 -.112E+04   0.702E+01 -.422E+01 0.112E+04   -.158E-01 0.579E-01 0.102E+01   0.199E-01 -.276E-01 -.576E+00
   -.120E-03 -.358E+02 -.114E+04   0.239E-03 0.353E+02 0.114E+04   -.366E-07 0.549E+00 0.796E+00   0.127E-01 -.440E-01 -.685E+00
   -.428E-04 0.258E+01 -.334E+04   0.431E-04 -.270E+01 0.334E+04   -.101E-07 0.152E+00 0.166E+01   -.169E-02 -.449E-01 -.312E+00
   -.412E+02 -.710E+02 -.333E+04   0.420E+02 0.718E+02 0.333E+04   -.729E+00 -.675E+00 0.530E+00   -.126E+00 -.243E+00 -.461E+00
   0.412E+02 -.710E+02 -.333E+04   -.420E+02 0.718E+02 0.333E+04   0.729E+00 -.675E+00 0.530E+00   0.149E+00 -.243E+00 -.463E+00
   -.808E+02 0.287E+01 -.332E+04   0.817E+02 -.267E+01 0.332E+04   -.781E+00 -.200E+00 0.128E+01   -.211E+00 0.111E-01 -.426E+00
   0.808E+02 0.287E+01 -.332E+04   -.817E+02 -.267E+01 0.332E+04   0.781E+00 -.200E+00 0.128E+01   0.233E+00 0.117E-01 -.425E+00
   -.454E+02 0.679E+02 -.333E+04   0.458E+02 -.689E+02 0.333E+04   -.332E+00 0.866E+00 0.675E+00   -.112E+00 0.247E+00 -.447E+00
   0.454E+02 0.679E+02 -.333E+04   -.458E+02 -.689E+02 0.333E+04   0.332E+00 0.866E+00 0.675E+00   0.136E+00 0.246E+00 -.445E+00
   -.146E-03 -.295E+01 -.336E+04   0.251E-03 0.306E+01 0.336E+04   0.721E-08 -.108E+00 0.219E+01   -.136E-01 0.282E-01 -.305E+00
   -.368E-04 0.344E+00 -.144E+04   0.604E-04 -.398E+00 0.143E+04   0.404E-08 -.606E-01 0.308E+01   -.464E-03 0.487E-02 -.267E+00
   0.211E+03 0.176E+00 -.159E+04   -.254E+03 -.207E+00 0.160E+04   0.421E+02 0.281E-01 -.710E+01   -.115E+00 0.556E-02 0.509E-01
   -.211E+03 0.176E+00 -.159E+04   0.254E+03 -.207E+00 0.160E+04   -.421E+02 0.281E-01 -.710E+01   0.115E+00 0.558E-02 0.510E-01
   -.154E-03 -.165E+00 0.330E+02   0.853E-13 0.357E-12 -.864E-11   -.100E-07 0.150E+00 -.221E+02   0.654E-01 0.188E-01 -.109E+02

 POSITION                                       TOTAL-FORCE (eV/Angst)
      0.00000      0.00000      5.37156         0.000000     -0.013377     -0.030024
      2.56560      0.00000      5.37156         0.007021      0.005340      0.061536
      5.13119      0.00000      5.37156        -0.007021      0.005340      0.061536
      1.28280      2.22187      5.37156         0.025358     -0.002205      0.048779
      3.84839      2.22187      5.37156         0.000000     -0.005017      0.046322
      6.41399      2.22187      5.37156        -0.025358     -0.002205      0.048779
      2.56560      4.44374      5.37156         0.001404     -0.005155      0.054667
      5.13119      4.44374      5.37156        -0.001404     -0.005155      0.054667
      7.69679      4.44374      5.37156        -0.000000      0.013384      0.017432
      1.28280      0.74062      7.46636        -0.016532     -0.004908     -0.093314
      3.84839      0.74062      7.46636         0.000000     -0.045495     -0.046698
      6.41399      0.74062      7.46636         0.016532     -0.004908     -0.093314
      2.56560      2.96249      7.46636        -0.042076      0.031612     -0.061021
      5.13119      2.96249      7.46636         0.042076      0.031612     -0.061021
      7.69679      2.96249      7.46636         0.000000     -0.010440     -0.007091
      3.84839      5.18437      7.46636        -0.000000      0.025200     -0.077748
      6.41399      5.18437      7.46636        -0.003454     -0.002765      0.018131
      8.97958      5.18437      7.46636         0.003454     -0.002765      0.018131
      7.69679      1.48082      9.55187         0.000000     -0.005416      0.062120
      2.55960      1.47778      9.55047        -0.054908     -0.000355     -0.105095
      5.13719      1.47778      9.55047         0.054908     -0.000355     -0.105095
      8.97653      3.70488      9.56926         0.021655     -0.020010      0.026711
      3.84839      3.71005      9.55047        -0.000000      0.082750     -0.128029
      6.41705      3.70488      9.56926        -0.021655     -0.020010      0.026711
     10.26275      5.92520      9.55187         0.015879      0.011410      0.003781
      5.13082      5.92520      9.55187        -0.015879      0.011410      0.003781
      7.69679      5.92146      9.56926        -0.000000      0.034039      0.007486
      0.00000      0.00000     11.65662         0.000000     -0.011299     -0.037024
      6.40243      6.64574     11.69071        -0.059229     -0.122306     -0.155624
      8.99114      6.64574     11.69071         0.059229     -0.122306     -0.155624
      8.95659      2.22180     11.69071        -0.081202      0.009638     -0.081620
      6.43698      2.22180     11.69071         0.081202      0.009638     -0.081620
     10.25095      4.46369     11.69071        -0.078298      0.106932     -0.185099
      5.14262      4.46369     11.69071         0.078298      0.106932     -0.185099
      7.69679      4.44374     11.67656        -0.000000      0.025423     -0.030506
      3.84839      2.22187     11.69355         0.000000     -0.109850      1.223282
      3.27159      2.23090     14.04185        -0.068121      0.002821     -0.031594
      4.42520      2.23090     14.04185         0.068121      0.002821     -0.031594
    total drift:                                0.065205      0.003844     -0.023566

  FREE ENERGIE OF THE ION-ELECTRON SYSTEM (eV)
  free  energy   TOTEN  =      -149.12320572 eV

  energy  without entropy=     -149.12320572  energy(sigma->0) =     -149.12320572

 stress matrix after NEB project (eV)
     -7.23739      0.00000      0.00000
      0.00000     -7.11090     -0.21408
      0.00000     -0.21408     -3.00326
  FORCES: max atom, RMS     0.075144    0.017239
  FORCE total and by dimension    0.106269    0.068121
  Stress total and by dimension   10.585649    7.237386
|           W    W    AA    RRRRR   N    N  II  N    N   GGGG   !!!           |
|           W    W   A  A   R    R  NN   N  II  NN   N  G    G  !!!           |
|           W    W  A    A  R    R  N N  N  II  N N  N  G       !!!           |
|           W WW W  AAAAAA  RRRRR   N  N N  II  N  N N  G  GGG   !            |
|           WW  WW  A    A  R   R   N   NN  II  N   NN  G    G                |
|           W    W  A    A  R    R  N    N  II  N    N   GGGG   !!!           |
|     Tetrahedron method does not include variations of the Fermi             |
|     occupations, so forces and stress will be inaccurate. We suggest        |
|     using a different smearing scheme ISMEAR = 1 or 2 for metals in         |
|     relaxations.                                                            |

 total charge

# of ion       s       p       d       tot
    1        0.450   0.282   9.189   9.921
    2        0.448   0.286   9.185   9.918
    3        0.448   0.286   9.185   9.918
    4        0.446   0.285   9.187   9.918
    5        0.449   0.285   9.181   9.916
    6        0.446   0.285   9.187   9.918
    7        0.447   0.285   9.186   9.918
    8        0.447   0.285   9.186   9.918
    9        0.449   0.283   9.188   9.920
   10        0.444   0.371   9.175   9.990
   11        0.443   0.365   9.182   9.989
   12        0.444   0.371   9.175   9.990
   13        0.442   0.364   9.183   9.990
   14        0.442   0.364   9.183   9.990
   15        0.438   0.370   9.175   9.983
   16        0.443   0.371   9.175   9.989
   17        0.438   0.369   9.176   9.984
   18        0.438   0.369   9.176   9.984
   19        0.440   0.369   9.179   9.988
   20        0.467   0.401   9.152  10.020
   21        0.467   0.401   9.152  10.020
   22        0.429   0.371   9.179   9.979
   23        0.470   0.397   9.156  10.022
   24        0.429   0.371   9.179   9.979
   25        0.443   0.367   9.179   9.989
   26        0.443   0.367   9.179   9.989
   27        0.431   0.369   9.182   9.982
   28        0.446   0.295   9.180   9.921
   29        0.483   0.319   9.160   9.962
   30        0.483   0.319   9.160   9.962
   31        0.479   0.314   9.165   9.958
   32        0.479   0.314   9.165   9.958
   33        0.483   0.319   9.160   9.962
   34        0.483   0.319   9.160   9.962
   35        0.441   0.299   9.179   9.919
   36        0.703   0.650   3.208   4.561
   37        1.356   2.448   0.000   3.804
   38        1.356   2.448   0.000   3.804
tot         19.212  17.331 324.350 360.892

 BZINTS: Fermi energy:    0.262585;  400.000000 electrons
         Band energy:-0.112749E+04;  BLOECHL correction:   -0.026246