 vasp.6.2.0 18Jan21 (build Jun 12 2021 23:27:24) complex

 executed on             LinuxIFC date 2022.05.30  18:06:41

 INCAR:
   ISMEAR = -5
   SIGMA = 0.1
   ISPIN = 1
   EDIFF = 1.d-5
   EDIFFG = -0.01
   NSW = 0
   NELM = 150
   ENCUT = 500
   ISIF = 2
   IBRION = 2
   LREAL = Auto
   ALGO = Fast
   ICHARG = 11
   LORBIT = 10
   LCHARG = .F.
   LWAVE = .F.

 POTCAR:    PAW_PBE Cu 22Jun2005
 POTCAR:    PAW_PBE Ni 02Aug2007
 POTCAR:    PAW_PBE C 08Apr2002
 POTCAR:    PAW_PBE O 08Apr2002
 POTCAR:    PAW_PBE H 15Jun2001
|           W    W    AA    RRRRR   N    N  II  N    N   GGGG   !!!           |
|           W    W   A  A   R    R  NN   N  II  NN   N  G    G  !!!           |
|           W    W  A    A  R    R  N N  N  II  N N  N  G       !!!           |
|           W WW W  AAAAAA  RRRRR   N  N N  II  N  N N  G  GGG   !            |
|           WW  WW  A    A  R   R   N   NN  II  N   NN  G    G                |
|           W    W  A    A  R    R  N    N  II  N    N   GGGG   !!!           |
|     For optimal performance we recommend to set                             |
|       NCORE = 2 up to number-of-cores-per-socket                            |
|     This setting can greatly improve the performance of VASP for DFT.       |
|     The default, NCORE=1 might be grossly inefficient on modern             |
|     multi-core architectures or massively parallel machines. Do your        |
|     Unfortunately you need to use the default for GW and RPA                |
|     calculations (for HF NCORE is supported but not extensively tested      |
|     yet).                                                                   |

 POTCAR:    PAW_PBE Cu 22Jun2005
   VRHFIN =Cu: d10 p1

   TITEL  = PAW_PBE Cu 22Jun2005
   POMASS =   63.546; ZVAL   =   11.000    mass and valenz
   ENMAX  =  295.446; ENMIN  =  221.585 eV

 POTCAR:    PAW_PBE Ni 02Aug2007
   VRHFIN =Ni:

   TITEL  = PAW_PBE Ni 02Aug2007
   POMASS =   58.690; ZVAL   =   10.000    mass and valenz
   ENMAX  =  269.532; ENMIN  =  202.149 eV

 POTCAR:    PAW_PBE C 08Apr2002
   VRHFIN =C: s2p2

   TITEL  = PAW_PBE C 08Apr2002
   POMASS =   12.011; ZVAL   =    4.000    mass and valenz
   ENMAX  =  400.000; ENMIN  =  300.000 eV

 POTCAR:    PAW_PBE O 08Apr2002
   VRHFIN =O: s2p4

   TITEL  = PAW_PBE O 08Apr2002
   POMASS =   16.000; ZVAL   =    6.000    mass and valenz
   ENMAX  =  400.000; ENMIN  =  300.000 eV

 POTCAR:    PAW_PBE H 15Jun2001
   VRHFIN =H: ultrasoft test

   TITEL  = PAW_PBE H 15Jun2001
   POMASS =    1.000; ZVAL   =    1.000    mass and valenz
   ENMAX  =  250.000; ENMIN  =  200.000 eV

 Optimization of the real space projectors (new method)

 maximal supplied QI-value         = 16.25
 optimisation between [QCUT,QGAM] = [ 11.38, 22.75] = [ 36.24,144.96] Ry
 Optimized for a Real-space Cutoff    1.52 Angstroem

   l    n(q)    QCUT    max X(q) W(low)/X(q) W(high)/X(q)  e(spline)
   2      9    11.376     4.610    0.21E-03    0.10E-03    0.26E-06
   2      9    11.376     8.522    0.33E-03    0.16E-03    0.37E-06
   0     10    11.376    51.609    0.62E-04    0.20E-04    0.13E-06
   0     10    11.376    27.747    0.54E-04    0.20E-04    0.13E-06
   1     10    11.376    20.408    0.13E-04    0.99E-04    0.19E-06
   1     10    11.376    13.425    0.12E-04    0.87E-04    0.17E-06
 Optimization of the real space projectors (new method)

[...]

   l    n(q)    QCUT    max X(q) W(low)/X(q) W(high)/X(q)  e(spline)
   0      7    11.387    20.381    0.39E-03    0.13E-02    0.15E-06
   0      7    11.387    15.268    0.42E-03    0.14E-02    0.17E-06
   1      6    11.387     5.964    0.41E-03    0.11E-02    0.17E-06
   1      6    11.387     5.382    0.39E-03    0.87E-03    0.15E-06
 Optimization of the real space projectors (new method)

 maximal supplied QI-value         = 34.20
 optimisation between [QCUT,QGAM] = [ 11.29, 22.57] = [ 35.68,142.71] Ry
 Optimized for a Real-space Cutoff    1.16 Angstroem

   l    n(q)    QCUT    max X(q) W(low)/X(q) W(high)/X(q)  e(spline)
   0      8    11.287    19.460    0.40E-03    0.73E-03    0.16E-06
   0      8    11.287    12.209    0.38E-03    0.70E-03    0.15E-06
   1      7    11.287     4.655    0.22E-03    0.25E-04    0.22E-06
  PAW_PBE Cu 22Jun2005                  :
  PAW_PBE Ni 02Aug2007                  :
  PAW_PBE C 08Apr2002                   :
  PAW_PBE O 08Apr2002                   :
  PAW_PBE H 15Jun2001                   :

 POSCAR: Cu-Ni-COH
  positions in direct lattice
  velocities in cartesian coordinates
 exchange correlation table for  LEXCH =        8
   RHO(1)=    0.500       N(1)  =     2000
   RHO(2)=  100.500       N(2)  =     4000

 VTST: version 3.2, (02/03/18)

 CHAIN: initializing optimizer

 OPT: Using VASP Conjugate-Gradient optimizer
 CHAIN: Read ICHAIN            0

 POSCAR: Cu-Ni-COH
  positions in direct lattice
  velocities in cartesian coordinates

 ion  position               nearest neighbor table
   1  0.000  0.000  0.206-   7 2.57   3 2.57   4 2.57   2 2.57   6 2.57   8 2.57  12 2.57  10 2.57
                            16 2.57
   2  0.333  0.000  0.206-   8 2.57   9 2.57   5 2.57   1 2.57   3 2.57  11 2.57   4 2.57  10 2.57
                            17 2.57
   3  0.667  0.000  0.206-   1 2.57   7 2.57   6 2.57   9 2.57   2 2.57  12 2.57   5 2.57  18 2.57
                            11 2.57
   4  0.000  0.333  0.206-   5 2.57   6 2.57   1 2.57   7 2.57   2 2.57  13 2.57   9 2.57  10 2.57
                            15 2.57
   5  0.333  0.333  0.206-   4 2.57   2 2.57   7 2.57  13 2.57   8 2.57   6 2.57   3 2.57  11 2.57
                            14 2.57
   6  0.667  0.333  0.206-   4 2.57   9 2.57  15 2.57   3 2.57   1 2.57   8 2.57  14 2.57   5 2.57
                            12 2.57
   7  0.000  0.667  0.206-   1 2.57   3 2.57  16 2.57  18 2.57   4 2.57   5 2.57   8 2.57   9 2.57
                            13 2.57
   8  0.333  0.667  0.206-   9 2.57   2 2.57  17 2.57   6 2.57   1 2.57   7 2.57   5 2.57  14 2.57
                            16 2.57
   9  0.667  0.667  0.206-   8 2.57   6 2.57   2 2.57  17 2.57   3 2.57   7 2.57   4 2.57  15 2.57
                            18 2.57
  10  0.111  0.111  0.286-  20 2.55  26 2.56  19 2.56  11 2.57  12 2.57  13 2.57   1 2.57   2 2.57
                             4 2.57  15 2.57  16 2.57  17 2.57
  11  0.444  0.111  0.286-  20 2.55  21 2.55  27 2.56  10 2.57  13 2.57   2 2.57  17 2.57  14 2.57
                            12 2.57   5 2.57   3 2.57  18 2.57
  12  0.778  0.111  0.286-  21 2.55  19 2.56  25 2.56  15 2.57  10 2.57  14 2.57  18 2.57   3 2.57
                             1 2.57  16 2.57  11 2.57   6 2.57
  13  0.111  0.444  0.286-  23 2.55  20 2.55  22 2.56  16 2.57  18 2.57  10 2.57  11 2.57  14 2.57
                             5 2.57   4 2.57   7 2.57  15 2.57
  14  0.444  0.444  0.286-  21 2.55  23 2.55  24 2.56  15 2.57  17 2.57  12 2.57  16 2.57  13 2.57
                            11 2.57   6 2.57   8 2.57   5 2.57
  15  0.778  0.444  0.286-  24 2.55  22 2.55  19 2.56  14 2.57  17 2.57  12 2.57   6 2.57  18 2.57
                            10 2.57   9 2.57  13 2.57   4 2.57
  16  0.111  0.778  0.286-  23 2.55  25 2.56  26 2.56  18 2.57  13 2.57   7 2.57  14 2.57  17 2.57
                            12 2.57  10 2.57   8 2.57   1 2.57
  17  0.444  0.778  0.286-  27 2.55  24 2.55  26 2.56  14 2.57  15 2.57   8 2.57   9 2.57  11 2.57
                            16 2.57  18 2.57  10 2.57   2 2.57
  18  0.778  0.778  0.286-  22 2.55  27 2.55  25 2.56  16 2.57  13 2.57   7 2.57  15 2.57  12 2.57
                            17 2.57   9 2.57   3 2.57  11 2.57
  19  0.889  0.223  0.365-  28 2.54  32 2.55  31 2.55  15 2.56  12 2.56  10 2.56  22 2.56  24 2.56
                            21 2.57  20 2.57  25 2.57  26 2.57
  20  0.222  0.222  0.365-  36 2.48  29 2.54  31 2.54  10 2.55  11 2.55  13 2.55  26 2.57  19 2.57
                            27 2.57  22 2.57  23 2.57  21 2.57
  21  0.556  0.222  0.365-  36 2.48  32 2.54  30 2.54  12 2.55  14 2.55  11 2.55  19 2.57  25 2.57
                            24 2.57  27 2.57  20 2.57  23 2.57
  22  0.889  0.556  0.365-  35 2.54  31 2.55  33 2.55  18 2.55  15 2.55  13 2.56  19 2.56  25 2.56
                            24 2.57  27 2.57  23 2.57  20 2.57
  23  0.222  0.556  0.365-  36 2.48  33 2.54  34 2.54  16 2.55  13 2.55  14 2.55  25 2.57  26 2.57
                            22 2.57  24 2.57  20 2.57  21 2.57
  24  0.556  0.556  0.365-  35 2.54  32 2.55  34 2.55  15 2.55  17 2.55  14 2.56  19 2.56  26 2.56
                            22 2.57  27 2.57  21 2.57  23 2.57
  25  0.889  0.889  0.365-  28 2.54  33 2.55  30 2.55  18 2.56  16 2.56  12 2.56  22 2.56  27 2.56
                            21 2.57  23 2.57  19 2.57  26 2.57
  26  0.223  0.889  0.365-  28 2.54  29 2.55  34 2.55  17 2.56  10 2.56  16 2.56  27 2.56  24 2.56
                            20 2.57  23 2.57  25 2.57  19 2.57
  27  0.556  0.889  0.365-  35 2.54  29 2.55  30 2.55  17 2.55  18 2.55  11 2.56  26 2.56  25 2.56
                            24 2.57  22 2.57  20 2.57  21 2.57
  28  0.000  0.000  0.444-  25 2.54  19 2.54  26 2.54  33 2.57  30 2.57  31 2.57  29 2.57  32 2.57
                            34 2.57
  29  0.333  0.002  0.445-  20 2.54  27 2.55  31 2.55  36 2.55  30 2.55  26 2.55  28 2.57  35 2.57
                            34 2.60
  30  0.665  0.002  0.445-  21 2.54  27 2.55  32 2.55  36 2.55  29 2.55  25 2.55  28 2.57  35 2.57
                            33 2.60
  31  0.002  0.333  0.445-  20 2.54  22 2.55  29 2.55  36 2.55  33 2.55  19 2.55  28 2.57  35 2.57
                            32 2.60
  32  0.665  0.333  0.445-  21 2.54  24 2.55  30 2.55  36 2.55  34 2.55  19 2.55  28 2.57  35 2.57
                            31 2.60
  33  0.002  0.665  0.445-  23 2.54  22 2.55  34 2.55  36 2.55  31 2.55  25 2.55  28 2.57  35 2.57
                            30 2.60
  34  0.333  0.665  0.445-  23 2.54  24 2.55  33 2.55  36 2.55  32 2.55  26 2.55  28 2.57  35 2.57
                            29 2.60
  35  0.667  0.667  0.444-  24 2.54  27 2.54  22 2.54  34 2.57  32 2.57  29 2.57  30 2.57  33 2.57
                            31 2.57
  36  0.333  0.333  0.441-  37 1.67  23 2.48  20 2.48  21 2.48  31 2.55  29 2.55  33 2.55  34 2.55
                            32 2.55  30 2.55
  37  0.333  0.333  0.506-  38 1.26  36 1.67
  38  0.333  0.333  0.554-  39 0.96  37 1.26
  39  0.333  0.333  0.591-  38 0.96

  LATTYP: Found a hexagonal cell.
 ALAT       =     7.6967864036
 C/A-ratio  =     3.3950614187

  Lattice vectors:

 A1 = (  -3.8483927580,  -6.6656128093,   0.0000000000)
 A2 = (   7.6967864037,   0.0000000000,   0.0000000000)
 A3 = (   0.0000000000,   0.0000000000,  26.1310625667)

Analysis of symmetry for initial positions (statically):
 Subroutine PRICEL returns:
 Original cell was already a primitive cell.

 Routine SETGRP: Setting up the symmetry group for a
 hexagonal supercell.

 Subroutine GETGRP returns: Found  6 space group operations
 (whereof  6 operations were pure point group operations)
 out of a pool of 24 trial point group operations.

The static configuration has the point symmetry C_3v.

Analysis of symmetry for dynamics (positions and initial velocities):
[...]
     41      -3.8898      2.00000
     42      -3.7801      2.00000
     43      -3.7760      2.00000
     44      -3.7291      2.00000
     45      -3.7029      2.00000
     46      -3.6899      2.00000
     47      -3.6722      2.00000
     48      -3.6572      2.00000
     49      -3.6487      2.00000
     50      -3.6435      2.00000
     51      -3.4789      2.00000
     52      -3.4446      2.00000
     53      -3.4420      2.00000
     54      -3.4203      2.00000
     55      -3.4014      2.00000
     56      -3.3970      2.00000
     57      -3.3597      2.00000
     58      -3.3555      2.00000
     59      -3.3510      2.00000
     60      -3.3185      2.00000
[...]
    238       5.1805      0.00000
    239       5.3077      0.00000
    240       5.3274      0.00000
    241       5.4382      0.00000
    242       5.4542      0.00000
    243       5.4775      0.00000
    244       5.6221      0.00000
    245       5.7774      0.00000
    246       5.8271      0.00000
    247       5.8628      0.00000
    248       6.0151      0.00000
    249       6.1657      0.00000
    250       6.2659      0.00000
    251       6.5578      0.00000
    252       6.8269      0.00000

 soft charge-density along one line, spin component           1
         0         1         2         3         4         5         6         7         8         9
 total charge-density along one line

------------------------ aborting loop because EDIFF is reached ----------------------------------------

 total charge

# of ion       s       p       d       tot
    1        0.445   0.286   9.186   9.918
    2        0.449   0.285   9.187   9.921
    3        0.449   0.285   9.187   9.921
    4        0.449   0.285   9.187   9.921
    5        0.446   0.286   9.189   9.921
    6        0.449   0.285   9.187   9.921
    7        0.449   0.285   9.187   9.921
    8        0.449   0.285   9.187   9.921
    9        0.445   0.288   9.185   9.918
   10        0.442   0.371   9.179   9.992
   11        0.443   0.371   9.179   9.992
   12        0.442   0.371   9.179   9.992
   13        0.443   0.371   9.179   9.992
   14        0.443   0.371   9.179   9.992
   15        0.440   0.370   9.181   9.991
   16        0.442   0.371   9.179   9.992
   17        0.440   0.370   9.181   9.991
   18        0.440   0.370   9.181   9.991
   19        0.444   0.372   9.181   9.996
   20        0.448   0.389   9.173  10.009
   21        0.448   0.389   9.173  10.009
   22        0.440   0.375   9.180   9.995
   23        0.448   0.389   9.173  10.009
   24        0.440   0.375   9.180   9.995
   25        0.444   0.372   9.181   9.996
   26        0.444   0.372   9.181   9.996
   27        0.440   0.375   9.180   9.995
   28        0.451   0.288   9.190   9.929
   29        0.439   0.294   9.194   9.927
   30        0.439   0.294   9.194   9.927
   31        0.439   0.294   9.194   9.927
   32        0.439   0.294   9.194   9.927
   33        0.439   0.294   9.194   9.927
   34        0.439   0.294   9.194   9.927
   35        0.450   0.287   9.190   9.927
   36        0.519   0.680   8.397   9.596
   37        0.940   1.389   0.000   2.329
   38        1.531   3.745   0.000   5.276
   39        0.556   0.130   0.000   0.687
tot         19.081  17.597 329.841 366.519

  FORCE on cell =-STRESS in cart. coord.  units (eV):
  Direction    XX          YY          ZZ          XY          YZ          ZX
  Alpha Z   734.12014   734.12014   734.12014
  Ewald  274996.62106274996.62058************     0.00043     0.00011     0.00020
  Hartree288229.16893288229.16887************     0.00006     0.00005     0.00009
  E(xc)   -2349.90948 -2349.90910 -2352.48764    -0.00032    -0.00003    -0.00006
  Local  ************************576149.79662     0.01904    -0.00060    -0.00104
  n-local  -796.70442  -784.66002  -802.95983     6.87799    -0.05442     0.16554
  augment  3495.77361  3495.79419  3496.05125    -0.01782     0.00039     0.00071
  Kinetic  3427.23419  3426.23881  3384.21763     1.38038     2.13671    -1.42466
  Fock        0.00000     0.00000     0.00000     0.00000     0.00000     0.00000
  Total      -4.66925    -4.66925     2.91555     0.00000    -0.00000    -0.00000
  in kB      -5.58022    -5.58022     3.48437     0.00000    -0.00000    -0.00000

 VOLUME and BASIS-vectors are now :
  energy-cutoff  :      500.00
  volume of cell :     1340.62
      direct lattice vectors                 reciprocal lattice vectors
     7.696786404  0.000000000  0.000000000     0.129924354 -0.075011849  0.000000000
     3.848392758  6.665612809  0.000000000     0.000000000  0.150023716  0.000000000
     0.000000000  0.000000000 26.131062567     0.000000000  0.000000000  0.038268631

  length of vectors
     7.696786404  7.696786404 26.131062567     0.150023716  0.150023716  0.038268631

 FORCES acting on ions
    electron-ion (+dipol)            ewald-force                    non-local-force                 convergence-correction
   -.436E-04 -.103E-05 0.397E+04   0.578E-04 -.445E-05 -.397E+04   -.110E-17 -.111E-18 -.254E+01   -.307E-03 -.144E-03 -.376E+00
   0.317E+00 0.413E+00 0.397E+04   -.256E+00 -.318E+00 -.397E+04   -.436E-01 -.857E-01 -.189E+01   -.218E-01 -.576E-02 -.227E+00
   -.317E+00 0.413E+00 0.397E+04   0.256E+00 -.318E+00 -.397E+04   0.436E-01 -.857E-01 -.189E+01   0.226E-01 -.320E-02 -.227E+00
   0.516E+00 0.681E-01 0.397E+04   -.403E+00 -.625E-01 -.397E+04   -.960E-01 0.508E-02 -.189E+01   -.158E-01 -.161E-01 -.227E+00
   -.712E-04 -.880E-05 0.397E+04   0.116E-03 -.101E-04 -.397E+04   -.767E-17 -.113E-17 -.220E+01   0.122E-01 0.744E-02 -.104E+00
   -.516E+00 0.682E-01 0.397E+04   0.403E+00 -.627E-01 -.397E+04   0.960E-01 0.508E-02 -.189E+01   0.142E-01 -.148E-01 -.226E+00
   0.199E+00 -.481E+00 0.397E+04   -.147E+00 0.380E+00 -.397E+04   -.524E-01 0.806E-01 -.189E+01   0.857E-02 0.212E-01 -.226E+00
   -.199E+00 -.481E+00 0.397E+04   0.147E+00 0.380E+00 -.397E+04   0.524E-01 0.806E-01 -.189E+01   -.508E-02 0.197E-01 -.226E+00
   -.146E-03 -.340E-04 0.397E+04   0.264E-03 0.206E-04 -.397E+04   0.228E-17 0.524E-17 -.218E+01   -.132E-01 -.683E-02 -.213E+00
   0.304E+01 0.176E+01 0.140E+04   -.283E+01 -.163E+01 -.140E+04   -.261E+00 -.151E+00 -.879E+00   0.669E-01 0.386E-01 0.150E+00
   -.893E-04 0.300E+01 0.141E+04   0.190E-03 -.303E+01 -.141E+04   0.435E-08 -.654E-01 -.891E+00   0.117E-01 0.729E-01 0.253E+00
   -.304E+01 0.176E+01 0.140E+04   0.283E+01 -.163E+01 -.140E+04   0.261E+00 -.151E+00 -.879E+00   -.684E-01 0.402E-01 0.149E+00
   0.260E+01 -.150E+01 0.141E+04   -.262E+01 0.151E+01 -.141E+04   -.566E-01 0.327E-01 -.891E+00   0.695E-01 -.255E-01 0.253E+00
   -.260E+01 -.150E+01 0.141E+04   0.262E+01 0.151E+01 -.141E+04   0.566E-01 0.327E-01 -.891E+00   -.453E-01 -.265E-01 0.252E+00
   -.142E-03 0.397E-01 0.140E+04   0.300E-03 -.775E-01 -.140E+04   -.527E-09 0.791E-02 -.550E+00   -.353E-02 0.213E-01 0.158E+00
   -.903E-04 -.351E+01 0.140E+04   0.185E-03 0.326E+01 -.140E+04   -.201E-07 0.301E+00 -.879E+00   -.354E-03 -.806E-01 0.149E+00
   0.344E-01 -.200E-01 0.140E+04   -.670E-01 0.390E-01 -.140E+04   0.685E-02 -.396E-02 -.550E+00   0.174E-01 -.137E-01 0.158E+00
   -.343E-01 -.199E-01 0.140E+04   0.668E-01 0.389E-01 -.140E+04   -.685E-02 -.396E-02 -.550E+00   -.163E-01 -.111E-01 0.159E+00
   -.549E-04 0.232E+01 -.120E+04   0.652E-04 -.249E+01 0.119E+04   -.580E-08 0.872E-01 0.641E+00   -.108E-01 0.647E-01 0.400E+00
   0.141E+02 0.817E+01 -.116E+04   -.137E+02 -.790E+01 0.116E+04   -.581E+00 -.335E+00 -.632E+00   0.117E+00 0.676E-01 0.392E+00
   -.141E+02 0.817E+01 -.116E+04   0.137E+02 -.790E+01 0.116E+04   0.581E+00 -.335E+00 -.632E+00   -.136E+00 0.682E-01 0.392E+00
   0.774E+01 -.447E+01 -.119E+04   -.809E+01 0.467E+01 0.119E+04   0.293E+00 -.169E+00 0.835E+00   0.822E-01 -.600E-01 0.465E+00
   -.716E-04 -.163E+02 -.116E+04   0.141E-03 0.158E+02 0.116E+04   -.447E-07 0.671E+00 -.632E+00   -.101E-01 -.153E+00 0.392E+00
   -.774E+01 -.447E+01 -.119E+04   0.809E+01 0.467E+01 0.119E+04   -.293E+00 -.169E+00 0.835E+00   -.103E+00 -.604E-01 0.466E+00
   -.201E+01 -.116E+01 -.120E+04   0.215E+01 0.124E+01 0.119E+04   -.755E-01 -.436E-01 0.641E+00   -.703E-01 -.406E-01 0.399E+00
   0.201E+01 -.116E+01 -.120E+04   -.215E+01 0.124E+01 0.119E+04   0.755E-01 -.436E-01 0.641E+00   0.510E-01 -.415E-01 0.400E+00
   -.134E-03 0.893E+01 -.119E+04   0.245E-03 -.934E+01 0.119E+04   -.225E-07 0.338E+00 0.835E+00   -.109E-01 0.101E+00 0.466E+00
   -.241E-04 0.217E-04 -.380E+04   0.301E-04 -.359E-04 0.380E+04   -.623E-18 -.709E-18 0.172E+01   -.609E-04 0.144E-04 0.614E+00
   0.298E+02 0.529E+02 -.377E+04   -.304E+02 -.538E+02 0.377E+04   0.418E+00 0.728E+00 0.274E+01   0.694E-01 0.609E-01 0.601E+00
   -.298E+02 0.529E+02 -.377E+04   0.304E+02 -.538E+02 0.377E+04   -.418E+00 0.728E+00 0.274E+01   -.685E-01 0.632E-01 0.601E+00
   0.607E+02 -.618E+00 -.377E+04   -.618E+02 0.601E+00 0.377E+04   0.840E+00 -.184E-02 0.274E+01   0.875E-01 0.296E-01 0.601E+00
   -.607E+02 -.618E+00 -.377E+04   0.618E+02 0.600E+00 0.377E+04   -.840E+00 -.184E-02 0.274E+01   -.887E-01 0.306E-01 0.601E+00
   0.309E+02 -.522E+02 -.377E+04   -.314E+02 0.532E+02 0.377E+04   0.421E+00 -.726E+00 0.274E+01   0.205E-01 -.909E-01 0.601E+00
   -.309E+02 -.522E+02 -.377E+04   0.314E+02 0.532E+02 0.377E+04   -.421E+00 -.726E+00 0.274E+01   -.171E-01 -.921E-01 0.601E+00
   -.136E-03 -.180E-04 -.380E+04   0.262E-03 0.727E-05 0.379E+04   -.202E-17 -.974E-18 0.177E+01   -.130E-01 -.670E-02 0.612E+00
   -.680E-04 -.252E-04 -.315E+04   0.130E-03 0.238E-04 0.315E+04   -.296E-16 0.438E-17 0.512E+01   0.889E-02 0.542E-02 0.587E+00
   -.557E-05 -.716E-04 -.158E+04   0.136E-04 0.608E-05 0.156E+04   -.261E-18 0.122E-18 0.205E+02   0.117E-02 0.709E-03 0.714E-01
   0.230E-03 -.711E-04 -.239E+04   0.293E-05 0.284E-05 0.239E+04   0.282E-18 0.183E-18 -.523E+01   0.338E-02 0.207E-02 -.121E+00
   0.301E-05 -.141E-04 -.425E+03   0.741E-07 0.185E-06 0.433E+03   0.307E-19 -.404E-19 -.841E+01   0.175E-03 0.107E-03 -.229E-01
   -.377E-04 -.175E-03 -.179E+02   -.156E-12 0.127E-12 0.149E-10   0.135E-15 0.226E-15 0.923E+01   -.541E-01 -.339E-01 0.875E+01

 POSITION                                       TOTAL-FORCE (eV/Angst)
      0.00000      0.00000      5.37156         0.000000     -0.000000      0.070639
      2.56560      0.00000      5.37156        -0.003787      0.004603      0.065795
      5.13119      0.00000      5.37156         0.003787      0.004603      0.065795
      1.28280      2.22187      5.37156         0.002093     -0.005581      0.065795
      3.84839      2.22187      5.37156         0.000000     -0.000000      0.036098
      6.41399      2.22187      5.37156        -0.002093     -0.005581      0.065795
      2.56560      4.44374      5.37156         0.005880      0.000978      0.065795
      5.13119      4.44374      5.37156        -0.005880      0.000978      0.065795
      7.69679      4.44374      5.37156         0.000000     -0.000000      0.075505
      1.28280      0.74062      7.46636         0.023804      0.013743     -0.052165
      3.84839      0.74062      7.46636         0.000000     -0.028199     -0.141750
      6.41399      0.74062      7.46636        -0.023804      0.013743     -0.052165
      2.56560      2.96249      7.46636        -0.024421      0.014100     -0.141750
      5.13119      2.96249      7.46636         0.024421      0.014100     -0.141750
      7.69679      2.96249      7.46636         0.000000     -0.008849     -0.054141
      3.84839      5.18437      7.46636         0.000000     -0.027487     -0.052165
      6.41399      5.18437      7.46636        -0.007664      0.004425     -0.054141
      8.97958      5.18437      7.46636         0.007664      0.004425     -0.054141
      7.69679      1.48353      9.55071         0.000000     -0.010090     -0.008518
      2.56540      1.48114      9.54275         0.012036      0.006949     -0.170000
      5.13138      1.48114      9.54275        -0.012036      0.006949     -0.170000
      8.97935      3.70325      9.54809         0.031149     -0.017984      0.008379
      3.84839      3.70334      9.54275         0.000000     -0.013898     -0.170000
      6.41422      3.70325      9.54809        -0.031149     -0.017984      0.008379
     10.26040      5.92385      9.55071         0.008738      0.005045     -0.008518
      5.13317      5.92385      9.55071        -0.008738      0.005045     -0.008518
      7.69679      5.92472      9.54809        -0.000000      0.035968      0.008379
      0.00000      0.00000     11.61525         0.000000     -0.000000     -0.003752
      2.57297      0.01446     11.62005        -0.105117     -0.202450      0.015396
      5.12381      0.01446     11.62005         0.105117     -0.202450      0.015396
      1.29901      2.22103     11.62005        -0.227885      0.010191      0.015396
      6.39777      2.22103     11.62005         0.227885      0.010191      0.015396
      2.57443      4.43012     11.62005        -0.122768      0.192259      0.015396
      5.12235      4.43012     11.62005         0.122768      0.192259      0.015396
      7.69679      4.44374     11.61370        -0.000000     -0.000000      0.017553
      3.84839      2.22187     11.53520        -0.000000     -0.000000      0.553518
      3.84839      2.22187     13.21019         0.000000     -0.000000      0.040141
      3.84839      2.22187     14.47009         0.000000     -0.000000     -0.036283
      3.84839      2.22187     15.43456         0.000000     -0.000000      0.014017
    total drift:                               -0.054150     -0.034117      0.051837

  FREE ENERGIE OF THE ION-ELECTRON SYSTEM (eV)
  free  energy   TOTEN  =      -144.71714243 eV

  energy  without entropy=     -144.71714243  energy(sigma->0) =     -144.71714243

 stress matrix after NEB project (eV)
     -4.66925      0.00000     -0.00000
      0.00000     -4.66925     -0.00000
     -0.00000     -0.00000      2.91555
  FORCES: max atom, RMS     0.040141    0.008950
  FORCE total and by dimension    0.055895    0.040141
  Stress total and by dimension    7.218328    4.669251
|           W    W    AA    RRRRR   N    N  II  N    N   GGGG   !!!           |
|           W    W   A  A   R    R  NN   N  II  NN   N  G    G  !!!           |
|           W    W  A    A  R    R  N N  N  II  N N  N  G       !!!           |
|           W WW W  AAAAAA  RRRRR   N  N N  II  N  N N  G  GGG   !            |
|           WW  WW  A    A  R   R   N   NN  II  N   NN  G    G                |
|           W    W  A    A  R    R  N    N  II  N    N   GGGG   !!!           |
|     Tetrahedron method does not include variations of the Fermi             |
|     occupations, so forces and stress will be inaccurate. We suggest        |
|     using a different smearing scheme ISMEAR = 1 or 2 for metals in         |
|     relaxations.                                                            |

 total charge

# of ion       s       p       d       tot
    1        0.445   0.286   9.186   9.918
    2        0.449   0.285   9.187   9.921
    3        0.449   0.285   9.187   9.921
    4        0.449   0.285   9.187   9.921
    5        0.446   0.286   9.189   9.921
    6        0.449   0.285   9.187   9.921
    7        0.449   0.285   9.187   9.921
    8        0.449   0.285   9.187   9.921
    9        0.445   0.288   9.185   9.918
   10        0.442   0.371   9.179   9.992
   11        0.443   0.371   9.179   9.992
   12        0.442   0.371   9.179   9.992
   13        0.443   0.371   9.179   9.992
   14        0.443   0.371   9.179   9.992
   15        0.440   0.370   9.181   9.991
   16        0.442   0.371   9.179   9.992
   17        0.440   0.370   9.181   9.991
   18        0.440   0.370   9.181   9.991
   19        0.444   0.372   9.181   9.996
   20        0.448   0.389   9.173  10.009
   21        0.448   0.389   9.173  10.009
   22        0.440   0.375   9.180   9.995
   23        0.448   0.389   9.173  10.009
   24        0.440   0.375   9.180   9.995
   25        0.444   0.372   9.181   9.996
   26        0.444   0.372   9.181   9.996
   27        0.440   0.375   9.180   9.995
   28        0.451   0.288   9.190   9.929
   29        0.439   0.294   9.194   9.927
   30        0.439   0.294   9.194   9.927
   31        0.439   0.294   9.194   9.927
   32        0.439   0.294   9.194   9.927
   33        0.439   0.294   9.194   9.927
   34        0.439   0.294   9.194   9.927
   35        0.450   0.287   9.190   9.927
   36        0.519   0.680   8.397   9.596
   37        0.940   1.389   0.000   2.329
   38        1.531   3.745   0.000   5.276
   39        0.556   0.130   0.000   0.687
tot         19.081  17.597 329.841 366.519

 BZINTS: Fermi energy:   -0.014513;  406.000000 electrons
         Band energy:-0.123468E+04;  BLOECHL correction:   -0.058016