 vasp.6.2.0 18Jan21 (build Jun 12 2021 23:27:24) complex

 executed on             LinuxIFC date 2022.05.27  05:55:14

 INCAR:
   ISMEAR = -5
   SIGMA = 0.1
   ISPIN = 1
   EDIFF = 1.d-5
   EDIFFG = -0.01
   NSW = 0
   NELM = 150
   ENCUT = 500
   ISIF = 2
   IBRION = 2
   LREAL = Auto
   ALGO = Fast
   ICHARG = 11
   LORBIT = 10
   LCHARG = .F.
   LWAVE = .F.

 POTCAR:    PAW_PBE Ag 02Apr2005
 POTCAR:    PAW_PBE Ir 06Sep2000
 POTCAR:    PAW_PBE H 15Jun2001
|           W    W    AA    RRRRR   N    N  II  N    N   GGGG   !!!           |
|           W    W   A  A   R    R  NN   N  II  NN   N  G    G  !!!           |
|           W    W  A    A  R    R  N N  N  II  N N  N  G       !!!           |
|           W WW W  AAAAAA  RRRRR   N  N N  II  N  N N  G  GGG   !            |
|           WW  WW  A    A  R   R   N   NN  II  N   NN  G    G                |
|           W    W  A    A  R    R  N    N  II  N    N   GGGG   !!!           |
|     For optimal performance we recommend to set                             |
|       NCORE = 2 up to number-of-cores-per-socket                            |
|     This setting can greatly improve the performance of VASP for DFT.       |
|     The default, NCORE=1 might be grossly inefficient on modern             |
|     multi-core architectures or massively parallel machines. Do your        |
|     Unfortunately you need to use the default for GW and RPA                |
|     calculations (for HF NCORE is supported but not extensively tested      |
|     yet).                                                                   |

 POTCAR:    PAW_PBE Ag 02Apr2005
   VRHFIN =Ag : s1 d10

   TITEL  = PAW_PBE Ag 02Apr2005
   POMASS =  107.868; ZVAL   =   11.000    mass and valenz
   ENMAX  =  249.844; ENMIN  =  187.383 eV

 POTCAR:    PAW_PBE Ir 06Sep2000
   VRHFIN =Ir: s1d8

   TITEL  = PAW_PBE Ir 06Sep2000
   POMASS =  192.220; ZVAL   =    9.000    mass and valenz
   ENMAX  =  210.864; ENMIN  =  158.148 eV

 POTCAR:    PAW_PBE H 15Jun2001
   VRHFIN =H: ultrasoft test

   TITEL  = PAW_PBE H 15Jun2001
   POMASS =    1.000; ZVAL   =    1.000    mass and valenz
   ENMAX  =  250.000; ENMIN  =  200.000 eV

 Optimization of the real space projectors (new method)

 maximal supplied QI-value         = 15.12
 optimisation between [QCUT,QGAM] = [ 11.34, 22.83] = [ 36.00,145.93] Ry
 Optimized for a Real-space Cutoff    1.43 Angstroem

   l    n(q)    QCUT    max X(q) W(low)/X(q) W(high)/X(q)  e(spline)
   2      9    11.338    53.897    0.16E-03    0.20E-03    0.28E-06
   2      9    11.338    52.416    0.16E-03    0.20E-03    0.29E-06
   0     10    11.338   122.045    0.31E-04    0.76E-04    0.15E-06
   0     10    11.338    73.629    0.30E-04    0.72E-04    0.15E-06
   1      9    11.338    15.255    0.20E-03    0.19E-04    0.17E-06
   1      9    11.338     9.562    0.16E-03    0.15E-04    0.14E-06
 Optimization of the real space projectors (new method)

[...]

   l    n(q)    QCUT    max X(q) W(low)/X(q) W(high)/X(q)  e(spline)
   2      9    11.346   134.116    0.47E-03    0.13E-03    0.92E-06
   2      9    11.346   130.192    0.47E-03    0.13E-03    0.92E-06
   0     10    11.346    60.310    0.74E-04    0.13E-03    0.69E-06
   0     10    11.346    39.218    0.68E-04    0.12E-03    0.65E-06
   1     10    11.346    18.439    0.15E-03    0.34E-04    0.20E-06
   1     10    11.346    12.760    0.12E-03    0.31E-04    0.16E-06
 Optimization of the real space projectors (new method)

 maximal supplied QI-value         = 34.20
 optimisation between [QCUT,QGAM] = [ 11.29, 22.57] = [ 35.68,142.71] Ry
 Optimized for a Real-space Cutoff    1.16 Angstroem

   l    n(q)    QCUT    max X(q) W(low)/X(q) W(high)/X(q)  e(spline)
   0      8    11.287    19.460    0.40E-03    0.73E-03    0.16E-06
   0      8    11.287    12.209    0.38E-03    0.70E-03    0.15E-06
   1      7    11.287     4.655    0.22E-03    0.25E-04    0.22E-06
  PAW_PBE Ag 02Apr2005                  :
  PAW_PBE Ir 06Sep2000                  :
  PAW_PBE H 15Jun2001                   :

 POSCAR: Ag-Ir-H2
  positions in direct lattice
  velocities in cartesian coordinates
 exchange correlation table for  LEXCH =        8
   RHO(1)=    0.500       N(1)  =     2000
   RHO(2)=  100.500       N(2)  =     4000

 VTST: version 3.2, (02/03/18)

 CHAIN: initializing optimizer

 OPT: Using VASP Conjugate-Gradient optimizer
 CHAIN: Read ICHAIN            0

 POSCAR: Ag-Ir-H2
  positions in direct lattice
  velocities in cartesian coordinates

 ion  position               nearest neighbor table
   1  0.000  0.000  0.238-   2 2.93   8 2.93   7 2.93   6 2.93   4 2.93  12 2.93  16 2.93  10 2.93
                             3 2.93
   2  0.333  0.000  0.238-   1 2.93   8 2.93   9 2.93   3 2.93   4 2.93   5 2.93  10 2.93  17 2.93
                            11 2.93
   3  0.667  0.000  0.238-   9 2.93   2 2.93   5 2.93  11 2.93   7 2.93  18 2.93   1 2.93   6 2.93
                            12 2.93
   4  0.000  0.333  0.238-   5 2.93   6 2.93   2 2.93   1 2.93   7 2.93  13 2.93  15 2.93   9 2.93
                            10 2.93
   5  0.333  0.333  0.238-   4 2.93   3 2.93   7 2.93   2 2.93   8 2.93  14 2.93  13 2.93  11 2.93
                             6 2.93
   6  0.667  0.333  0.238-   4 2.93   9 2.93   1 2.93  15 2.93   8 2.93  12 2.93   3 2.93   5 2.93
                            14 2.93
   7  0.000  0.667  0.238-   8 2.93   1 2.93   5 2.93   3 2.93   4 2.93  16 2.93  18 2.93  13 2.93
                             9 2.93
   8  0.333  0.667  0.238-   7 2.93   1 2.93   2 2.93   9 2.93   5 2.93  16 2.93   6 2.93  17 2.93
                            14 2.93
   9  0.667  0.667  0.238-   3 2.93   2 2.93   8 2.93   6 2.93  17 2.93   4 2.93  15 2.93   7 2.93
                            18 2.93
  10  0.111  0.111  0.346-  20 2.89  12 2.93  16 2.93  15 2.93  17 2.93  13 2.93  11 2.93   2 2.93
                             1 2.93   4 2.93  19 2.93  26 2.93
  11  0.444  0.111  0.346-  21 2.90  20 2.90  27 2.92  14 2.93  17 2.93  18 2.93   3 2.93  12 2.93
                            13 2.93  10 2.93   5 2.93   2 2.93
  12  0.778  0.111  0.346-  21 2.89  10 2.93  16 2.93  18 2.93  15 2.93  11 2.93   1 2.93  14 2.93
                             6 2.93   3 2.93  25 2.93  19 2.93
  13  0.111  0.444  0.346-  20 2.90  23 2.90  22 2.92  15 2.93  14 2.93  18 2.93  10 2.93  11 2.93
                            16 2.93   4 2.93   5 2.93   7 2.93
  14  0.444  0.444  0.346-  23 2.90  21 2.90  24 2.92  13 2.93  11 2.93  16 2.93   5 2.93  12 2.93
                            17 2.93   8 2.93  15 2.93   6 2.93
  15  0.778  0.444  0.346-  24 2.92  22 2.92  19 2.93  13 2.93  10 2.93  12 2.93  17 2.93  18 2.93
                             4 2.93   6 2.93   9 2.93  14 2.93
  16  0.111  0.778  0.346-  23 2.89  18 2.93  12 2.93  10 2.93  14 2.93  17 2.93  13 2.93   7 2.93
                             8 2.93   1 2.93  26 2.93  25 2.93
  17  0.444  0.778  0.346-  27 2.92  24 2.92  26 2.93  11 2.93  10 2.93   9 2.93  18 2.93  15 2.93
                            16 2.93   2 2.93  14 2.93   8 2.93
  18  0.778  0.778  0.346-  22 2.92  27 2.92  25 2.93  16 2.93  12 2.93  13 2.93  11 2.93  17 2.93
                            15 2.93   7 2.93   3 2.93   9 2.93
  19  0.888  0.223  0.454-  28 2.90  24 2.92  22 2.92  15 2.93  20 2.93  21 2.93  10 2.93  12 2.93
                            32 2.94  31 2.94  26 2.94  25 2.94
  20  0.222  0.222  0.452-  36 2.77  10 2.89  13 2.90  11 2.90  31 2.92  29 2.92  19 2.93  26 2.93
                            27 2.93  22 2.93  21 2.94  23 2.94
  21  0.556  0.222  0.452-  36 2.77  12 2.89  11 2.90  14 2.90  30 2.92  32 2.92  25 2.93  19 2.93
                            27 2.93  24 2.93  20 2.94  23 2.94
  22  0.888  0.556  0.453-  35 2.90  18 2.92  15 2.92  13 2.92  24 2.92  27 2.92  25 2.92  19 2.92
                            33 2.93  31 2.93  23 2.93  20 2.93
  23  0.222  0.556  0.452-  36 2.77  16 2.89  14 2.90  13 2.90  34 2.92  33 2.92  26 2.93  25 2.93
                            22 2.93  24 2.93  21 2.94  20 2.94
  24  0.556  0.556  0.453-  35 2.90  15 2.92  17 2.92  14 2.92  27 2.92  22 2.92  19 2.92  26 2.92
                            32 2.93  34 2.93  23 2.93  21 2.93
  25  0.888  0.888  0.454-  28 2.90  22 2.92  27 2.92  18 2.93  23 2.93  21 2.93  16 2.93  12 2.93
                            33 2.94  30 2.94  26 2.94  19 2.94
  26  0.223  0.888  0.454-  28 2.90  27 2.92  24 2.92  17 2.93  23 2.93  20 2.93  16 2.93  10 2.93
                            34 2.94  29 2.94  25 2.94  19 2.94
  27  0.556  0.888  0.453-  35 2.90  17 2.92  18 2.92  11 2.92  24 2.92  22 2.92  26 2.92  25 2.92
                            29 2.93  30 2.93  20 2.93  21 2.93
  28  0.000  0.000  0.560-  26 2.90  25 2.90  19 2.90  29 2.96  34 2.96  33 2.96  32 2.96  31 2.96
                            30 2.96
  29  0.333  0.007  0.561-  31 2.87  30 2.88  36 2.88  20 2.92  27 2.93  26 2.94  28 2.96  35 2.96
                            34 3.04
  30  0.660  0.007  0.561-  32 2.87  29 2.88  36 2.88  21 2.92  27 2.93  25 2.94  28 2.96  35 2.96
                            33 3.04
  31  0.007  0.333  0.561-  37 2.24  29 2.87  33 2.88  36 2.88  20 2.92  22 2.93  19 2.94  28 2.96
                            35 2.96  32 3.04
  32  0.660  0.333  0.561-  38 2.24  30 2.87  34 2.88  36 2.88  21 2.92  24 2.93  19 2.94  28 2.96
                            35 2.96  31 3.04
  33  0.007  0.660  0.561-  34 2.87  31 2.88  36 2.88  23 2.92  22 2.93  25 2.94  28 2.96  35 2.96
                            30 3.04
  34  0.333  0.660  0.561-  33 2.87  32 2.88  36 2.88  23 2.92  24 2.93  26 2.94  28 2.96  35 2.96
                            29 3.04
  35  0.667  0.667  0.560-  24 2.90  27 2.90  22 2.90  30 2.96  32 2.96  29 2.96  34 2.96  31 2.96
                            33 2.96
  36  0.333  0.333  0.551-  38 1.61  37 1.61  21 2.77  20 2.77  23 2.77  31 2.88  30 2.88  33 2.88
                            29 2.88  34 2.88  32 2.88
  37  0.235  0.320  0.610-  36 1.61  31 2.24
  38  0.445  0.320  0.610-  36 1.61  32 2.24

  LATTYP: Found a hexagonal cell.
 ALAT       =     8.7913665772
 C/A-ratio  =     2.5227160501

  Lattice vectors:

 A1 = (  -4.3956832886,  -7.6135467898,   0.0000000000)
 A2 = (   8.7913665771,   0.0000000000,   0.0000000000)
 A3 = (   0.0000000000,   0.0000000000,  22.1781215668)

Analysis of symmetry for initial positions (statically):
 Subroutine PRICEL returns:
 Original cell was already a primitive cell.

 Routine SETGRP: Setting up the symmetry group for a
 hexagonal supercell.

 Subroutine GETGRP returns: Found  2 space group operations
 (whereof  2 operations were pure point group operations)
 out of a pool of 24 trial point group operations.

The static configuration has the point symmetry C_1h.

Analysis of symmetry for dynamics (positions and initial velocities):
 Subroutine PRICEL returns:
 Original cell was already a primitive cell.

[...]

The dynamic configuration has the point symmetry C_1h.

Analysis of constrained symmetry for selective dynamics:
 Subroutine PRICEL returns:
 Original cell was already a primitive cell.

 Routine SETGRP: Setting up the symmetry group for a
 hexagonal supercell.

[...]
     33      -4.4217      2.00000
     34      -4.4128      2.00000
     35      -4.3660      2.00000
     36      -4.3376      2.00000
     37      -4.3239      2.00000
     38      -4.3063      2.00000
     39      -4.2751      2.00000
     40      -4.2690      2.00000
     41      -4.2478      2.00000
     42      -4.2399      2.00000
     43      -4.2125      2.00000
     44      -4.1561      2.00000
     45      -4.1430      2.00000
     46      -4.1097      2.00000
     47      -4.1077      2.00000
     48      -4.1003      2.00000
     49      -4.0911      2.00000
     50      -4.0810      2.00000
     51      -4.0780      2.00000
     52      -4.0686      2.00000
     53      -4.0566      2.00000
     54      -4.0484      2.00000
     55      -3.9851      2.00000
     56      -3.9737      2.00000
     57      -3.9664      2.00000
     58      -3.9551      2.00000
     59      -3.9448      2.00000
     60      -3.9231      2.00000
[...]
    238       6.8921      0.00000
    239       7.1712      0.00000
    240       7.2377      0.00000
    241       7.2840      0.00000
    242       7.2872      0.00000
    243       7.3435      0.00000
    244       7.3790      0.00000
    245       7.4095      0.00000
    246       7.5361      0.00000
    247       7.5986      0.00000
    248       7.6451      0.00000
    249       7.6806      0.00000
    250       7.9212      0.00000
    251       8.0120      0.00000
    252       8.0211      0.00000

 soft charge-density along one line, spin component           1
         0         1         2         3         4         5         6         7         8         9
 total charge-density along one line

------------------------ aborting loop because EDIFF is reached ----------------------------------------

 total charge

# of ion       s       p       d       tot
    1        0.417   0.201   9.179   9.797
    2        0.419   0.202   9.177   9.798
    3        0.419   0.202   9.177   9.798
    4        0.419   0.203   9.177   9.799
    5        0.420   0.204   9.175   9.798
    6        0.419   0.203   9.177   9.799
    7        0.419   0.203   9.177   9.799
    8        0.419   0.203   9.177   9.799
    9        0.414   0.203   9.179   9.796
   10        0.407   0.269   9.164   9.839
   11        0.411   0.268   9.167   9.846
   12        0.407   0.269   9.164   9.839
   13        0.409   0.268   9.167   9.845
   14        0.409   0.268   9.167   9.845
   15        0.401   0.271   9.165   9.837
   16        0.407   0.269   9.164   9.840
   17        0.400   0.271   9.166   9.837
   18        0.400   0.271   9.166   9.837
   19        0.401   0.267   9.167   9.835
   20        0.429   0.291   9.154   9.874
   21        0.429   0.291   9.154   9.874
   22        0.394   0.276   9.166   9.837
   23        0.425   0.297   9.151   9.873
   24        0.394   0.276   9.166   9.837
   25        0.403   0.267   9.166   9.836
   26        0.403   0.267   9.166   9.836
   27        0.395   0.275   9.167   9.837
   28        0.417   0.194   9.184   9.795
   29        0.405   0.215   9.180   9.800
   30        0.405   0.215   9.180   9.800
   31        0.400   0.231   9.172   9.803
   32        0.400   0.231   9.172   9.803
   33        0.407   0.214   9.178   9.800
   34        0.407   0.214   9.178   9.800
   35        0.412   0.196   9.185   9.793
   36        0.634   0.539   7.187   8.361
   37        0.510   0.025   0.000   0.535
   38        0.510   0.025   0.000   0.535
tot         15.996   9.056 328.157 353.209

  FORCE on cell =-STRESS in cart. coord.  units (eV):
  Direction    XX          YY          ZZ          XY          YZ          ZX
  Alpha Z   757.06234   757.06234   757.06234
  Ewald  121641.35369121594.39166************     0.00002    -2.86718     0.00001
  Hartree131789.72376131777.55069************     0.00001    -0.01802     0.00000
  E(xc)   -2076.42323 -2076.79178 -2082.13848    -0.00002    -0.05040     0.00000
  Local  ************************264956.52260     0.00029     1.54280    -0.00005
  n-local  -335.90539  -335.39693  -339.99887     2.43603     0.05026     0.13762
  augment  3259.61709  3261.42356  3266.75225    -0.00013     0.29243     0.00003
  Kinetic  4901.70346  4909.47598  4922.03218     1.24406     1.30814     0.01055
  Fock        0.00000     0.00000     0.00000     0.00000     0.00000     0.00000
  Total      -7.37480    -7.17471     0.25815    -0.00000     0.25803     0.00000
  in kB      -7.95963    -7.74367     0.27862    -0.00000     0.27849     0.00000

 VOLUME and BASIS-vectors are now :
  energy-cutoff  :      500.00
  volume of cell :     1484.46
      direct lattice vectors                 reciprocal lattice vectors
     8.791366577  0.000000000  0.000000000     0.113747958 -0.065672414  0.000000000
     4.395683289  7.613546790  0.000000000     0.000000000  0.131344829  0.000000000
     0.000000000  0.000000000 22.178121567     0.000000000  0.000000000  0.045089481

  length of vectors
     8.791366577  8.791366577 22.178121567     0.131344829  0.131344829  0.045089481

 FORCES acting on ions
    electron-ion (+dipol)            ewald-force                    non-local-force                 convergence-correction
   0.458E-04 -.551E-02 0.251E+04   -.954E-04 -.155E-01 -.250E+04   0.802E-13 0.122E-01 -.242E+01   -.126E-03 0.100E-01 -.218E+00
   0.493E+00 0.421E+00 0.251E+04   -.533E+00 -.499E+00 -.250E+04   0.342E-01 0.728E-01 -.165E+01   0.194E-01 0.257E-01 -.215E+00
   -.493E+00 0.421E+00 0.251E+04   0.533E+00 -.499E+00 -.250E+04   -.342E-01 0.728E-01 -.165E+01   -.199E-01 0.277E-01 -.215E+00
   0.559E+00 0.213E+00 0.251E+04   -.685E+00 -.212E+00 -.250E+04   0.122E+00 0.123E-01 -.165E+01   0.248E-01 -.139E-01 -.207E+00
   -.784E-05 0.510E-01 0.251E+04   0.981E-04 0.786E-02 -.251E+04   -.200E-12 -.305E-01 -.133E+01   0.630E-02 -.243E-01 -.160E+00
   -.559E+00 0.213E+00 0.251E+04   0.685E+00 -.212E+00 -.250E+04   -.122E+00 0.123E-01 -.165E+01   -.262E-01 -.130E-01 -.206E+00
   0.157E+00 -.641E+00 0.251E+04   -.152E+00 0.711E+00 -.250E+04   0.140E-01 -.837E-01 -.163E+01   0.870E-03 -.915E-02 -.202E+00
   -.157E+00 -.641E+00 0.251E+04   0.152E+00 0.711E+00 -.250E+04   -.140E-01 -.837E-01 -.163E+01   0.806E-03 -.102E-01 -.202E+00
   0.362E-04 -.234E-01 0.251E+04   0.792E-04 0.785E-02 -.250E+04   0.150E-13 0.228E-02 -.211E+01   -.670E-02 0.113E-01 -.226E+00
   0.647E+01 0.383E+01 0.840E+03   -.609E+01 -.360E+01 -.839E+03   -.428E+00 -.250E+00 -.856E+00   0.326E-01 0.131E-01 -.265E-02
   -.290E-04 0.478E+01 0.847E+03   0.410E-04 -.490E+01 -.847E+03   0.620E-12 0.944E-01 -.437E+00   0.644E-02 -.197E-01 0.194E-01
   -.647E+01 0.383E+01 0.840E+03   0.609E+01 -.360E+01 -.839E+03   0.428E+00 -.250E+00 -.856E+00   -.344E-01 0.146E-01 -.211E-02
   0.406E+01 -.241E+01 0.847E+03   -.416E+01 0.251E+01 -.847E+03   0.639E-01 -.786E-01 -.376E+00   0.255E-02 0.185E-02 0.146E-01
   -.406E+01 -.241E+01 0.847E+03   0.416E+01 0.251E+01 -.847E+03   -.639E-01 -.786E-01 -.376E+00   0.857E-02 0.112E-02 0.147E-01
   0.163E-04 0.152E+01 0.841E+03   -.108E-03 -.161E+01 -.840E+03   0.263E-12 0.401E-01 -.844E+00   -.196E-02 0.331E-01 -.306E-01
   -.800E-05 -.747E+01 0.840E+03   0.205E-04 0.700E+01 -.839E+03   0.330E-11 0.502E+00 -.921E+00   0.385E-03 -.318E-01 -.355E-02
   0.137E+01 -.847E+00 0.841E+03   -.148E+01 0.839E+00 -.840E+03   0.366E-01 0.202E-01 -.808E+00   0.475E-01 -.282E-02 -.295E-01
   -.137E+01 -.847E+00 0.841E+03   0.148E+01 0.839E+00 -.840E+03   -.366E-01 0.202E-01 -.808E+00   -.476E-01 -.598E-03 -.290E-01
   0.414E-04 0.356E+01 -.858E+03   -.129E-03 -.349E+01 0.858E+03   -.247E-12 -.377E-01 0.596E+00   -.637E-02 -.212E-01 0.789E-01
   0.106E+02 0.668E+01 -.820E+03   -.965E+01 -.593E+01 0.820E+03   -.106E+01 -.825E+00 -.129E+01   0.649E-01 0.255E-01 0.144E+00
   -.106E+02 0.668E+01 -.820E+03   0.965E+01 -.593E+01 0.820E+03   0.106E+01 -.825E+00 -.129E+01   -.633E-01 0.266E-01 0.144E+00
   0.177E+01 -.168E+01 -.846E+03   -.202E+01 0.186E+01 0.846E+03   0.271E+00 -.160E+00 0.582E+00   0.251E-01 -.409E-01 0.601E-01
   -.539E-04 -.133E+02 -.821E+03   0.430E-04 0.120E+02 0.822E+03   0.933E-11 0.142E+01 -.124E+01   0.216E-02 -.800E-01 0.156E+00
   -.177E+01 -.168E+01 -.846E+03   0.202E+01 0.185E+01 0.846E+03   -.271E+00 -.160E+00 0.582E+00   -.357E-01 -.419E-01 0.602E-01
   -.305E+01 -.119E+01 -.859E+03   0.294E+01 0.112E+01 0.858E+03   0.892E-01 0.374E-01 0.607E+00   0.129E-01 0.234E-01 0.850E-01
   0.305E+01 -.119E+01 -.859E+03   -.294E+01 0.112E+01 0.858E+03   -.892E-01 0.374E-01 0.607E+00   -.222E-01 0.212E-01 0.854E-01
   0.196E-04 0.227E+01 -.847E+03   0.110E-03 -.270E+01 0.846E+03   0.257E-11 0.392E+00 0.611E+00   -.504E-02 0.628E-01 0.487E-01
   0.541E-04 0.243E+01 -.251E+04   -.115E-03 -.232E+01 0.250E+04   -.877E-12 -.133E+00 0.210E+01   -.141E-04 0.136E-02 0.214E+00
   0.113E+02 0.265E+02 -.251E+04   -.107E+02 -.263E+02 0.251E+04   -.653E+00 -.512E+00 0.211E+01   0.424E-01 0.107E+00 0.147E+00
   -.113E+02 0.265E+02 -.251E+04   0.107E+02 -.263E+02 0.251E+04   0.653E+00 -.512E+00 0.211E+01   -.427E-01 0.108E+00 0.146E+00
   0.339E+02 -.207E+01 -.251E+04   -.336E+02 0.228E+01 0.250E+04   -.603E+00 -.138E+00 0.209E+01   0.116E+00 -.350E-01 0.138E+00
   -.339E+02 -.207E+01 -.251E+04   0.336E+02 0.228E+01 0.250E+04   0.603E+00 -.138E+00 0.209E+01   -.118E+00 -.342E-01 0.137E+00
   0.108E+02 -.229E+02 -.251E+04   -.103E+02 0.224E+02 0.251E+04   -.581E+00 0.754E+00 0.199E+01   0.707E-01 -.734E-01 0.134E+00
   -.108E+02 -.229E+02 -.251E+04   0.103E+02 0.224E+02 0.251E+04   0.581E+00 0.754E+00 0.199E+01   -.690E-01 -.743E-01 0.133E+00
   0.236E-04 -.149E+01 -.250E+04   0.106E-03 0.133E+01 0.250E+04   0.101E-11 0.153E+00 0.219E+01   -.667E-02 0.707E-02 0.210E+00
   -.239E-04 -.615E+01 -.191E+04   0.867E-04 0.609E+01 0.191E+04   0.139E-11 0.211E+00 -.279E+01   0.231E-02 -.941E-02 -.986E-02
   0.845E+01 0.671E+00 -.291E+03   -.968E+01 -.811E+00 0.293E+03   0.120E+01 0.139E+00 -.220E+01   0.212E-02 -.138E-02 -.193E-02
   -.845E+01 0.671E+00 -.291E+03   0.968E+01 -.811E+00 0.293E+03   -.120E+01 0.139E+00 -.220E+01   -.202E-02 -.135E-02 -.210E-02
   0.332E-03 -.587E+00 0.126E+02   0.302E-13 0.179E-12 -.722E-11   0.396E-11 0.603E+00 -.128E+02   -.182E-01 -.171E-01 0.208E+00

 POSITION                                       TOTAL-FORCE (eV/Angst)
      0.00000      0.00000      5.28219         0.000000      0.001253      0.022322
      2.93046      0.00000      5.28219         0.013532      0.022080      0.046821
      5.86091      0.00000      5.28219        -0.013532      0.022080      0.046821
      1.46523      2.53785      5.28219         0.021590     -0.000106      0.051400
      4.39568      2.53785      5.28219         0.000000      0.004097      0.021128
      7.32614      2.53785      5.28219        -0.021590     -0.000106      0.051400
      2.93046      5.07570      5.28219         0.019406     -0.023798      0.049403
      5.86091      5.07570      5.28219        -0.019406     -0.023798      0.049403
      8.79137      5.07570      5.28219        -0.000000     -0.001994      0.043000
      1.46523      0.84595      7.67490        -0.007927     -0.005810     -0.012872
      4.39568      0.84595      7.67490        -0.000000     -0.043067     -0.097691
      7.32614      0.84595      7.67490         0.007927     -0.005810     -0.012872
      2.93046      3.38380      7.67490        -0.035879      0.022599     -0.087128
      5.86091      3.38380      7.67490         0.035879      0.022599     -0.087128
      8.79137      3.38380      7.67490        -0.000000     -0.019940     -0.015918
      4.39568      5.92165      7.67490        -0.000000     -0.002937     -0.002040
      7.32614      5.92165      7.67490        -0.025345      0.010591     -0.001209
     10.25659      5.92165      7.67490         0.025345      0.010591     -0.001209
      8.79137      1.70006     10.06849         0.000000      0.007969      0.035229
      2.92657      1.68966     10.02287        -0.075178     -0.051017     -0.223781
      5.86479      1.68966     10.02287         0.075178     -0.051017     -0.223781
     10.25237      4.23218     10.05185         0.043973     -0.027980      0.000407
      4.39568      4.23423     10.02287         0.000000      0.034824     -0.191765
      7.33036      4.23218     10.05185        -0.043973     -0.027980      0.000407
     11.71475      6.76352     10.06849        -0.006931     -0.002900      0.002320
      5.86798      6.76352     10.06849         0.006931     -0.002900      0.002320
      8.79137      6.76272     10.05185         0.000000      0.023874     -0.006388
      0.00000      0.00000     12.42216        -0.000000     -0.022727      0.001086
      2.95716      0.04978     12.43839        -0.043512     -0.164797     -0.056171
      5.83420      0.04978     12.43839         0.043512     -0.164797     -0.056171
      1.52169      2.53609     12.43839        -0.215574      0.033734     -0.051989
      7.26967      2.53609     12.43839         0.215574      0.033734     -0.051989
      2.96021      5.02768     12.43839        -0.050703      0.126477     -0.029251
      5.83115      5.02768     12.43839         0.050703      0.126477     -0.029251
      8.79137      5.07570     12.41166         0.000000      0.003508     -0.001259
      4.39568      2.53785     12.21369         0.000000      0.143515      0.822632
      3.47504      2.43555     13.53660        -0.024845     -0.003261     -0.003116
      5.31633      2.43555     13.53660         0.024845     -0.003261     -0.003116
    total drift:                               -0.017851     -0.000600      0.089969

  FREE ENERGIE OF THE ION-ELECTRON SYSTEM (eV)
  free  energy   TOTEN  =      -104.17024349 eV

  energy  without entropy=     -104.17024349  energy(sigma->0) =     -104.17024349

 stress matrix after NEB project (eV)
     -7.37480     -0.00000      0.00000
     -0.00000     -7.17471      0.25803
      0.00000      0.25803      0.25815
  FORCES: max atom, RMS     0.025251    0.005793
  FORCE total and by dimension    0.035711    0.024845
  Stress total and by dimension   10.298733    7.374800
|           W    W    AA    RRRRR   N    N  II  N    N   GGGG   !!!           |
|           W    W   A  A   R    R  NN   N  II  NN   N  G    G  !!!           |
|           W    W  A    A  R    R  N N  N  II  N N  N  G       !!!           |
|           W WW W  AAAAAA  RRRRR   N  N N  II  N  N N  G  GGG   !            |
|           WW  WW  A    A  R   R   N   NN  II  N   NN  G    G                |
|           W    W  A    A  R    R  N    N  II  N    N   GGGG   !!!           |
|     Tetrahedron method does not include variations of the Fermi             |
|     occupations, so forces and stress will be inaccurate. We suggest        |
|     using a different smearing scheme ISMEAR = 1 or 2 for metals in         |
|     relaxations.                                                            |

 total charge

# of ion       s       p       d       tot
    1        0.417   0.201   9.179   9.797
    2        0.419   0.202   9.177   9.798
    3        0.419   0.202   9.177   9.798
    4        0.419   0.203   9.177   9.799
    5        0.420   0.204   9.175   9.798
    6        0.419   0.203   9.177   9.799
    7        0.419   0.203   9.177   9.799
    8        0.419   0.203   9.177   9.799
    9        0.414   0.203   9.179   9.796
   10        0.407   0.269   9.164   9.839
   11        0.411   0.268   9.167   9.846
   12        0.407   0.269   9.164   9.839
   13        0.409   0.268   9.167   9.845
   14        0.409   0.268   9.167   9.845
   15        0.401   0.271   9.165   9.837
   16        0.407   0.269   9.164   9.840
   17        0.400   0.271   9.166   9.837
   18        0.400   0.271   9.166   9.837
   19        0.401   0.267   9.167   9.835
   20        0.429   0.291   9.154   9.874
   21        0.429   0.291   9.154   9.874
   22        0.394   0.276   9.166   9.837
   23        0.425   0.297   9.151   9.873
   24        0.394   0.276   9.166   9.837
   25        0.403   0.267   9.166   9.836
   26        0.403   0.267   9.166   9.836
   27        0.395   0.275   9.167   9.837
   28        0.417   0.194   9.184   9.795
   29        0.405   0.215   9.180   9.800
   30        0.405   0.215   9.180   9.800
   31        0.400   0.231   9.172   9.803
   32        0.400   0.231   9.172   9.803
   33        0.407   0.214   9.178   9.800
   34        0.407   0.214   9.178   9.800
   35        0.412   0.196   9.185   9.793
   36        0.634   0.539   7.187   8.361
   37        0.510   0.025   0.000   0.535
   38        0.510   0.025   0.000   0.535
tot         15.996   9.056 328.157 353.209

 BZINTS: Fermi energy:    0.872831;  396.000000 electrons
         Band energy:-0.125748E+04;  BLOECHL correction:   -0.064701