 vasp.6.2.0 18Jan21 (build Jun 12 2021 23:27:24) complex

 executed on             LinuxIFC date 2022.05.27  05:45:14

 INCAR:
   ISMEAR = -5
   SIGMA = 0.1
   ISPIN = 1
   EDIFF = 1.d-5
   EDIFFG = -0.01
   NSW = 0
   NELM = 150
   ENCUT = 500
   ISIF = 2
   IBRION = 2
   LREAL = Auto
   ALGO = Fast
   ICHARG = 11
   LORBIT = 10
   LCHARG = .F.
   LWAVE = .F.

 POTCAR:    PAW_PBE Ag 02Apr2005
 POTCAR:    PAW_PBE Pd 04Jan2005
 POTCAR:    PAW_PBE C 08Apr2002
 POTCAR:    PAW_PBE O 08Apr2002
|           W    W    AA    RRRRR   N    N  II  N    N   GGGG   !!!           |
|           W    W   A  A   R    R  NN   N  II  NN   N  G    G  !!!           |
|           W    W  A    A  R    R  N N  N  II  N N  N  G       !!!           |
|           W WW W  AAAAAA  RRRRR   N  N N  II  N  N N  G  GGG   !            |
|           WW  WW  A    A  R   R   N   NN  II  N   NN  G    G                |
|           W    W  A    A  R    R  N    N  II  N    N   GGGG   !!!           |
|     For optimal performance we recommend to set                             |
|       NCORE = 2 up to number-of-cores-per-socket                            |
|     This setting can greatly improve the performance of VASP for DFT.       |
|     The default, NCORE=1 might be grossly inefficient on modern             |
|     multi-core architectures or massively parallel machines. Do your        |
|     Unfortunately you need to use the default for GW and RPA                |
|     calculations (for HF NCORE is supported but not extensively tested      |
|     yet).                                                                   |

 POTCAR:    PAW_PBE Ag 02Apr2005
   VRHFIN =Ag : s1 d10

   TITEL  = PAW_PBE Ag 02Apr2005
   POMASS =  107.868; ZVAL   =   11.000    mass and valenz
   ENMAX  =  249.844; ENMIN  =  187.383 eV

 POTCAR:    PAW_PBE Pd 04Jan2005
   VRHFIN =Pd : s1 d9

   TITEL  = PAW_PBE Pd 04Jan2005
   POMASS =  106.420; ZVAL   =   10.000    mass and valenz
   ENMAX  =  250.925; ENMIN  =  188.194 eV

 POTCAR:    PAW_PBE C 08Apr2002
   VRHFIN =C: s2p2

[...]

 POTCAR:    PAW_PBE O 08Apr2002
   VRHFIN =O: s2p4

   TITEL  = PAW_PBE O 08Apr2002
   POMASS =   16.000; ZVAL   =    6.000    mass and valenz
   ENMAX  =  400.000; ENMIN  =  300.000 eV

 Optimization of the real space projectors (new method)

 maximal supplied QI-value         = 15.12
 optimisation between [QCUT,QGAM] = [ 11.34, 22.83] = [ 36.00,145.93] Ry
 Optimized for a Real-space Cutoff    1.43 Angstroem

   l    n(q)    QCUT    max X(q) W(low)/X(q) W(high)/X(q)  e(spline)
   2      9    11.338    53.897    0.16E-03    0.20E-03    0.28E-06
   2      9    11.338    52.416    0.16E-03    0.20E-03    0.29E-06
   0     10    11.338   122.045    0.31E-04    0.76E-04    0.15E-06
   0     10    11.338    73.629    0.30E-04    0.72E-04    0.15E-06
   1      9    11.338    15.255    0.20E-03    0.19E-04    0.17E-06
   1      9    11.338     9.562    0.16E-03    0.15E-04    0.14E-06
 Optimization of the real space projectors (new method)

[...]

   l    n(q)    QCUT    max X(q) W(low)/X(q) W(high)/X(q)  e(spline)
   0      7    11.310   115.676    0.43E-03    0.13E-02    0.19E-06
   0      7    11.310    87.132    0.43E-03    0.13E-02    0.18E-06
   1      6    11.310     4.429    0.42E-03    0.74E-03    0.11E-06
   1      6    11.310     2.733    0.34E-03    0.55E-03    0.92E-07
 Optimization of the real space projectors (new method)

 maximal supplied QI-value         = 24.76
 optimisation between [QCUT,QGAM] = [ 11.39, 22.77] = [ 36.31,145.25] Ry
 Optimized for a Real-space Cutoff    1.00 Angstroem

   l    n(q)    QCUT    max X(q) W(low)/X(q) W(high)/X(q)  e(spline)
   0      7    11.387    20.381    0.39E-03    0.13E-02    0.15E-06
   0      7    11.387    15.268    0.42E-03    0.14E-02    0.17E-06
   1      6    11.387     5.964    0.41E-03    0.11E-02    0.17E-06
   1      6    11.387     5.382    0.39E-03    0.87E-03    0.15E-06
  PAW_PBE Ag 02Apr2005                  :
  PAW_PBE Pd 04Jan2005                  :
  PAW_PBE C 08Apr2002                   :
  PAW_PBE O 08Apr2002                   :

 POSCAR: Ag-Pd-CO
  positions in direct lattice
  velocities in cartesian coordinates
 exchange correlation table for  LEXCH =        8
   RHO(1)=    0.500       N(1)  =     2000
   RHO(2)=  100.500       N(2)  =     4000

 VTST: version 3.2, (02/03/18)

 CHAIN: initializing optimizer

 OPT: Using VASP Conjugate-Gradient optimizer
 CHAIN: Read ICHAIN            0

 POSCAR: Ag-Pd-CO
  positions in direct lattice
  velocities in cartesian coordinates

 ion  position               nearest neighbor table
   1  0.000  0.000  0.238-   2 2.93   8 2.93   7 2.93   6 2.93   4 2.93  12 2.93  16 2.93  10 2.93
                             3 2.93
   2  0.333  0.000  0.238-   1 2.93   8 2.93   9 2.93   3 2.93   4 2.93   5 2.93  10 2.93  17 2.93
                            11 2.93
   3  0.667  0.000  0.238-   9 2.93   2 2.93   5 2.93  11 2.93   7 2.93  18 2.93   1 2.93   6 2.93
                            12 2.93
   4  0.000  0.333  0.238-   5 2.93   6 2.93   2 2.93   1 2.93   7 2.93  13 2.93  15 2.93   9 2.93
                            10 2.93
   5  0.333  0.333  0.238-   4 2.93   3 2.93   7 2.93   2 2.93   8 2.93  14 2.93  13 2.93  11 2.93
                             6 2.93
   6  0.667  0.333  0.238-   4 2.93   9 2.93   1 2.93  15 2.93   8 2.93  12 2.93   3 2.93   5 2.93
                            14 2.93
   7  0.000  0.667  0.238-   8 2.93   1 2.93   5 2.93   3 2.93   4 2.93  16 2.93  18 2.93  13 2.93
                             9 2.93
   8  0.333  0.667  0.238-   7 2.93   1 2.93   2 2.93   9 2.93   5 2.93  16 2.93   6 2.93  17 2.93
                            14 2.93
   9  0.667  0.667  0.238-   3 2.93   2 2.93   8 2.93   6 2.93  17 2.93   4 2.93  15 2.93   7 2.93
                            18 2.93
  10  0.111  0.111  0.346-  20 2.91  19 2.92  26 2.92  12 2.93  16 2.93  15 2.93  17 2.93  13 2.93
                            11 2.93   2 2.93   1 2.93   4 2.93
  11  0.444  0.111  0.346-  21 2.91  20 2.91  27 2.91  14 2.93  17 2.93  18 2.93   3 2.93  12 2.93
                            13 2.93  10 2.93   5 2.93   2 2.93
  12  0.778  0.111  0.346-  21 2.91  25 2.92  19 2.92  10 2.93  16 2.93  18 2.93  15 2.93  11 2.93
                             1 2.93  14 2.93   6 2.93   3 2.93
  13  0.111  0.444  0.346-  20 2.91  23 2.91  22 2.91  15 2.93  14 2.93  18 2.93  10 2.93  11 2.93
                            16 2.93   4 2.93   5 2.93   7 2.93
  14  0.444  0.444  0.346-  23 2.91  21 2.91  24 2.91  13 2.93  11 2.93  16 2.93   5 2.93  12 2.93
                            17 2.93   8 2.93  15 2.93   6 2.93
  15  0.778  0.444  0.346-  24 2.91  22 2.91  19 2.92  13 2.93  10 2.93  12 2.93  17 2.93  18 2.93
                             4 2.93   6 2.93   9 2.93  14 2.93
  16  0.111  0.778  0.346-  23 2.91  26 2.92  25 2.92  18 2.93  12 2.93  10 2.93  14 2.93  17 2.93
                            13 2.93   7 2.93   8 2.93   1 2.93
  17  0.444  0.778  0.346-  27 2.91  24 2.91  26 2.92  11 2.93  10 2.93   9 2.93  18 2.93  15 2.93
                            16 2.93   2 2.93  14 2.93   8 2.93
  18  0.778  0.778  0.346-  22 2.91  27 2.91  25 2.92  16 2.93  12 2.93  13 2.93  11 2.93  17 2.93
                            15 2.93   7 2.93   3 2.93   9 2.93
  19  0.889  0.223  0.453-  28 2.91  15 2.92  10 2.92  12 2.92  32 2.92  31 2.92  20 2.93  21 2.93
                            24 2.93  22 2.93  26 2.93  25 2.93
  20  0.222  0.222  0.453-  36 2.81  10 2.91  13 2.91  11 2.91  31 2.91  29 2.91  19 2.93  26 2.93
                            27 2.93  22 2.93  21 2.94  23 2.94
  21  0.556  0.222  0.453-  36 2.81  12 2.91  11 2.91  14 2.91  30 2.91  32 2.91  25 2.93  19 2.93
                            27 2.93  24 2.93  20 2.94  23 2.94
  22  0.889  0.556  0.453-  35 2.91  18 2.91  15 2.91  13 2.91  33 2.92  31 2.92  25 2.93  19 2.93
                            24 2.93  27 2.93  23 2.93  20 2.93
  23  0.222  0.556  0.453-  36 2.81  16 2.91  14 2.91  13 2.91  34 2.91  33 2.91  26 2.93  25 2.93
                            22 2.93  24 2.93  21 2.94  20 2.94
  24  0.556  0.556  0.453-  35 2.91  15 2.91  17 2.91  14 2.91  32 2.92  34 2.92  19 2.93  26 2.93
                            27 2.93  22 2.93  23 2.93  21 2.93
  25  0.889  0.889  0.453-  28 2.91  18 2.92  16 2.92  12 2.92  33 2.92  30 2.92  23 2.93  21 2.93
                            22 2.93  27 2.93  26 2.93  19 2.93
  26  0.223  0.889  0.453-  28 2.91  17 2.92  16 2.92  10 2.92  34 2.92  29 2.92  23 2.93  20 2.93
                            27 2.93  24 2.93  25 2.93  19 2.93
  27  0.556  0.889  0.453-  35 2.91  17 2.91  18 2.91  11 2.91  29 2.92  30 2.92  26 2.93  25 2.93
                            24 2.93  22 2.93  20 2.93  21 2.93
  28  0.000  0.000  0.560-  26 2.91  25 2.91  19 2.91  29 2.94  34 2.94  33 2.94  32 2.94  31 2.94
                            30 2.94
  29  0.333  0.003  0.560-  30 2.91  31 2.91  36 2.91  20 2.91  27 2.92  26 2.92  35 2.94  28 2.94
                            34 2.98
  30  0.664  0.003  0.560-  29 2.91  32 2.91  36 2.91  21 2.91  27 2.92  25 2.92  35 2.94  28 2.94
                            33 2.98
  31  0.003  0.333  0.560-  33 2.91  29 2.91  36 2.91  20 2.91  22 2.92  19 2.92  35 2.94  28 2.94
                            32 2.98
  32  0.664  0.333  0.560-  34 2.91  30 2.91  36 2.91  21 2.91  24 2.92  19 2.92  35 2.94  28 2.94
                            31 2.98
  33  0.003  0.664  0.560-  31 2.91  34 2.91  36 2.91  23 2.91  22 2.92  25 2.92  35 2.94  28 2.94
                            30 2.98
  34  0.333  0.664  0.560-  32 2.91  33 2.91  36 2.91  23 2.91  24 2.92  26 2.92  35 2.94  28 2.94
                            29 2.98
  35  0.667  0.667  0.560-  24 2.91  27 2.91  22 2.91  30 2.94  29 2.94  32 2.94  34 2.94  31 2.94
                            33 2.94
  36  0.333  0.333  0.554-  37 1.91  21 2.81  20 2.81  23 2.81  31 2.91  33 2.91  30 2.91  29 2.91
                            34 2.91  32 2.91
  37  0.333  0.333  0.640-  38 1.16  36 1.91
  38  0.333  0.333  0.692-  37 1.16

  LATTYP: Found a hexagonal cell.
 ALAT       =     8.7913665772
 C/A-ratio  =     2.5227160501

  Lattice vectors:

 A1 = (  -4.3956832886,  -7.6135467898,   0.0000000000)
 A2 = (   8.7913665771,   0.0000000000,   0.0000000000)
 A3 = (   0.0000000000,   0.0000000000,  22.1781215668)

Analysis of symmetry for initial positions (statically):
 Subroutine PRICEL returns:
 Original cell was already a primitive cell.

 Routine SETGRP: Setting up the symmetry group for a
 hexagonal supercell.

 Subroutine GETGRP returns: Found  6 space group operations
 (whereof  6 operations were pure point group operations)
 out of a pool of 24 trial point group operations.

The static configuration has the point symmetry C_3v.

Analysis of symmetry for dynamics (positions and initial velocities):
 Subroutine PRICEL returns:
 Original cell was already a primitive cell.

[...]

The dynamic configuration has the point symmetry C_3v.

Analysis of constrained symmetry for selective dynamics:
 Subroutine PRICEL returns:
 Original cell was already a primitive cell.

 Routine SETGRP: Setting up the symmetry group for a
 hexagonal supercell.

[...]
     33      -4.4203      2.00000
     34      -4.4033      2.00000
     35      -4.3941      2.00000
     36      -4.3878      2.00000
     37      -4.3647      2.00000
     38      -4.3390      2.00000
     39      -4.2954      2.00000
     40      -4.2724      2.00000
     41      -4.2698      2.00000
     42      -4.2401      2.00000
     43      -4.2066      2.00000
     44      -4.1973      2.00000
     45      -4.1942      2.00000
     46      -4.1811      2.00000
     47      -4.1648      2.00000
     48      -4.0768      2.00000
     49      -4.0471      2.00000
     50      -4.0398      2.00000
     51      -4.0348      2.00000
     52      -4.0267      2.00000
     53      -4.0229      2.00000
     54      -4.0162      2.00000
     55      -4.0040      2.00000
     56      -3.9967      2.00000
     57      -3.9738      2.00000
     58      -3.9094      2.00000
     59      -3.9062      2.00000
     60      -3.8962      2.00000
[...]
    238       5.9912      0.00000
    239       6.2608      0.00000
    240       6.2864      0.00000
    241       6.3199      0.00000
    242       6.4273      0.00000
    243       6.4831      0.00000
    244       7.2450      0.00000
    245       7.3164      0.00000
    246       7.3496      0.00000
    247       7.3619      0.00000
    248       7.3957      0.00000
    249       7.4331      0.00000
    250       7.4647      0.00000
    251       7.5951      0.00000
    252       7.6771      0.00000

 soft charge-density along one line, spin component           1
         0         1         2         3         4         5         6         7         8         9
 total charge-density along one line

------------------------ aborting loop because EDIFF is reached ----------------------------------------

 total charge

# of ion       s       p       d       tot
    1        0.414   0.204   9.177   9.795
    2        0.419   0.203   9.177   9.798
    3        0.419   0.203   9.177   9.798
    4        0.419   0.203   9.177   9.798
    5        0.416   0.204   9.176   9.796
    6        0.419   0.203   9.177   9.798
    7        0.419   0.203   9.177   9.798
    8        0.419   0.203   9.177   9.798
    9        0.414   0.204   9.178   9.796
   10        0.406   0.270   9.164   9.839
   11        0.410   0.267   9.166   9.843
   12        0.406   0.270   9.164   9.839
   13        0.410   0.267   9.166   9.843
   14        0.410   0.267   9.166   9.843
   15        0.400   0.272   9.165   9.837
   16        0.406   0.270   9.164   9.839
   17        0.400   0.272   9.165   9.837
   18        0.400   0.272   9.165   9.837
   19        0.405   0.269   9.167   9.842
   20        0.415   0.285   9.156   9.855
   21        0.415   0.285   9.156   9.855
   22        0.401   0.275   9.164   9.840
   23        0.415   0.285   9.156   9.855
   24        0.401   0.275   9.164   9.840
   25        0.405   0.269   9.167   9.842
   26        0.405   0.269   9.167   9.842
   27        0.401   0.275   9.164   9.840
   28        0.419   0.201   9.179   9.798
   29        0.410   0.205   9.184   9.799
   30        0.410   0.205   9.184   9.799
   31        0.410   0.205   9.184   9.799
   32        0.410   0.205   9.184   9.799
   33        0.410   0.205   9.184   9.799
   34        0.410   0.205   9.184   9.799
   35        0.418   0.201   9.180   9.800
   36        0.488   0.549   8.519   9.556
   37        0.969   1.522   0.000   2.491
   38        1.618   3.528   0.000   5.146
tot         17.435  13.973 329.527 360.935

  FORCE on cell =-STRESS in cart. coord.  units (eV):
  Direction    XX          YY          ZZ          XY          YZ          ZX
  Alpha Z   768.07690   768.07690   768.07690
  Ewald  119894.46196119894.46203************     0.00004     0.00000     0.00005
  Hartree130457.18423130457.18427************     0.00002     0.00000     0.00002
  E(xc)   -2126.90639 -2126.90646 -2130.45019     0.00006    -0.00000    -0.00000
  Local  ************************261296.02860     0.00056    -0.00006    -0.00019
  n-local  -351.84725  -334.66305  -353.72475    10.77510    -0.44160     0.49391
  augment  3302.19501  3302.19526  3304.63685    -0.00021    -0.00000     0.00000
  Kinetic  5102.05297  5104.32168  5089.50591     4.40093     1.14054    -0.33813
  Fock        0.00000     0.00000     0.00000     0.00000     0.00000     0.00000
  Total      -6.64741    -6.64741    -0.21320    -0.00000    -0.00000     0.00000
  in kB      -7.17455    -7.17455    -0.23010    -0.00000    -0.00000     0.00000

 VOLUME and BASIS-vectors are now :
  energy-cutoff  :      500.00
  volume of cell :     1484.46
      direct lattice vectors                 reciprocal lattice vectors
     8.791366577  0.000000000  0.000000000     0.113747958 -0.065672414  0.000000000
     4.395683289  7.613546790  0.000000000     0.000000000  0.131344829  0.000000000
     0.000000000  0.000000000 22.178121567     0.000000000  0.000000000  0.045089481

  length of vectors
     8.791366577  8.791366577 22.178121567     0.131344829  0.131344829  0.045089481

 FORCES acting on ions
    electron-ion (+dipol)            ewald-force                    non-local-force                 convergence-correction
   0.458E-04 -.283E-04 0.252E+04   -.954E-04 0.593E-04 -.252E+04   0.693E-18 -.180E-17 -.233E+01   -.847E-04 -.156E-03 -.211E-01
   0.202E+00 0.281E+00 0.252E+04   -.256E+00 -.319E+00 -.252E+04   0.119E-01 -.201E-01 -.164E+01   0.461E-01 0.702E-01 -.442E-01
   -.202E+00 0.281E+00 0.252E+04   0.256E+00 -.319E+00 -.252E+04   -.119E-01 -.201E-01 -.164E+01   -.467E-01 0.721E-01 -.435E-01
   0.345E+00 0.343E-01 0.252E+04   -.405E+00 -.619E-01 -.252E+04   -.115E-01 0.203E-01 -.164E+01   0.841E-01 0.500E-02 -.442E-01
   -.601E-05 -.188E-04 0.253E+04   0.981E-04 -.199E-05 -.252E+04   -.700E-17 -.291E-18 -.157E+01   0.618E-02 0.378E-02 -.490E-01
   -.345E+00 0.344E-01 0.252E+04   0.404E+00 -.620E-01 -.252E+04   0.115E-01 0.203E-01 -.164E+01   -.854E-01 0.592E-02 -.435E-01
   0.143E+00 -.316E+00 0.252E+04   -.149E+00 0.381E+00 -.252E+04   -.234E-01 -.250E-03 -.164E+01   0.396E-01 -.760E-01 -.435E-01
   -.143E+00 -.316E+00 0.252E+04   0.149E+00 0.381E+00 -.252E+04   0.234E-01 -.250E-03 -.164E+01   -.380E-01 -.769E-01 -.434E-01
   0.367E-04 -.128E-04 0.252E+04   0.792E-04 -.643E-04 -.252E+04   0.361E-18 0.141E-17 -.201E+01   -.663E-02 -.341E-02 0.127E-01
   0.317E+01 0.183E+01 0.888E+03   -.282E+01 -.163E+01 -.888E+03   -.329E+00 -.190E+00 -.767E+00   0.431E-02 0.251E-02 0.481E-01
   -.290E-04 0.261E+01 0.892E+03   0.414E-04 -.280E+01 -.892E+03   0.445E-12 0.678E-01 -.563E+00   0.619E-02 0.942E-01 0.529E-01
   -.317E+01 0.183E+01 0.888E+03   0.282E+01 -.163E+01 -.888E+03   0.329E+00 -.190E+00 -.767E+00   -.559E-02 0.318E-02 0.472E-01
   0.226E+01 -.130E+01 0.892E+03   -.242E+01 0.140E+01 -.892E+03   0.587E-01 -.339E-01 -.563E+00   0.845E-01 -.417E-01 0.529E-01
   -.226E+01 -.130E+01 0.892E+03   0.242E+01 0.140E+01 -.892E+03   -.587E-01 -.339E-01 -.563E+00   -.742E-01 -.426E-01 0.513E-01
   0.160E-04 0.161E+00 0.888E+03   -.108E-03 -.165E+00 -.888E+03   -.484E-13 -.738E-02 -.630E+00   -.128E-02 0.195E-02 0.941E-02
   -.781E-05 -.367E+01 0.888E+03   0.206E-04 0.326E+01 -.888E+03   0.249E-11 0.380E+00 -.767E+00   -.887E-04 -.650E-02 0.473E-01
   0.139E+00 -.803E-01 0.888E+03   -.143E+00 0.822E-01 -.888E+03   -.639E-02 0.369E-02 -.630E+00   0.101E-02 -.210E-02 0.941E-02
   -.139E+00 -.804E-01 0.888E+03   0.142E+00 0.823E-01 -.888E+03   0.639E-02 0.369E-02 -.630E+00   -.855E-03 -.519E-03 0.102E-01
   0.411E-04 0.237E+01 -.779E+03   -.130E-03 -.238E+01 0.779E+03   0.166E-12 0.253E-01 0.708E+00   0.991E-03 -.275E-01 -.124E+00
   0.147E+02 0.847E+01 -.749E+03   -.140E+02 -.808E+01 0.750E+03   -.748E+00 -.432E+00 -.816E+00   0.748E-01 0.432E-01 -.463E-01
   -.147E+02 0.847E+01 -.749E+03   0.140E+02 -.808E+01 0.750E+03   0.748E+00 -.432E+00 -.816E+00   -.856E-01 0.428E-01 -.465E-01
   0.776E+01 -.448E+01 -.772E+03   -.798E+01 0.460E+01 0.771E+03   0.191E+00 -.111E+00 0.637E+00   0.493E-01 -.280E-01 -.922E-01
   -.575E-04 -.169E+02 -.749E+03   0.446E-04 0.162E+02 0.750E+03   0.567E-11 0.864E+00 -.816E+00   -.538E-02 -.949E-01 -.465E-01
   -.776E+01 -.448E+01 -.772E+03   0.798E+01 0.460E+01 0.771E+03   -.191E+00 -.111E+00 0.637E+00   -.478E-01 -.275E-01 -.920E-01
   -.206E+01 -.119E+01 -.779E+03   0.206E+01 0.119E+01 0.779E+03   -.219E-01 -.126E-01 0.708E+00   0.237E-01 0.136E-01 -.125E+00
   0.206E+01 -.119E+01 -.779E+03   -.206E+01 0.119E+01 0.779E+03   0.219E-01 -.126E-01 0.708E+00   -.236E-01 0.145E-01 -.124E+00
   0.200E-04 0.897E+01 -.772E+03   0.110E-03 -.921E+01 0.771E+03   0.145E-11 0.221E+00 0.637E+00   -.291E-03 0.567E-01 -.922E-01
   0.551E-04 -.375E-04 -.245E+04   -.118E-03 0.789E-04 0.244E+04   0.183E-17 0.239E-17 0.170E+01   0.191E-03 -.284E-04 0.752E-01
   0.274E+02 0.462E+02 -.242E+04   -.275E+02 -.465E+02 0.242E+04   -.237E-01 0.364E-01 0.223E+01   0.302E-01 0.852E-01 0.426E-01
   -.274E+02 0.462E+02 -.242E+04   0.275E+02 -.465E+02 0.242E+04   0.237E-01 0.364E-01 0.223E+01   -.310E-01 0.866E-01 0.428E-01
   0.537E+02 0.642E+00 -.242E+04   -.540E+02 -.580E+00 0.242E+04   0.197E-01 -.387E-01 0.223E+01   0.891E-01 -.163E-01 0.426E-01
   -.537E+02 0.642E+00 -.242E+04   0.540E+02 -.580E+00 0.242E+04   -.197E-01 -.387E-01 0.223E+01   -.898E-01 -.154E-01 0.436E-01
   0.263E+02 -.468E+02 -.242E+04   -.265E+02 0.470E+02 0.242E+04   0.434E-01 0.229E-02 0.223E+01   0.600E-01 -.696E-01 0.428E-01
   -.263E+02 -.468E+02 -.242E+04   0.265E+02 0.470E+02 0.242E+04   -.434E-01 0.229E-02 0.223E+01   -.586E-01 -.700E-01 0.436E-01
   0.205E-04 -.105E-04 -.244E+04   0.107E-03 -.673E-04 0.244E+04   -.612E-17 -.144E-17 0.175E+01   -.640E-02 -.327E-02 0.506E-01
   0.221E-04 -.187E-04 -.197E+04   0.943E-04 0.110E-04 0.197E+04   0.864E-17 0.709E-17 -.299E+01   0.436E-02 0.267E-02 0.110E-01
   0.599E-05 -.790E-04 -.869E+03   0.155E-04 0.184E-06 0.851E+03   0.458E-18 0.578E-19 0.175E+02   0.122E-02 0.746E-03 -.178E-01
   0.238E-03 -.931E-04 -.151E+04   0.826E-05 0.934E-08 0.157E+04   0.602E-18 0.569E-19 -.593E+02   0.372E-02 0.228E-02 -.444E-01
   0.669E-03 -.857E-03 0.485E+02   -.596E-14 -.290E-13 0.614E-11   -.311E-16 0.483E-16 -.480E+02   0.213E-02 0.470E-02 -.448E+00

 POSITION                                       TOTAL-FORCE (eV/Angst)
      0.00000      0.00000      5.28219         0.000000      0.000000      0.056326
      2.93046      0.00000      5.28219         0.004889      0.013213      0.041094
      5.86091      0.00000      5.28219        -0.004889      0.013213      0.041094
      1.46523      2.53785      5.28219         0.013888     -0.002372      0.041094
      4.39568      2.53785      5.28219         0.000000      0.000000      0.019469
      7.32614      2.53785      5.28219        -0.013888     -0.002372      0.041094
      2.93046      5.07570      5.28219         0.008998     -0.010841      0.041094
      5.86091      5.07570      5.28219        -0.008998     -0.010841      0.041094
      8.79137      5.07570      5.28219         0.000000      0.000000      0.044264
      1.46523      0.84595      7.67490         0.029677      0.017134     -0.027948
      4.39568      0.84595      7.67490        -0.000000     -0.034622     -0.090865
      7.32614      0.84595      7.67490        -0.029677      0.017134     -0.027948
      2.93046      3.38380      7.67490        -0.029983      0.017311     -0.090865
      5.86091      3.38380      7.67490         0.029983      0.017311     -0.090865
      8.79137      3.38380      7.67490        -0.000000     -0.009598     -0.008766
      4.39568      5.92165      7.67490        -0.000000     -0.034268     -0.027948
      7.32614      5.92165      7.67490        -0.008312      0.004799     -0.008766
     10.25659      5.92165      7.67490         0.008312      0.004799     -0.008766
      8.79137      1.69432     10.05238        -0.000000     -0.006286      0.000474
      2.92802      1.69049     10.04000         0.013192      0.007616     -0.129661
      5.86334      1.69049     10.04000        -0.013192      0.007616     -0.129661
     10.25637      4.22988     10.04709         0.028610     -0.016518      0.004417
      4.39568      4.23256     10.04000        -0.000000     -0.015232     -0.129661
      7.32637      4.22988     10.04709        -0.028610     -0.016518      0.004417
     11.71973      6.76639     10.05238         0.005444      0.003143      0.000474
      5.86300      6.76639     10.05238        -0.005444      0.003143      0.000474
      8.79137      6.76733     10.04709         0.000000      0.033036      0.004417
      0.00000      0.00000     12.42253         0.000000      0.000000     -0.001085
      2.94245      0.01904     12.42445        -0.075415     -0.144005     -0.049266
      5.84892      0.01904     12.42445         0.075415     -0.144005     -0.049266
      1.48772      2.53872     12.42445        -0.162419      0.006692     -0.049266
      7.30365      2.53872     12.42445         0.162419      0.006692     -0.049266
      2.94095      5.05579     12.42445        -0.087005      0.137313     -0.049266
      5.85042      5.05579     12.42445         0.087005      0.137313     -0.049266
      8.79137      5.07570     12.41807         0.000000      0.000000      0.009309
      4.39568      2.53785     12.28633         0.000000      0.000000      0.695929
      4.39568      2.53785     14.19539         0.000000      0.000000     -0.033524
      4.39568      2.53785     15.35674         0.000000      0.000000      0.015395
    total drift:                                0.002803      0.003844      0.082632

  FREE ENERGIE OF THE ION-ELECTRON SYSTEM (eV)
  free  energy   TOTEN  =      -110.20855223 eV

  energy  without entropy=     -110.20855223  energy(sigma->0) =     -110.20855223

 stress matrix after NEB project (eV)
     -6.64741     -0.00000      0.00000
     -0.00000     -6.64741     -0.00000
      0.00000     -0.00000     -0.21320
  FORCES: max atom, RMS     0.033524    0.005984
  FORCE total and by dimension    0.036890    0.033524
  Stress total and by dimension    9.403270    6.647407
|           W    W    AA    RRRRR   N    N  II  N    N   GGGG   !!!           |
|           W    W   A  A   R    R  NN   N  II  NN   N  G    G  !!!           |
|           W    W  A    A  R    R  N N  N  II  N N  N  G       !!!           |
|           W WW W  AAAAAA  RRRRR   N  N N  II  N  N N  G  GGG   !            |
|           WW  WW  A    A  R   R   N   NN  II  N   NN  G    G                |
|           W    W  A    A  R    R  N    N  II  N    N   GGGG   !!!           |
|     Tetrahedron method does not include variations of the Fermi             |
|     occupations, so forces and stress will be inaccurate. We suggest        |
|     using a different smearing scheme ISMEAR = 1 or 2 for metals in         |
|     relaxations.                                                            |

 total charge

# of ion       s       p       d       tot
    1        0.414   0.204   9.177   9.795
    2        0.419   0.203   9.177   9.798
    3        0.419   0.203   9.177   9.798
    4        0.419   0.203   9.177   9.798
    5        0.416   0.204   9.176   9.796
    6        0.419   0.203   9.177   9.798
    7        0.419   0.203   9.177   9.798
    8        0.419   0.203   9.177   9.798
    9        0.414   0.204   9.178   9.796
   10        0.406   0.270   9.164   9.839
   11        0.410   0.267   9.166   9.843
   12        0.406   0.270   9.164   9.839
   13        0.410   0.267   9.166   9.843
   14        0.410   0.267   9.166   9.843
   15        0.400   0.272   9.165   9.837
   16        0.406   0.270   9.164   9.839
   17        0.400   0.272   9.165   9.837
   18        0.400   0.272   9.165   9.837
   19        0.405   0.269   9.167   9.842
   20        0.415   0.285   9.156   9.855
   21        0.415   0.285   9.156   9.855
   22        0.401   0.275   9.164   9.840
   23        0.415   0.285   9.156   9.855
   24        0.401   0.275   9.164   9.840
   25        0.405   0.269   9.167   9.842
   26        0.405   0.269   9.167   9.842
   27        0.401   0.275   9.164   9.840
   28        0.419   0.201   9.179   9.798
   29        0.410   0.205   9.184   9.799
   30        0.410   0.205   9.184   9.799
   31        0.410   0.205   9.184   9.799
   32        0.410   0.205   9.184   9.799
   33        0.410   0.205   9.184   9.799
   34        0.410   0.205   9.184   9.799
   35        0.418   0.201   9.180   9.800
   36        0.488   0.549   8.519   9.556
   37        0.969   1.522   0.000   2.491
   38        1.618   3.528   0.000   5.146
tot         17.435  13.973 329.527 360.935

 BZINTS: Fermi energy:    0.972544;  405.000000 electrons
         Band energy:-0.132523E+04;  BLOECHL correction:   -0.057940