 vasp.6.2.0 18Jan21 (build Jun 12 2021 23:27:24) complex

 executed on             LinuxIFC date 2022.05.28  01:09:49

 INCAR:
   ISMEAR = -5
   SIGMA = 0.1
   ISPIN = 1
   EDIFF = 1.d-5
   EDIFFG = -0.01
   NSW = 0
   NELM = 150
   ENCUT = 500
   ISIF = 2
   IBRION = 2
   LREAL = Auto
   ALGO = Fast
   ICHARG = 11
   LORBIT = 10
   LCHARG = .F.
   LWAVE = .F.

 POTCAR:    PAW_PBE Au 04Oct2007
 POTCAR:    PAW_PBE W 08Apr2002
 POTCAR:    PAW_PBE C 08Apr2002
 POTCAR:    PAW_PBE O 08Apr2002
|           W    W    AA    RRRRR   N    N  II  N    N   GGGG   !!!           |
|           W    W   A  A   R    R  NN   N  II  NN   N  G    G  !!!           |
|           W    W  A    A  R    R  N N  N  II  N N  N  G       !!!           |
|           W WW W  AAAAAA  RRRRR   N  N N  II  N  N N  G  GGG   !            |
|           WW  WW  A    A  R   R   N   NN  II  N   NN  G    G                |
|           W    W  A    A  R    R  N    N  II  N    N   GGGG   !!!           |
|     For optimal performance we recommend to set                             |
|       NCORE = 2 up to number-of-cores-per-socket                            |
|     This setting can greatly improve the performance of VASP for DFT.       |
|     The default, NCORE=1 might be grossly inefficient on modern             |
|     multi-core architectures or massively parallel machines. Do your        |
|     Unfortunately you need to use the default for GW and RPA                |
|     calculations (for HF NCORE is supported but not extensively tested      |
|     yet).                                                                   |

 POTCAR:    PAW_PBE Au 04Oct2007
   VRHFIN =Au: s1d10

   TITEL  = PAW_PBE Au 04Oct2007
   POMASS =  196.966; ZVAL   =   11.000    mass and valenz
   ENMAX  =  229.943; ENMIN  =  172.457 eV

 POTCAR:    PAW_PBE W 08Apr2002
   VRHFIN =W : 6s5d

   TITEL  = PAW_PBE W 08Apr2002
   POMASS =  183.850; ZVAL   =    6.000    mass and valenz
   ENMAX  =  223.057; ENMIN  =  167.293 eV

 POTCAR:    PAW_PBE C 08Apr2002
   VRHFIN =C: s2p2

[...]

 POTCAR:    PAW_PBE O 08Apr2002
   VRHFIN =O: s2p4

   TITEL  = PAW_PBE O 08Apr2002
   POMASS =   16.000; ZVAL   =    6.000    mass and valenz
   ENMAX  =  400.000; ENMIN  =  300.000 eV

 Optimization of the real space projectors (new method)

 maximal supplied QI-value         = 15.12
 optimisation between [QCUT,QGAM] = [ 11.34, 22.83] = [ 36.00,145.93] Ry
 Optimized for a Real-space Cutoff    1.39 Angstroem

   l    n(q)    QCUT    max X(q) W(low)/X(q) W(high)/X(q)  e(spline)
   2      9    11.338    60.898    0.39E-03    0.42E-03    0.21E-06
   2      9    11.338    58.894    0.40E-03    0.42E-03    0.22E-06
   0      9    11.338   109.617    0.13E-03    0.20E-04    0.13E-06
   0      9    11.338    75.026    0.13E-03    0.20E-04    0.13E-06
   1      9    11.338    16.344    0.33E-04    0.24E-03    0.18E-06
   1      9    11.338    10.160    0.26E-04    0.19E-03    0.15E-06
 Optimization of the real space projectors (new method)

[...]

   l    n(q)    QCUT    max X(q) W(low)/X(q) W(high)/X(q)  e(spline)
   0      7    11.310   115.676    0.43E-03    0.13E-02    0.19E-06
   0      7    11.310    87.132    0.43E-03    0.13E-02    0.18E-06
   1      6    11.310     4.429    0.42E-03    0.74E-03    0.11E-06
   1      6    11.310     2.733    0.34E-03    0.55E-03    0.92E-07
 Optimization of the real space projectors (new method)

 maximal supplied QI-value         = 24.76
 optimisation between [QCUT,QGAM] = [ 11.39, 22.77] = [ 36.31,145.25] Ry
 Optimized for a Real-space Cutoff    1.00 Angstroem

   l    n(q)    QCUT    max X(q) W(low)/X(q) W(high)/X(q)  e(spline)
   0      7    11.387    20.381    0.39E-03    0.13E-02    0.15E-06
   0      7    11.387    15.268    0.42E-03    0.14E-02    0.17E-06
   1      6    11.387     5.964    0.41E-03    0.11E-02    0.17E-06
   1      6    11.387     5.382    0.39E-03    0.87E-03    0.15E-06
  PAW_PBE Au 04Oct2007                  :
  PAW_PBE W 08Apr2002                   :
  PAW_PBE C 08Apr2002                   :
  PAW_PBE O 08Apr2002                   :

 POSCAR: Au-W-CO2
  positions in direct lattice
  velocities in cartesian coordinates
 exchange correlation table for  LEXCH =        8
   RHO(1)=    0.500       N(1)  =     2000
   RHO(2)=  100.500       N(2)  =     4000

 VTST: version 3.2, (02/03/18)

 CHAIN: initializing optimizer

 OPT: Using VASP Conjugate-Gradient optimizer
 CHAIN: Read ICHAIN            0

 POSCAR: Au-W-CO2
  positions in direct lattice
  velocities in cartesian coordinates

 ion  position               nearest neighbor table
   1  0.000  0.000  0.202-  16 2.94  12 2.94   6 2.94   8 2.94   7 2.94   3 2.94  10 2.94   4 2.94
                             2 2.94
   2  0.333  0.000  0.202-   9 2.94  11 2.94  17 2.94  10 2.94   8 2.94   4 2.94   5 2.94   1 2.94
                             3 2.94
   3  0.667  0.000  0.202-   7 2.94  18 2.94  12 2.94   1 2.94  11 2.94   5 2.94   6 2.94   9 2.94
                             2 2.94
   4  0.000  0.333  0.202-  10 2.94   6 2.94   5 2.94  13 2.94   2 2.94  15 2.94   9 2.94   1 2.94
                             7 2.94
   5  0.333  0.333  0.202-  13 2.94   7 2.94  11 2.94   4 2.94   2 2.94  14 2.94   3 2.94   8 2.94
                             6 2.94
   6  0.667  0.333  0.202-  15 2.94  14 2.94   1 2.94  12 2.94   4 2.94   9 2.94   8 2.94   3 2.94
                             5 2.94
   7  0.000  0.667  0.202-  18 2.94   3 2.94  16 2.94   5 2.94   1 2.94  13 2.94   8 2.94   4 2.94
                             9 2.94
   8  0.333  0.667  0.202-   9 2.94  17 2.94   1 2.94   2 2.94  14 2.94  16 2.94   6 2.94   7 2.94
                             5 2.94
   9  0.667  0.667  0.202-   2 2.94   8 2.94  17 2.94   6 2.94  15 2.94   4 2.94   3 2.94  18 2.94
                             7 2.94
  10  0.111  0.111  0.294-  20 2.90  11 2.94  17 2.94   2 2.94   4 2.94   1 2.94  12 2.94  16 2.94
                            13 2.94  15 2.94  26 2.96  19 2.96
  11  0.444  0.111  0.294-  20 2.91  21 2.91  13 2.94   2 2.94  10 2.94  17 2.94   5 2.94   3 2.94
                            18 2.94  14 2.94  12 2.94  27 2.94
  12  0.778  0.111  0.294-  21 2.90  16 2.94  18 2.94   1 2.94  14 2.94  15 2.94   3 2.94   6 2.94
                            10 2.94  11 2.94  25 2.96  19 2.96
  13  0.111  0.444  0.294-  23 2.91  20 2.91   5 2.94  18 2.94  11 2.94   7 2.94   4 2.94  16 2.94
                            10 2.94  14 2.94  15 2.94  22 2.94
  14  0.444  0.444  0.294-  21 2.91  23 2.91  15 2.94   6 2.94  12 2.94   8 2.94  17 2.94   5 2.94
                            16 2.94  13 2.94  11 2.94  24 2.94
  15  0.778  0.444  0.294-  24 2.92  22 2.92  14 2.94   6 2.94  17 2.94  12 2.94   9 2.94   4 2.94
                            10 2.94  13 2.94  18 2.94  19 2.95
  16  0.111  0.778  0.294-  23 2.90  18 2.94  12 2.94   7 2.94   1 2.94   8 2.94  13 2.94  10 2.94
                            14 2.94  17 2.94  25 2.96  26 2.96
  17  0.444  0.778  0.294-  27 2.92  24 2.92   9 2.94  15 2.94   2 2.94  10 2.94  11 2.94   8 2.94
                            14 2.94  16 2.94  18 2.94  26 2.95
  18  0.778  0.778  0.294-  22 2.92  27 2.92  16 2.94   7 2.94  13 2.94  12 2.94   3 2.94  11 2.94
                             9 2.94  15 2.94  17 2.94  25 2.95
  19  0.888  0.224  0.386-  24 2.93  22 2.93  21 2.93  20 2.93  28 2.94  15 2.95  26 2.96  25 2.96
                            10 2.96  12 2.96  32 3.04  31 3.04
  20  0.222  0.222  0.384-  36 2.74  10 2.90  11 2.91  13 2.91  26 2.93  19 2.93  23 2.95  21 2.95
                            27 2.96  22 2.96  29 2.98  31 2.98
  21  0.557  0.222  0.384-  36 2.74  12 2.90  14 2.91  11 2.91  25 2.93  19 2.93  20 2.95  23 2.95
                            27 2.96  24 2.96  30 2.98  32 2.98
  22  0.886  0.557  0.385-  24 2.90  27 2.90  18 2.92  15 2.92  25 2.93  19 2.93  13 2.94  35 2.95
                            23 2.96  20 2.96  33 3.02  31 3.02
  23  0.222  0.557  0.384-  36 2.74  16 2.90  13 2.91  14 2.91  25 2.93  26 2.93  20 2.95  21 2.95
                            22 2.96  24 2.96  33 2.98  34 2.98
  24  0.557  0.557  0.385-  27 2.90  22 2.90  15 2.92  17 2.92  26 2.93  19 2.93  14 2.94  35 2.95
                            21 2.96  23 2.96  32 3.02  34 3.02
  25  0.888  0.888  0.386-  22 2.93  27 2.93  23 2.93  21 2.93  28 2.94  18 2.95  19 2.96  26 2.96
                            16 2.96  12 2.96  33 3.04  30 3.04
  26  0.224  0.888  0.386-  27 2.93  24 2.93  20 2.93  23 2.93  28 2.94  17 2.95  19 2.96  25 2.96
                            10 2.96  16 2.96  29 3.04  34 3.04
  27  0.557  0.886  0.385-  24 2.90  22 2.90  17 2.92  18 2.92  26 2.93  25 2.93  11 2.94  35 2.95
                            20 2.96  21 2.96  29 3.02  30 3.02
  28  0.000  0.000  0.478-  25 2.94  19 2.94  26 2.94  34 3.00  32 3.00  33 3.00  30 3.00  31 3.00
                            29 3.00
  29  0.334  0.013  0.480-  30 2.82  31 2.82  36 2.84  20 2.98  35 3.00  28 3.00  27 3.02  26 3.04
                            34 3.17
  30  0.653  0.013  0.480-  29 2.82  32 2.82  36 2.84  21 2.98  35 3.00  28 3.00  27 3.02  25 3.04
                            33 3.17
  31  0.013  0.334  0.480-  33 2.82  29 2.82  36 2.84  20 2.98  35 3.00  28 3.00  22 3.02  19 3.04
                            32 3.17
  32  0.653  0.334  0.480-  34 2.82  30 2.82  36 2.84  21 2.98  35 3.00  28 3.00  24 3.02  19 3.04
                            31 3.17
  33  0.013  0.653  0.480-  31 2.82  34 2.82  36 2.84  23 2.98  35 3.00  28 3.00  22 3.02  25 3.04
                            30 3.17
  34  0.334  0.653  0.480-  32 2.82  33 2.82  36 2.84  23 2.98  35 3.00  28 3.00  24 3.02  26 3.04
                            29 3.17
  35  0.667  0.667  0.478-  24 2.95  27 2.95  22 2.95  29 3.00  34 3.00  32 3.00  31 3.00  30 3.00
                            33 3.00
  36  0.333  0.333  0.466-  20 2.74  23 2.74  21 2.74  33 2.84  31 2.84  29 2.84  30 2.84  34 2.84
                            32 2.84
  37  0.333  0.323  0.630-  39 1.18  38 1.18
  38  0.206  0.312  0.626-  37 1.18
  39  0.461  0.333  0.633-  37 1.18

  LATTYP: Found a hexagonal cell.
 ALAT       =     8.8135128021
 C/A-ratio  =     2.9683892361

  Lattice vectors:

 A1 = (  -4.4067569092,  -7.6327256898,   0.0000000000)
 A2 = (   8.8135128021,   0.0000000000,   0.0000000000)
 A3 = (   0.0000000000,   0.0000000000,  26.1619365339)

Analysis of symmetry for initial positions (statically):
 Subroutine PRICEL returns:
 Original cell was already a primitive cell.

 Routine SETGRP: Setting up the symmetry group for a
 hexagonal supercell.

 Subroutine GETGRP returns: Found  1 space group operations
 (whereof  1 operations were pure point group operations)
 out of a pool of 24 trial point group operations.

The static configuration has the point symmetry C_1 .

Analysis of symmetry for dynamics (positions and initial velocities):
 Subroutine PRICEL returns:
 Original cell was already a primitive cell.

[...]

The dynamic configuration has the point symmetry C_1 .

Analysis of constrained symmetry for selective dynamics:
 Subroutine PRICEL returns:
 Original cell was already a primitive cell.

 Routine SETGRP: Setting up the symmetry group for a
 hexagonal supercell.

[...]
     41      -5.4578      2.00000
     42      -5.4477      2.00000
     43      -5.3182      2.00000
     44      -5.2636      2.00000
     45      -5.2156      2.00000
     46      -5.1721      2.00000
     47      -5.1435      2.00000
     48      -5.1181      2.00000
     49      -5.0963      2.00000
     50      -5.0653      2.00000
     51      -5.0445      2.00000
     52      -4.9610      2.00000
     53      -4.9431      2.00000
     54      -4.9043      2.00000
     55      -4.8927      2.00000
     56      -4.8764      2.00000
     57      -4.8642      2.00000
     58      -4.8441      2.00000
     59      -4.8273      2.00000
     60      -4.7939      2.00000
[...]
    238       4.6874      0.00000
    239       4.7948      0.00000
    240       4.9278      0.00000
    241       5.1434      0.00000
    242       5.3484      0.00000
    243       5.4525      0.00000
    244       5.5707      0.00000
    245       5.6529      0.00000
    246       5.7205      0.00000
    247       5.7952      0.00000
    248       5.8432      0.00000
    249       6.0065      0.00000
    250       6.0666      0.00000
    251       6.1664      0.00000
    252       6.2312      0.00000

 soft charge-density along one line, spin component           1
         0         1         2         3         4         5         6         7         8         9
 total charge-density along one line

------------------------ aborting loop because EDIFF is reached ----------------------------------------

 total charge

# of ion       s       p       d       tot
    1        0.548   0.238   8.766   9.552
    2        0.543   0.241   8.766   9.550
    3        0.543   0.241   8.766   9.549
    4        0.543   0.241   8.766   9.550
    5        0.545   0.240   8.762   9.548
    6        0.543   0.241   8.766   9.549
    7        0.543   0.241   8.766   9.549
    8        0.543   0.241   8.766   9.549
    9        0.543   0.239   8.768   9.550
   10        0.530   0.306   8.764   9.600
   11        0.521   0.307   8.781   9.609
   12        0.530   0.306   8.764   9.600
   13        0.521   0.307   8.781   9.609
   14        0.521   0.307   8.781   9.609
   15        0.516   0.307   8.776   9.599
   16        0.530   0.306   8.764   9.600
   17        0.516   0.307   8.776   9.599
   18        0.516   0.307   8.776   9.599
   19        0.515   0.295   8.771   9.581
   20        0.573   0.350   8.720   9.643
   21        0.573   0.350   8.720   9.643
   22        0.506   0.305   8.781   9.592
   23        0.573   0.350   8.720   9.643
   24        0.506   0.305   8.781   9.592
   25        0.515   0.295   8.771   9.581
   26        0.515   0.295   8.771   9.581
   27        0.506   0.305   8.781   9.592
   28        0.539   0.225   8.754   9.517
   29        0.584   0.256   8.723   9.563
   30        0.584   0.256   8.723   9.563
   31        0.583   0.255   8.724   9.562
   32        0.583   0.255   8.724   9.562
   33        0.584   0.256   8.723   9.563
   34        0.584   0.256   8.723   9.563
   35        0.534   0.224   8.757   9.515
   36        0.569   0.401   3.773   4.743
   37        0.933   1.802   0.000   2.735
   38        1.607   3.530   0.000   5.137
   39        1.607   3.530   0.000   5.137
tot         23.667  19.016 310.297 352.980

  FORCE on cell =-STRESS in cart. coord.  units (eV):
  Direction    XX          YY          ZZ          XY          YZ          ZX
  Alpha Z   900.63146   900.63146   900.63146
  Ewald  169648.00453168867.72758************    52.48721     6.58814    59.61405
  Hartree177810.89536177444.51280************    24.10358     4.36547    28.71918
  E(xc)   -1825.57968 -1827.65651 -1835.62656     0.14263     0.00971     0.15288
  Local  ************************358593.56574   -71.71434   -10.62364   -83.10819
  n-local  -112.88799  -106.87590   -79.84594    -0.40894    -0.02454    -0.44201
  augment  2377.56906  2380.24801  2402.18997    -0.18510    -0.00980    -0.19250
  Kinetic  5689.73318  5754.11021  5825.59357    -4.42048    -0.29864    -4.73144
  Fock        0.00000     0.00000     0.00000     0.00000     0.00000     0.00000
  Total     -24.27407   -24.27843     2.15798     0.00456     0.00670     0.01197
  in kB     -22.09808   -22.10205     1.96453     0.00415     0.00610     0.01089

 VOLUME and BASIS-vectors are now :
  energy-cutoff  :      500.00
  volume of cell :     1759.94
      direct lattice vectors                 reciprocal lattice vectors
     8.813512802  0.000000000  0.000000000     0.113462137 -0.065507406  0.000000000
     4.406756909  7.632725690  0.000000000     0.000000000  0.131014796  0.000000000
     0.000000000  0.000000000 26.161936534     0.000000000  0.000000000  0.038223470

  length of vectors
     8.813512802  8.813512802 26.161936534     0.131014796  0.131014796  0.038223470

 FORCES acting on ions
    electron-ion (+dipol)            ewald-force                    non-local-force                 convergence-correction
   0.634E-02 0.159E-01 0.277E+04   -.403E-02 -.128E-01 -.277E+04   -.337E-03 -.128E-02 -.895E+00   -.204E-02 -.206E-02 0.593E-01
   0.495E+00 -.113E+00 0.277E+04   -.706E+00 -.998E-01 -.277E+04   0.918E-01 0.144E+00 -.266E+00   0.104E+00 0.577E-01 0.278E-01
   -.501E+00 -.128E+00 0.277E+04   0.710E+00 -.962E-01 -.277E+04   -.914E-01 0.143E+00 -.263E+00   -.102E+00 0.693E-01 0.303E-01
   0.140E+00 0.491E+00 0.277E+04   -.430E+00 -.565E+00 -.277E+04   0.171E+00 0.733E-02 -.270E+00   0.102E+00 0.599E-01 0.275E-01
   -.193E-01 -.113E-01 0.277E+04   0.526E-02 0.473E-02 -.277E+04   -.275E-03 -.755E-03 0.587E-01   0.147E-01 0.785E-02 0.746E-01
   -.125E+00 0.489E+00 0.277E+04   0.425E+00 -.567E+00 -.277E+04   -.171E+00 0.710E-02 -.268E+00   -.112E+00 0.641E-01 0.338E-01
   -.373E+00 -.376E+00 0.277E+04   0.281E+00 0.667E+00 -.277E+04   0.793E-01 -.150E+00 -.263E+00   0.106E-01 -.121E+00 0.319E-01
   0.363E+00 -.364E+00 0.277E+04   -.280E+00 0.661E+00 -.277E+04   -.796E-01 -.150E+00 -.264E+00   -.107E-02 -.128E+00 0.352E-01
   0.142E-01 -.298E-02 0.277E+04   -.888E-03 0.814E-02 -.277E+04   0.656E-03 0.152E-02 -.492E+00   -.143E-01 -.657E-02 0.383E-01
   0.711E+01 0.418E+01 0.951E+03   -.662E+01 -.390E+01 -.951E+03   -.456E+00 -.262E+00 -.845E+00   -.230E-01 -.150E-01 0.395E+00
   -.481E-01 0.214E+01 0.956E+03   0.369E-01 -.220E+01 -.957E+03   -.300E-03 0.102E-01 -.130E+00   0.117E-01 -.116E-01 0.428E+00
   -.706E+01 0.415E+01 0.951E+03   0.658E+01 -.388E+01 -.951E+03   0.456E+00 -.262E+00 -.843E+00   0.153E-01 -.411E-02 0.393E+00
   0.176E+01 -.114E+01 0.956E+03   -.182E+01 0.115E+01 -.957E+03   0.740E-02 -.461E-02 -.132E+00   -.114E-02 0.171E-01 0.429E+00
   -.182E+01 -.111E+01 0.956E+03   0.185E+01 0.113E+01 -.957E+03   -.660E-02 -.408E-02 -.133E+00   0.248E-01 0.158E-01 0.429E+00
   0.440E-01 0.565E+01 0.957E+03   -.307E-01 -.583E+01 -.957E+03   0.518E-03 0.234E-01 -.621E+00   -.139E-01 0.724E-01 0.412E+00
   0.691E-03 -.817E+01 0.951E+03   -.512E-02 0.762E+01 -.951E+03   -.199E-04 0.524E+00 -.841E+00   0.448E-02 0.139E-01 0.393E+00
   0.497E+01 -.283E+01 0.957E+03   -.511E+01 0.293E+01 -.956E+03   0.206E-01 -.121E-01 -.616E+00   0.561E-01 -.463E-01 0.411E+00
   -.497E+01 -.288E+01 0.957E+03   0.512E+01 0.297E+01 -.956E+03   -.209E-01 -.130E-01 -.614E+00   -.604E-01 -.346E-01 0.409E+00
   0.288E+00 0.267E+01 -.893E+03   -.286E+00 -.267E+01 0.891E+03   0.211E-02 -.595E-01 0.478E+00   -.421E-02 0.438E-01 0.750E+00
   -.495E+01 -.255E+01 -.856E+03   0.579E+01 0.303E+01 0.856E+03   -.972E+00 -.559E+00 -.133E+01   0.141E+00 0.803E-01 0.967E+00
   0.468E+01 -.258E+01 -.857E+03   -.552E+01 0.305E+01 0.857E+03   0.970E+00 -.559E+00 -.134E+01   -.136E+00 0.928E-01 0.965E+00
   -.129E+02 0.678E+01 -.870E+03   0.124E+02 -.649E+01 0.868E+03   0.432E+00 -.254E+00 0.583E+00   0.623E-02 -.160E-01 0.738E+00
   -.157E+00 0.493E+01 -.857E+03   0.145E+00 -.589E+01 0.857E+03   0.137E-03 0.111E+01 -.134E+01   0.123E-01 -.164E+00 0.966E+00
   0.131E+02 0.702E+01 -.870E+03   -.126E+02 -.673E+01 0.868E+03   -.434E+00 -.254E+00 0.580E+00   -.275E-01 -.153E-01 0.735E+00
   -.210E+01 -.935E+00 -.894E+03   0.208E+01 0.925E+00 0.893E+03   0.561E-01 0.331E-01 0.463E+00   -.275E-01 -.170E-01 0.746E+00
   0.222E+01 -.679E+00 -.893E+03   -.221E+01 0.676E+00 0.892E+03   -.549E-01 0.343E-01 0.466E+00   0.361E-01 -.260E-01 0.750E+00
   -.115E+00 -.146E+02 -.870E+03   0.128E+00 0.141E+02 0.869E+03   -.974E-03 0.497E+00 0.575E+00   -.125E-01 0.134E-01 0.738E+00
   0.126E+01 0.413E+01 -.260E+04   -.126E+01 -.413E+01 0.260E+04   -.420E-03 0.143E-03 0.418E+00   0.604E-02 0.352E-02 0.378E+00
   0.109E+02 0.221E+02 -.261E+04   -.978E+01 -.203E+02 0.261E+04   -.131E+01 -.203E+01 -.361E+00   0.166E+00 0.231E+00 0.396E+00
   -.124E+02 0.202E+02 -.261E+04   0.113E+02 -.185E+02 0.261E+04   0.132E+01 -.203E+01 -.383E+00   -.180E+00 0.242E+00 0.398E+00
   0.226E+02 0.323E+00 -.260E+04   -.205E+02 -.215E+00 0.260E+04   -.241E+01 -.125E+00 -.278E+00   0.282E+00 0.268E-01 0.395E+00
   -.203E+02 0.132E+01 -.260E+04   0.182E+02 -.122E+01 0.260E+04   0.241E+01 -.125E+00 -.304E+00   -.301E+00 0.334E-01 0.392E+00
   0.690E+01 -.228E+02 -.261E+04   -.593E+01 0.209E+02 0.261E+04   -.110E+01 0.216E+01 -.377E+00   0.121E+00 -.275E+00 0.397E+00
   -.727E+01 -.210E+02 -.261E+04   0.629E+01 0.191E+02 0.261E+04   0.110E+01 0.215E+01 -.371E+00   -.122E+00 -.278E+00 0.392E+00
   0.264E+00 -.273E+01 -.261E+04   -.253E+00 0.273E+01 0.260E+04   -.455E-03 0.642E-03 0.636E+00   -.113E-01 -.485E-02 0.446E+00
   -.999E+00 -.850E+00 -.132E+04   0.998E+00 0.850E+00 0.131E+04   -.677E-02 0.179E-02 0.264E+01   0.534E-02 0.303E-02 0.334E+00
   0.455E-01 -.922E-01 -.872E+03   -.400E-01 0.886E-01 0.873E+03   -.530E-03 0.323E-02 -.844E-01   0.133E-02 0.577E-03 -.120E+00
   0.260E+03 0.175E+02 -.131E+04   -.323E+03 -.218E+02 0.130E+04   0.636E+02 0.433E+01 0.483E+01   0.246E-01 0.344E-02 -.161E+00
   -.261E+03 -.182E+02 -.131E+04   0.325E+03 0.225E+02 0.132E+04   -.636E+02 -.436E+01 -.451E+01   -.220E-01 -.269E-02 -.176E+00
   0.773E-01 0.420E-01 -.826E+01   0.568E-13 -.249E-13 0.205E-11   -.338E-01 -.293E-01 -.670E+01   -.287E-01 -.160E-01 0.145E+02

 POSITION                                       TOTAL-FORCE (eV/Angst)
      0.00000      0.00000      5.28038        -0.000444     -0.000134     -0.163895
      2.93784      0.00000      5.28038        -0.015486     -0.011504     -0.061204
      5.87568      0.00000      5.28038         0.014861     -0.011311     -0.061302
      1.46892      2.54424      5.28038        -0.017579     -0.007231     -0.061564
      4.40676      2.54424      5.28038         0.000025      0.000566     -0.083114
      7.34459      2.54424      5.28038         0.016600     -0.007224     -0.061883
      2.93784      5.08848      5.28038        -0.002481      0.018862     -0.061905
      5.87568      5.08848      5.28038         0.001875      0.018647     -0.062079
      8.81351      5.08848      5.28038        -0.000689      0.000183     -0.075560
      1.46892      0.84808      7.67911         0.007792      0.004855      0.113494
      4.40676      0.84808      7.67911        -0.000160     -0.061235     -0.064844
      7.34459      0.84808      7.67911        -0.008834      0.005040      0.113562
      2.93784      3.39232      7.67911        -0.053957      0.030779     -0.064910
      5.87568      3.39232      7.67911         0.053778      0.030841     -0.064978
      8.81351      3.39232      7.67911        -0.000430     -0.078293      0.046530
      4.40676      5.93656      7.67911        -0.000352     -0.009763      0.113817
      7.34459      5.93656      7.67911        -0.068544      0.039087      0.046308
     10.28243      5.93656      7.67911         0.067827      0.039170      0.046264
      8.81351      1.70807     10.10081        -0.000362     -0.011309      0.060086
      2.93151      1.69251     10.04012         0.004351      0.002049     -0.025149
      5.88200      1.69251     10.04012        -0.005942      0.002724     -0.023701
     10.26425      4.25090     10.06644        -0.037308      0.021915      0.034789
      4.40676      4.24770     10.04012        -0.000207     -0.007915     -0.026659
      7.36277      4.25090     10.06644         0.035987      0.021733      0.034731
     11.74104      6.77869     10.10081         0.008698      0.005393      0.058130
      5.88599      6.77869     10.10081        -0.009587      0.005434      0.058563
      8.81351      6.76365     10.06644        -0.000479     -0.043716      0.031813
      0.00000      0.00000     12.49922        -0.000458     -0.000041     -0.042520
      2.99894      0.10048     12.55446         0.010273      0.000692      0.042246
      5.81457      0.10048     12.55446        -0.011353      0.002272      0.044662
      1.58649      2.54692     12.55446         0.003091      0.009514      0.040089
      7.22703      2.54692     12.55446        -0.006071      0.008703      0.043404
      2.99430      4.98533     12.55446        -0.003326     -0.010162      0.044031
      5.81921      4.98533     12.55446         0.002223     -0.010417      0.044950
      8.81351      5.08848     12.49869        -0.000541     -0.000334     -0.019614
      4.40676      2.54424     12.18560        -0.002044      0.005094      0.001590
      4.36088      2.46305     16.47058         0.005955      0.000315      0.001701
      3.19059      2.38340     16.38065         0.004984     -0.002099      0.001176
      5.53151      2.54332     16.55328         0.008313     -0.001183      0.002947
    total drift:                                0.014804     -0.003255     -0.485537

  FREE ENERGIE OF THE ION-ELECTRON SYSTEM (eV)
  free  energy   TOTEN  =      -139.82628592 eV

  energy  without entropy=     -139.82628592  energy(sigma->0) =     -139.82628592

 stress matrix after NEB project (eV)
    -24.27407      0.00456      0.01197
      0.00456    -24.27843      0.00670
      0.01197      0.00670      2.15798
  FORCES: max atom, RMS     0.008899    0.001950
  FORCE total and by dimension    0.012177    0.008313
  Stress total and by dimension   34.399559   24.278429
|           W    W    AA    RRRRR   N    N  II  N    N   GGGG   !!!           |
|           W    W   A  A   R    R  NN   N  II  NN   N  G    G  !!!           |
|           W    W  A    A  R    R  N N  N  II  N N  N  G       !!!           |
|           W WW W  AAAAAA  RRRRR   N  N N  II  N  N N  G  GGG   !            |
|           WW  WW  A    A  R   R   N   NN  II  N   NN  G    G                |
|           W    W  A    A  R    R  N    N  II  N    N   GGGG   !!!           |
|     Tetrahedron method does not include variations of the Fermi             |
|     occupations, so forces and stress will be inaccurate. We suggest        |
|     using a different smearing scheme ISMEAR = 1 or 2 for metals in         |
|     relaxations.                                                            |

 total charge

# of ion       s       p       d       tot
    1        0.548   0.238   8.766   9.552
    2        0.543   0.241   8.766   9.550
    3        0.543   0.241   8.766   9.549
    4        0.543   0.241   8.766   9.550
    5        0.545   0.240   8.762   9.548
    6        0.543   0.241   8.766   9.549
    7        0.543   0.241   8.766   9.549
    8        0.543   0.241   8.766   9.549
    9        0.543   0.239   8.768   9.550
   10        0.530   0.306   8.764   9.600
   11        0.521   0.307   8.781   9.609
   12        0.530   0.306   8.764   9.600
   13        0.521   0.307   8.781   9.609
   14        0.521   0.307   8.781   9.609
   15        0.516   0.307   8.776   9.599
   16        0.530   0.306   8.764   9.600
   17        0.516   0.307   8.776   9.599
   18        0.516   0.307   8.776   9.599
   19        0.515   0.295   8.771   9.581
   20        0.573   0.350   8.720   9.643
   21        0.573   0.350   8.720   9.643
   22        0.506   0.305   8.781   9.592
   23        0.573   0.350   8.720   9.643
   24        0.506   0.305   8.781   9.592
   25        0.515   0.295   8.771   9.581
   26        0.515   0.295   8.771   9.581
   27        0.506   0.305   8.781   9.592
   28        0.539   0.225   8.754   9.517
   29        0.584   0.256   8.723   9.563
   30        0.584   0.256   8.723   9.563
   31        0.583   0.255   8.724   9.562
   32        0.583   0.255   8.724   9.562
   33        0.584   0.256   8.723   9.563
   34        0.584   0.256   8.723   9.563
   35        0.534   0.224   8.757   9.515
   36        0.569   0.401   3.773   4.743
   37        0.933   1.802   0.000   2.735
   38        1.607   3.530   0.000   5.137
   39        1.607   3.530   0.000   5.137
tot         23.667  19.016 310.297 352.980

 BZINTS: Fermi energy:   -0.057939;  407.000000 electrons
         Band energy:-0.165790E+04;  BLOECHL correction:   -0.028422