 vasp.6.2.0 18Jan21 (build Jun 12 2021 23:27:24) complex

 executed on             LinuxIFC date 2022.05.27  05:58:14

 INCAR:
   ISMEAR = -5
   SIGMA = 0.1
   ISPIN = 1
   EDIFF = 1.d-5
   EDIFFG = -0.01
   NSW = 0
   NELM = 150
   ENCUT = 500
   ISIF = 2
   IBRION = 2
   LREAL = Auto
   ALGO = Fast
   ICHARG = 11
   LORBIT = 10
   LCHARG = .F.
   LWAVE = .F.

 POTCAR:    PAW_PBE Cu 22Jun2005
 POTCAR:    PAW_PBE Ti 08Apr2002
 POTCAR:    PAW_PBE N 08Apr2002
|           W    W    AA    RRRRR   N    N  II  N    N   GGGG   !!!           |
|           W    W   A  A   R    R  NN   N  II  NN   N  G    G  !!!           |
|           W    W  A    A  R    R  N N  N  II  N N  N  G       !!!           |
|           W WW W  AAAAAA  RRRRR   N  N N  II  N  N N  G  GGG   !            |
|           WW  WW  A    A  R   R   N   NN  II  N   NN  G    G                |
|           W    W  A    A  R    R  N    N  II  N    N   GGGG   !!!           |
|     For optimal performance we recommend to set                             |
|       NCORE = 2 up to number-of-cores-per-socket                            |
|     This setting can greatly improve the performance of VASP for DFT.       |
|     The default, NCORE=1 might be grossly inefficient on modern             |
|     multi-core architectures or massively parallel machines. Do your        |
|     Unfortunately you need to use the default for GW and RPA                |
|     calculations (for HF NCORE is supported but not extensively tested      |
|     yet).                                                                   |

 POTCAR:    PAW_PBE Cu 22Jun2005
   VRHFIN =Cu: d10 p1

   TITEL  = PAW_PBE Cu 22Jun2005
   POMASS =   63.546; ZVAL   =   11.000    mass and valenz
   ENMAX  =  295.446; ENMIN  =  221.585 eV

 POTCAR:    PAW_PBE Ti 08Apr2002
   VRHFIN =Ti: d3 s1

   TITEL  = PAW_PBE Ti 08Apr2002
   POMASS =   47.880; ZVAL   =    4.000    mass and valenz
   ENMAX  =  178.330; ENMIN  =  133.747 eV

 POTCAR:    PAW_PBE N 08Apr2002
   VRHFIN =N: s2p3

   TITEL  = PAW_PBE N 08Apr2002
   POMASS =   14.001; ZVAL   =    5.000    mass and valenz
   ENMAX  =  400.000; ENMIN  =  300.000 eV

 Optimization of the real space projectors (new method)

 maximal supplied QI-value         = 16.25
 optimisation between [QCUT,QGAM] = [ 11.38, 22.75] = [ 36.24,144.96] Ry
 Optimized for a Real-space Cutoff    1.52 Angstroem

   l    n(q)    QCUT    max X(q) W(low)/X(q) W(high)/X(q)  e(spline)
   2      9    11.376     4.610    0.21E-03    0.10E-03    0.26E-06
   2      9    11.376     8.522    0.33E-03    0.16E-03    0.37E-06
   0     10    11.376    51.609    0.62E-04    0.20E-04    0.13E-06
   0     10    11.376    27.747    0.54E-04    0.20E-04    0.13E-06
   1     10    11.376    20.408    0.13E-04    0.99E-04    0.19E-06
   1     10    11.376    13.425    0.12E-04    0.87E-04    0.17E-06
 Optimization of the real space projectors (new method)

[...]

   l    n(q)    QCUT    max X(q) W(low)/X(q) W(high)/X(q)  e(spline)
   2     10    11.404    49.363    0.27E-03    0.67E-03    0.76E-06
   2     10    11.404    47.669    0.26E-03    0.65E-03    0.73E-06
   0     11    11.404    26.374    0.17E-03    0.20E-03    0.34E-06
   0     11    11.404    11.549    0.14E-03    0.16E-03    0.29E-06
   1     10    11.404     9.492    0.33E-04    0.56E-04    0.16E-06
 Optimization of the real space projectors (new method)

 maximal supplied QI-value         = 25.13
 optimisation between [QCUT,QGAM] = [ 11.31, 22.87] = [ 35.82,146.48] Ry
 Optimized for a Real-space Cutoff    1.27 Angstroem

   l    n(q)    QCUT    max X(q) W(low)/X(q) W(high)/X(q)  e(spline)
   0      9    11.310    79.467    0.75E-04    0.16E-03    0.36E-06
   0      9    11.310    66.151    0.74E-04    0.16E-03    0.36E-06
   1      8    11.310    17.416    0.35E-03    0.12E-03    0.95E-06
   1      8    11.310    12.382    0.37E-03    0.13E-03    0.98E-06
  PAW_PBE Cu 22Jun2005                  :
  PAW_PBE Ti 08Apr2002                  :
  PAW_PBE N 08Apr2002                   :

 POSCAR: Cu-Ti-N2
  positions in direct lattice
  velocities in cartesian coordinates
 exchange correlation table for  LEXCH =        8
   RHO(1)=    0.500       N(1)  =     2000
   RHO(2)=  100.500       N(2)  =     4000

 VTST: version 3.2, (02/03/18)

 CHAIN: initializing optimizer

 OPT: Using VASP Conjugate-Gradient optimizer
 CHAIN: Read ICHAIN            0

 POSCAR: Cu-Ti-N2
  positions in direct lattice
  velocities in cartesian coordinates

 ion  position               nearest neighbor table
   1  0.000  0.000  0.252-   7 2.57   3 2.57   4 2.57   2 2.57   6 2.57   8 2.57  12 2.57  10 2.57
                            16 2.57
   2  0.333  0.000  0.252-   8 2.57   9 2.57   5 2.57   1 2.57   3 2.57  11 2.57   4 2.57  10 2.57
                            17 2.57
   3  0.667  0.000  0.252-   1 2.57   7 2.57   6 2.57   9 2.57   2 2.57  12 2.57   5 2.57  18 2.57
                            11 2.57
   4  0.000  0.333  0.252-   5 2.57   6 2.57   1 2.57   7 2.57   2 2.57  13 2.57   9 2.57  10 2.57
                            15 2.57
   5  0.333  0.333  0.252-   4 2.57   2 2.57   7 2.57  13 2.57   8 2.57   6 2.57   3 2.57  11 2.57
                            14 2.57
   6  0.667  0.333  0.252-   4 2.57   9 2.57  15 2.57   3 2.57   1 2.57   8 2.57  14 2.57   5 2.57
                            12 2.57
   7  0.000  0.667  0.252-   1 2.57   3 2.57  16 2.57  18 2.57   4 2.57   5 2.57   8 2.57   9 2.57
                            13 2.57
   8  0.333  0.667  0.252-   9 2.57   2 2.57  17 2.57   6 2.57   1 2.57   7 2.57   5 2.57  14 2.57
                            16 2.57
   9  0.667  0.667  0.252-   8 2.57   6 2.57   2 2.57  17 2.57   3 2.57   7 2.57   4 2.57  15 2.57
                            18 2.57
  10  0.111  0.111  0.351-  26 2.55  19 2.55  11 2.57  12 2.57  13 2.57   1 2.57   2 2.57   4 2.57
                            15 2.57  16 2.57  17 2.57  20 2.57
  11  0.444  0.111  0.351-  27 2.56  20 2.56  21 2.56  10 2.57  13 2.57   2 2.57  17 2.57  14 2.57
                            12 2.57   5 2.57   3 2.57  18 2.57
  12  0.778  0.111  0.351-  19 2.55  25 2.55  15 2.57  10 2.57  14 2.57  18 2.57   3 2.57   1 2.57
                            16 2.57  11 2.57   6 2.57  21 2.57
  13  0.111  0.444  0.351-  22 2.56  23 2.56  20 2.56  16 2.57  18 2.57  10 2.57  11 2.57  14 2.57
                             5 2.57   4 2.57   7 2.57  15 2.57
  14  0.444  0.444  0.351-  24 2.56  21 2.56  23 2.56  15 2.57  17 2.57  12 2.57  16 2.57  13 2.57
                            11 2.57   6 2.57   8 2.57   5 2.57
  15  0.778  0.444  0.351-  19 2.55  24 2.56  22 2.56  14 2.57  17 2.57  12 2.57   6 2.57  18 2.57
                            10 2.57   9 2.57  13 2.57   4 2.57
  16  0.111  0.778  0.351-  25 2.55  26 2.55  18 2.57  13 2.57   7 2.57  14 2.57  17 2.57  12 2.57
                            10 2.57   8 2.57   1 2.57  23 2.57
  17  0.444  0.778  0.351-  26 2.55  27 2.56  24 2.56  14 2.57  15 2.57   8 2.57   9 2.57  11 2.57
                            16 2.57  18 2.57  10 2.57   2 2.57
  18  0.778  0.778  0.351-  25 2.55  22 2.56  27 2.56  16 2.57  13 2.57   7 2.57  15 2.57  12 2.57
                            17 2.57   9 2.57   3 2.57  11 2.57
  19  0.889  0.222  0.448-  12 2.55  10 2.55  15 2.55  25 2.56  26 2.56  28 2.56  22 2.57  24 2.57
                            21 2.57  20 2.57  32 2.57  31 2.57
  20  0.223  0.223  0.449-  23 2.55  21 2.55  11 2.56  13 2.56  27 2.57  22 2.57  29 2.57  31 2.57
                            10 2.57  26 2.57  19 2.57  36 2.66
  21  0.555  0.223  0.449-  20 2.55  23 2.55  14 2.56  11 2.56  24 2.57  27 2.57  32 2.57  30 2.57
                            12 2.57  19 2.57  25 2.57  36 2.66
  22  0.889  0.556  0.449-  18 2.56  15 2.56  13 2.56  31 2.56  33 2.56  24 2.56  27 2.56  23 2.57
                            20 2.57  19 2.57  25 2.57  35 2.57
  23  0.223  0.555  0.449-  20 2.55  21 2.55  13 2.56  14 2.56  22 2.57  24 2.57  33 2.57  34 2.57
                            16 2.57  25 2.57  26 2.57  36 2.66
  24  0.556  0.556  0.449-  15 2.56  17 2.56  14 2.56  32 2.56  34 2.56  22 2.56  27 2.56  21 2.57
                            23 2.57  19 2.57  26 2.57  35 2.57
  25  0.889  0.889  0.448-  12 2.55  16 2.55  18 2.55  19 2.56  26 2.56  28 2.56  22 2.57  27 2.57
                            21 2.57  23 2.57  33 2.57  30 2.57
  26  0.222  0.889  0.448-  10 2.55  16 2.55  17 2.55  25 2.56  19 2.56  28 2.56  27 2.57  24 2.57
                            20 2.57  23 2.57  29 2.57  34 2.57
  27  0.556  0.889  0.449-  17 2.56  18 2.56  11 2.56  29 2.56  30 2.56  24 2.56  22 2.56  20 2.57
                            21 2.57  26 2.57  25 2.57  35 2.57
  28  0.000  0.000  0.547-  33 2.56  30 2.56  31 2.56  29 2.56  32 2.56  34 2.56  25 2.56  19 2.56
                            26 2.56
  29  0.334  0.998  0.547-  34 2.53  35 2.55  28 2.56  27 2.56  20 2.57  26 2.57  30 2.58  36 2.59
                            31 2.59
  30  0.669  0.998  0.547-  33 2.53  35 2.55  28 2.56  27 2.56  21 2.57  25 2.57  29 2.58  36 2.59
                            32 2.59
  31  0.998  0.334  0.547-  32 2.53  35 2.55  28 2.56  22 2.56  20 2.57  19 2.57  33 2.58  36 2.59
                            29 2.59
  32  0.669  0.334  0.547-  31 2.53  35 2.55  28 2.56  24 2.56  21 2.57  19 2.57  34 2.58  36 2.59
                            30 2.59
  33  0.998  0.669  0.547-  30 2.53  35 2.55  28 2.56  22 2.56  23 2.57  25 2.57  31 2.58  36 2.59
                            34 2.59
  34  0.334  0.669  0.547-  29 2.53  35 2.55  28 2.56  24 2.56  23 2.57  26 2.57  32 2.58  36 2.59
                            33 2.59
  35  0.667  0.667  0.548-  34 2.55  32 2.55  29 2.55  30 2.55  33 2.55  31 2.55  24 2.57  27 2.57
                            22 2.57
  36  0.333  0.333  0.553-  38 2.45  37 2.45  31 2.59  29 2.59  33 2.59  32 2.59  34 2.59  30 2.59
                            23 2.66  20 2.66  21 2.66
  37  0.258  0.335  0.665-  38 1.14  36 2.45
  38  0.406  0.335  0.665-  37 1.14  36 2.45

  LATTYP: Found a hexagonal cell.
 ALAT       =     7.6967864036
 C/A-ratio  =     2.7653617908

  Lattice vectors:

 A1 = (  -3.8483927580,  -6.6656128093,   0.0000000000)
 A2 = (   7.6967864037,   0.0000000000,   0.0000000000)
 A3 = (   0.0000000000,   0.0000000000,  21.2843990326)

Analysis of symmetry for initial positions (statically):
 Subroutine PRICEL returns:
 Original cell was already a primitive cell.

 Routine SETGRP: Setting up the symmetry group for a
 hexagonal supercell.

 Subroutine GETGRP returns: Found  2 space group operations
 (whereof  2 operations were pure point group operations)
 out of a pool of 24 trial point group operations.

The static configuration has the point symmetry C_1h.

Analysis of symmetry for dynamics (positions and initial velocities):
 Subroutine PRICEL returns:
 Original cell was already a primitive cell.

[...]

The dynamic configuration has the point symmetry C_1h.

Analysis of constrained symmetry for selective dynamics:
 Subroutine PRICEL returns:
 Original cell was already a primitive cell.

 Routine SETGRP: Setting up the symmetry group for a
 hexagonal supercell.

 Subroutine GETGRP returns: Found  2 space group operations
[...]
     33      -3.8940      2.00000
     34      -3.8893      2.00000
     35      -3.8848      2.00000
     36      -3.8750      2.00000
     37      -3.8564      2.00000
     38      -3.8291      2.00000
     39      -3.7926      2.00000
     40      -3.7302      2.00000
     41      -3.7103      2.00000
     42      -3.5786      2.00000
     43      -3.5692      2.00000
     44      -3.5039      2.00000
     45      -3.4986      2.00000
     46      -3.4866      2.00000
     47      -3.4607      2.00000
     48      -3.4551      2.00000
     49      -3.4500      2.00000
     50      -3.4457      2.00000
     51      -3.2749      2.00000
     52      -3.2618      2.00000
     53      -3.2468      2.00000
     54      -3.2259      2.00000
     55      -3.1835      2.00000
     56      -3.1751      2.00000
     57      -3.1585      2.00000
     58      -3.1556      2.00000
     59      -3.1403      2.00000
     60      -3.1373      2.00000
[...]
    238       5.9942      0.00000
    239       6.0472      0.00000
    240       6.2793      0.00000
    241       6.3070      0.00000
    242       6.5507      0.00000
    243       6.6587      0.00000
    244       6.9399      0.00000
    245       6.9520      0.00000
    246       7.0580      0.00000
    247       7.0912      0.00000
    248       7.2199      0.00000
    249       7.4124      0.00000
    250       7.4384      0.00000
    251       7.5032      0.00000
    252       7.6304      0.00000

 soft charge-density along one line, spin component           1
         0         1         2         3         4         5         6         7         8         9
 total charge-density along one line

------------------------ aborting loop because EDIFF is reached ----------------------------------------

 total charge

# of ion       s       p       d       tot
    1        0.450   0.282   9.188   9.920
    2        0.447   0.286   9.185   9.918
    3        0.447   0.286   9.185   9.918
    4        0.446   0.285   9.187   9.918
    5        0.449   0.286   9.181   9.916
    6        0.446   0.285   9.187   9.918
    7        0.447   0.285   9.186   9.918
    8        0.447   0.285   9.186   9.918
    9        0.449   0.283   9.188   9.920
   10        0.443   0.371   9.175   9.989
   11        0.442   0.365   9.181   9.989
   12        0.443   0.371   9.175   9.989
   13        0.441   0.365   9.183   9.989
   14        0.441   0.365   9.183   9.989
   15        0.439   0.371   9.176   9.986
   16        0.443   0.371   9.176   9.989
   17        0.439   0.371   9.176   9.986
   18        0.439   0.371   9.176   9.986
   19        0.443   0.372   9.178   9.993
   20        0.458   0.385   9.160  10.004
   21        0.458   0.385   9.160  10.004
   22        0.434   0.375   9.178   9.987
   23        0.459   0.384   9.162  10.004
   24        0.434   0.375   9.178   9.987
   25        0.445   0.370   9.180   9.995
   26        0.445   0.370   9.180   9.995
   27        0.435   0.374   9.179   9.988
   28        0.445   0.294   9.181   9.920
   29        0.479   0.308   9.164   9.951
   30        0.479   0.308   9.164   9.951
   31        0.477   0.304   9.166   9.947
   32        0.477   0.304   9.166   9.947
   33        0.479   0.307   9.165   9.952
   34        0.479   0.307   9.165   9.952
   35        0.443   0.297   9.181   9.921
   36        0.480   0.558   2.401   3.439
   37        1.361   2.454   0.000   3.816
   38        1.361   2.454   0.000   3.816
tot         18.975  17.170 323.579 359.724

  FORCE on cell =-STRESS in cart. coord.  units (eV):
  Direction    XX          YY          ZZ          XY          YZ          ZX
  Alpha Z   898.19717   898.19717   898.19717
  Ewald  167874.87560167569.56964************     0.00036    -1.43730     0.00016
  Hartree180799.04728180694.63117************     0.00003    -1.61607     0.00006
  E(xc)   -2303.37454 -2304.23664 -2308.10402    -0.00027    -0.02422    -0.00005
  Local  ************************361123.89526     0.02019     3.17017    -0.00072
  n-local  -783.91811  -770.59954  -786.22920     1.58658    -0.13954     0.06264
  augment  3315.13666  3314.23757  3336.68001    -0.01842     0.02608     0.00029
  Kinetic  3331.08879  3344.97261  3375.63338     0.50606    -0.06330    -0.26262
  Fock        0.00000     0.00000     0.00000     0.00000     0.00000     0.00000
  Total      -8.30064    -7.93205    -2.81788     0.00000    -0.08419     0.00000
  in kB     -12.17900   -11.63818    -4.13449     0.00000    -0.12353     0.00000

 VOLUME and BASIS-vectors are now :
  energy-cutoff  :      500.00
  volume of cell :     1091.97
      direct lattice vectors                 reciprocal lattice vectors
     7.696786404  0.000000000  0.000000000     0.129924354 -0.075011849  0.000000000
     3.848392758  6.665612809  0.000000000     0.000000000  0.150023716  0.000000000
     0.000000000  0.000000000 21.284399033     0.000000000  0.000000000  0.046982769

  length of vectors
     7.696786404  7.696786404 21.284399033     0.150023716  0.150023716  0.046982769

 FORCES acting on ions
    electron-ion (+dipol)            ewald-force                    non-local-force                 convergence-correction
   -.406E-04 0.377E-01 0.346E+04   0.581E-04 -.843E-02 -.346E+04   0.304E-08 -.457E-01 -.224E+01   -.261E-03 0.832E-02 0.847E-01
   -.971E+00 -.101E+01 0.346E+04   0.933E+00 0.106E+01 -.346E+04   0.528E-01 0.782E-01 -.184E+01   -.347E-02 -.122E+00 0.158E+00
   0.971E+00 -.101E+01 0.346E+04   -.933E+00 0.106E+01 -.346E+04   -.528E-01 0.782E-01 -.184E+01   0.423E-02 -.120E+00 0.158E+00
   -.142E+01 -.330E+00 0.346E+04   0.139E+01 0.271E+00 -.346E+04   0.143E+00 -.405E-02 -.203E+01   -.991E-01 0.631E-01 0.139E+00
   -.622E-04 0.504E-01 0.346E+04   0.116E-03 -.180E-02 -.346E+04   0.298E-08 -.448E-01 -.161E+01   0.122E-01 -.406E-02 0.307E+00
   0.142E+01 -.330E+00 0.346E+04   -.139E+01 0.270E+00 -.346E+04   -.143E+00 -.405E-02 -.203E+01   0.975E-01 0.644E-01 0.140E+00
   -.373E+00 0.133E+01 0.346E+04   0.461E+00 -.133E+01 -.346E+04   0.393E-01 -.637E-01 -.188E+01   -.118E+00 0.603E-01 0.174E+00
   0.373E+00 0.133E+01 0.346E+04   -.461E+00 -.133E+01 -.346E+04   -.393E-01 -.637E-01 -.188E+01   0.121E+00 0.589E-01 0.174E+00
   -.143E-03 -.242E-01 0.346E+04   0.263E-03 0.102E-01 -.346E+04   -.235E-08 0.353E-01 -.200E+01   -.133E-01 -.114E-01 0.128E+00
   -.946E+01 -.539E+01 0.116E+04   0.971E+01 0.553E+01 -.116E+04   -.248E+00 -.147E+00 -.930E+00   0.304E-02 0.143E-01 -.419E+00
   -.905E-04 -.100E+02 0.115E+04   0.189E-03 0.978E+01 -.114E+04   -.169E-07 0.254E+00 -.325E+00   0.116E-01 -.477E-01 -.453E+00
   0.946E+01 -.539E+01 0.116E+04   -.971E+01 0.553E+01 -.116E+04   0.248E+00 -.147E+00 -.930E+00   -.437E-02 0.157E-01 -.420E+00
   -.873E+01 0.500E+01 0.115E+04   0.854E+01 -.489E+01 -.115E+04   0.230E+00 -.131E+00 -.336E+00   -.458E-01 0.395E-01 -.440E+00
   0.873E+01 0.500E+01 0.115E+04   -.854E+01 -.489E+01 -.115E+04   -.230E+00 -.131E+00 -.336E+00   0.695E-01 0.390E-01 -.441E+00
   -.140E-03 -.108E+01 0.116E+04   0.296E-03 0.958E+00 -.116E+04   -.512E-08 0.769E-01 -.100E+01   -.351E-02 0.494E-01 -.459E+00
   -.927E-04 0.109E+02 0.116E+04   0.187E-03 -.112E+02 -.116E+04   -.186E-07 0.280E+00 -.810E+00   -.636E-04 -.302E-01 -.399E+00
   -.925E+00 0.487E+00 0.116E+04   0.797E+00 -.422E+00 -.116E+04   0.834E-01 -.326E-01 -.804E+00   0.441E-01 -.353E-01 -.431E+00
   0.925E+00 0.487E+00 0.116E+04   -.797E+00 -.422E+00 -.116E+04   -.834E-01 -.326E-01 -.804E+00   -.434E-01 -.327E-01 -.431E+00
   -.667E-04 -.886E+01 -.112E+04   0.732E-04 0.883E+01 0.112E+04   -.235E-08 0.353E-01 0.107E+01   0.947E-03 -.601E-02 -.844E+00
   -.662E+02 -.378E+02 -.123E+04   0.676E+02 0.385E+02 0.123E+04   -.112E+01 -.606E+00 -.559E+00   -.279E+00 -.167E+00 -.107E+01
   0.662E+02 -.378E+02 -.123E+04   -.676E+02 0.385E+02 0.123E+04   0.112E+01 -.606E+00 -.559E+00   0.258E+00 -.166E+00 -.107E+01
   -.303E+02 0.170E+02 -.114E+04   0.302E+02 -.169E+02 0.114E+04   0.284E+00 -.197E+00 0.664E+00   -.122E+00 0.759E-01 -.783E+00
   -.724E-04 0.759E+02 -.123E+04   0.155E-03 -.774E+02 0.123E+04   -.815E-07 0.122E+01 -.376E+00   0.117E-01 0.288E+00 -.104E+01
   0.303E+02 0.170E+02 -.114E+04   -.302E+02 -.169E+02 0.114E+04   -.284E+00 -.197E+00 0.664E+00   0.120E+00 0.767E-01 -.783E+00
   0.793E+01 0.469E+01 -.112E+04   -.797E+01 -.472E+01 0.112E+04   0.367E-01 0.309E-01 0.970E+00   0.704E-02 0.374E-02 -.841E+00
   -.793E+01 0.469E+01 -.112E+04   0.797E+01 -.472E+01 0.112E+04   -.367E-01 0.309E-01 0.970E+00   -.582E-02 0.300E-02 -.840E+00
   -.135E-03 -.349E+02 -.114E+04   0.239E-03 0.348E+02 0.115E+04   -.203E-07 0.304E+00 0.678E+00   -.110E-02 -.144E+00 -.777E+00
   -.294E-04 0.224E+01 -.336E+04   0.443E-04 -.233E+01 0.336E+04   -.610E-08 0.916E-01 0.184E+01   0.359E-03 -.992E-02 -.352E+00
   -.453E+02 -.837E+02 -.334E+04   0.459E+02 0.846E+02 0.334E+04   -.591E+00 -.664E+00 0.906E+00   -.535E-01 -.263E+00 -.447E+00
   0.453E+02 -.837E+02 -.334E+04   -.459E+02 0.846E+02 0.334E+04   0.591E+00 -.664E+00 0.906E+00   0.538E-01 -.261E+00 -.447E+00
   -.943E+02 0.547E+01 -.333E+04   0.952E+02 -.532E+01 0.333E+04   -.717E+00 -.167E+00 0.133E+01   -.228E+00 0.186E-01 -.470E+00
   0.943E+02 0.547E+01 -.333E+04   -.952E+02 -.532E+01 0.333E+04   0.717E+00 -.167E+00 0.133E+01   0.228E+00 0.202E-01 -.470E+00
   -.537E+02 0.780E+02 -.334E+04   0.541E+02 -.790E+02 0.334E+04   -.299E+00 0.835E+00 0.980E+00   -.141E+00 0.230E+00 -.493E+00
   0.537E+02 0.780E+02 -.334E+04   -.541E+02 -.790E+02 0.334E+04   0.299E+00 0.835E+00 0.980E+00   0.144E+00 0.230E+00 -.494E+00
   -.125E-03 -.273E+01 -.338E+04   0.250E-03 0.278E+01 0.337E+04   0.568E-08 -.852E-01 0.213E+01   -.131E-01 0.407E-01 -.350E+00
   -.298E-04 0.438E+00 -.118E+04   0.467E-04 -.437E+00 0.118E+04   0.291E-08 -.436E-01 0.263E+01   0.345E-03 -.581E-02 -.144E+00
   0.218E+03 0.283E+00 -.155E+04   -.262E+03 -.289E+00 0.156E+04   0.434E+02 0.220E-01 -.467E+01   -.864E-01 -.127E-01 0.132E+00
   -.218E+03 0.283E+00 -.155E+04   0.262E+03 -.289E+00 0.156E+04   -.434E+02 0.220E-01 -.467E+01   0.865E-01 -.126E-01 0.132E+00
   -.152E-03 0.669E-01 0.303E+02   0.227E-12 0.634E-13 0.432E-11   0.778E-09 -.117E-01 -.164E+02   0.139E-01 -.540E-01 -.139E+02

 POSITION                                       TOTAL-FORCE (eV/Angst)
      0.00000      0.00000      5.37156         0.000000     -0.008100     -0.002367
      2.56560      0.00000      5.37156         0.010689      0.004560      0.056794
      5.13119      0.00000      5.37156        -0.010689      0.004560      0.056794
      1.28280      2.22187      5.37156         0.017216      0.000491      0.048561
      3.84839      2.22187      5.37156         0.000000     -0.000228      0.049580
      6.41399      2.22187      5.37156        -0.017216      0.000491      0.048561
      2.56560      4.44374      5.37156         0.007641     -0.007858      0.047269
      5.13119      4.44374      5.37156        -0.007641     -0.007858      0.047269
      7.69679      4.44374      5.37156        -0.000000      0.009800      0.022542
      1.28280      0.74062      7.46636         0.004358      0.005114     -0.103699
      3.84839      0.74062      7.46636         0.000000     -0.027615     -0.046987
      6.41399      0.74062      7.46636        -0.004358      0.005114     -0.103699
      2.56560      2.96249      7.46636        -0.020910      0.019187     -0.052127
      5.13119      2.96249      7.46636         0.020910      0.019187     -0.052127
      7.69679      2.96249      7.46636        -0.000000      0.001116     -0.044830
      3.84839      5.18437      7.46636         0.000000     -0.009368     -0.094633
      6.41399      5.18437      7.46636        -0.000327     -0.001878     -0.018699
      8.97958      5.18437      7.46636         0.000327     -0.001878     -0.018699
      7.69679      1.47704      9.53921        -0.000000      0.005359      0.036649
      2.57092      1.48432      9.56248        -0.010949      0.008953     -0.024937
      5.12587      1.48432      9.56248         0.010949      0.008953     -0.024937
      8.97870      3.70363      9.55579         0.010809     -0.011737      0.026260
      3.84839      3.69697      9.56248        -0.000000      0.013229     -0.045386
      6.41487      3.70363      9.55579        -0.010809     -0.011737      0.026260
     10.26602      5.92709      9.53921         0.007710      0.006357      0.001049
      5.12755      5.92709      9.53921        -0.007710      0.006357      0.001049
      7.69679      5.92397      9.55579        -0.000000      0.019305      0.017553
      0.00000      0.00000     11.63511         0.000000     -0.005076      0.011424
      6.40848      6.64966     11.64831        -0.054239     -0.070935     -0.100067
      8.98509      6.64966     11.64831         0.054239     -0.070935     -0.100067
      8.96302      2.22507     11.64831        -0.023048     -0.002918     -0.017351
      6.43055      2.22507     11.64831         0.023048     -0.002918     -0.017351
     10.25132      4.45649     11.64831        -0.051224      0.069469     -0.102751
      5.14225      4.45649     11.64831         0.051224      0.069469     -0.102751
      7.69679      4.44374     11.65790        -0.000000      0.005169     -0.004167
      3.84839      2.22187     11.77538         0.000000     -0.047692      0.618218
      3.27872      2.23474     14.15458        -0.042261      0.003243     -0.019098
      4.41807      2.23474     14.15458         0.042261      0.003243     -0.019098
    total drift:                                0.013761      0.001154      0.021327

  FREE ENERGIE OF THE ION-ELECTRON SYSTEM (eV)
  free  energy   TOTEN  =      -146.18100780 eV

  energy  without entropy=     -146.18100780  energy(sigma->0) =     -146.18100780

 stress matrix after NEB project (eV)
     -8.30064      0.00000      0.00000
      0.00000     -7.93205     -0.08419
      0.00000     -0.08419     -2.81788
  FORCES: max atom, RMS     0.046490    0.010665
  FORCE total and by dimension    0.065746    0.042261
  Stress total and by dimension   11.822552    8.300645
|           W    W    AA    RRRRR   N    N  II  N    N   GGGG   !!!           |
|           W    W   A  A   R    R  NN   N  II  NN   N  G    G  !!!           |
|           W    W  A    A  R    R  N N  N  II  N N  N  G       !!!           |
|           W WW W  AAAAAA  RRRRR   N  N N  II  N  N N  G  GGG   !            |
|           WW  WW  A    A  R   R   N   NN  II  N   NN  G    G                |
|           W    W  A    A  R    R  N    N  II  N    N   GGGG   !!!           |
|     Tetrahedron method does not include variations of the Fermi             |
|     occupations, so forces and stress will be inaccurate. We suggest        |
|     using a different smearing scheme ISMEAR = 1 or 2 for metals in         |
|     relaxations.                                                            |

 total charge

# of ion       s       p       d       tot
    1        0.450   0.282   9.188   9.920
    2        0.447   0.286   9.185   9.918
    3        0.447   0.286   9.185   9.918
    4        0.446   0.285   9.187   9.918
    5        0.449   0.286   9.181   9.916
    6        0.446   0.285   9.187   9.918
    7        0.447   0.285   9.186   9.918
    8        0.447   0.285   9.186   9.918
    9        0.449   0.283   9.188   9.920
   10        0.443   0.371   9.175   9.989
   11        0.442   0.365   9.181   9.989
   12        0.443   0.371   9.175   9.989
   13        0.441   0.365   9.183   9.989
   14        0.441   0.365   9.183   9.989
   15        0.439   0.371   9.176   9.986
   16        0.443   0.371   9.176   9.989
   17        0.439   0.371   9.176   9.986
   18        0.439   0.371   9.176   9.986
   19        0.443   0.372   9.178   9.993
   20        0.458   0.385   9.160  10.004
   21        0.458   0.385   9.160  10.004
   22        0.434   0.375   9.178   9.987
   23        0.459   0.384   9.162  10.004
   24        0.434   0.375   9.178   9.987
   25        0.445   0.370   9.180   9.995
   26        0.445   0.370   9.180   9.995
   27        0.435   0.374   9.179   9.988
   28        0.445   0.294   9.181   9.920
   29        0.479   0.308   9.164   9.951
   30        0.479   0.308   9.164   9.951
   31        0.477   0.304   9.166   9.947
   32        0.477   0.304   9.166   9.947
   33        0.479   0.307   9.165   9.952
   34        0.479   0.307   9.165   9.952
   35        0.443   0.297   9.181   9.921
   36        0.480   0.558   2.401   3.439
   37        1.361   2.454   0.000   3.816
   38        1.361   2.454   0.000   3.816
tot         18.975  17.170 323.579 359.724

 BZINTS: Fermi energy:    0.255276;  399.000000 electrons
         Band energy:-0.112170E+04;  BLOECHL correction:   -0.024948