 vasp.6.2.0 18Jan21 (build Jun 12 2021 23:27:24) complex

 executed on             LinuxIFC date 2022.05.28  01:31:47

 INCAR:
   ISMEAR = -5
   SIGMA = 0.1
   ISPIN = 1
   EDIFF = 1.d-5
   EDIFFG = -0.01
   NSW = 0
   NELM = 150
   ENCUT = 500
   ISIF = 2
   IBRION = 2
   LREAL = Auto
   ALGO = Fast
   ICHARG = 11
   LORBIT = 10
   LCHARG = .F.
   LWAVE = .F.

 POTCAR:    PAW_PBE Ag 02Apr2005
 POTCAR:    PAW_PBE Mn 06Sep2000
 POTCAR:    PAW_PBE O 08Apr2002
 POTCAR:    PAW_PBE H 15Jun2001
|           W    W    AA    RRRRR   N    N  II  N    N   GGGG   !!!           |
|           W    W   A  A   R    R  NN   N  II  NN   N  G    G  !!!           |
|           W    W  A    A  R    R  N N  N  II  N N  N  G       !!!           |
|           W WW W  AAAAAA  RRRRR   N  N N  II  N  N N  G  GGG   !            |
|           WW  WW  A    A  R   R   N   NN  II  N   NN  G    G                |
|           W    W  A    A  R    R  N    N  II  N    N   GGGG   !!!           |
|     For optimal performance we recommend to set                             |
|       NCORE = 2 up to number-of-cores-per-socket                            |
|     This setting can greatly improve the performance of VASP for DFT.       |
|     The default, NCORE=1 might be grossly inefficient on modern             |
|     multi-core architectures or massively parallel machines. Do your        |
|     Unfortunately you need to use the default for GW and RPA                |
|     calculations (for HF NCORE is supported but not extensively tested      |
|     yet).                                                                   |

 POTCAR:    PAW_PBE Ag 02Apr2005
   VRHFIN =Ag : s1 d10

   TITEL  = PAW_PBE Ag 02Apr2005
   POMASS =  107.868; ZVAL   =   11.000    mass and valenz
   ENMAX  =  249.844; ENMIN  =  187.383 eV

 POTCAR:    PAW_PBE Mn 06Sep2000
   VRHFIN =Mn: d6 s1

   TITEL  = PAW_PBE Mn 06Sep2000
   POMASS =   54.938; ZVAL   =    7.000    mass and valenz
   ENMAX  =  269.864; ENMIN  =  202.398 eV

 POTCAR:    PAW_PBE O 08Apr2002
   VRHFIN =O: s2p4

   TITEL  = PAW_PBE O 08Apr2002
   POMASS =   16.000; ZVAL   =    6.000    mass and valenz
   ENMAX  =  400.000; ENMIN  =  300.000 eV

 POTCAR:    PAW_PBE H 15Jun2001
   VRHFIN =H: ultrasoft test

   TITEL  = PAW_PBE H 15Jun2001
   POMASS =    1.000; ZVAL   =    1.000    mass and valenz
   ENMAX  =  250.000; ENMIN  =  200.000 eV

 Optimization of the real space projectors (new method)

 maximal supplied QI-value         = 15.12
 optimisation between [QCUT,QGAM] = [ 11.34, 22.83] = [ 36.00,145.93] Ry
 Optimized for a Real-space Cutoff    1.43 Angstroem

   l    n(q)    QCUT    max X(q) W(low)/X(q) W(high)/X(q)  e(spline)
   2      9    11.338    53.897    0.16E-03    0.20E-03    0.28E-06
   2      9    11.338    52.416    0.16E-03    0.20E-03    0.29E-06
   0     10    11.338   122.045    0.31E-04    0.76E-04    0.15E-06
   0     10    11.338    73.629    0.30E-04    0.72E-04    0.15E-06
   1      9    11.338    15.255    0.20E-03    0.19E-04    0.17E-06
   1      9    11.338     9.562    0.16E-03    0.15E-04    0.14E-06
 Optimization of the real space projectors (new method)

[...]

   l    n(q)    QCUT    max X(q) W(low)/X(q) W(high)/X(q)  e(spline)
   0      7    11.387    20.381    0.39E-03    0.13E-02    0.15E-06
   0      7    11.387    15.268    0.42E-03    0.14E-02    0.17E-06
   1      6    11.387     5.964    0.41E-03    0.11E-02    0.17E-06
   1      6    11.387     5.382    0.39E-03    0.87E-03    0.15E-06
 Optimization of the real space projectors (new method)

 maximal supplied QI-value         = 34.20
 optimisation between [QCUT,QGAM] = [ 11.29, 22.57] = [ 35.68,142.71] Ry
 Optimized for a Real-space Cutoff    1.16 Angstroem

   l    n(q)    QCUT    max X(q) W(low)/X(q) W(high)/X(q)  e(spline)
   0      8    11.287    19.460    0.40E-03    0.73E-03    0.16E-06
   0      8    11.287    12.209    0.38E-03    0.70E-03    0.15E-06
   1      7    11.287     4.655    0.22E-03    0.25E-04    0.22E-06
  PAW_PBE Ag 02Apr2005                  :
  PAW_PBE Mn 06Sep2000                  :
  PAW_PBE O 08Apr2002                   :
  PAW_PBE H 15Jun2001                   :

 POSCAR: Ag-Mn-OOH
  positions in direct lattice
  velocities in cartesian coordinates
 exchange correlation table for  LEXCH =        8
   RHO(1)=    0.500       N(1)  =     2000
   RHO(2)=  100.500       N(2)  =     4000

 VTST: version 3.2, (02/03/18)

 CHAIN: initializing optimizer

 OPT: Using VASP Conjugate-Gradient optimizer
 CHAIN: Read ICHAIN            0

 POSCAR: Ag-Mn-OOH
  positions in direct lattice
  velocities in cartesian coordinates

 ion  position               nearest neighbor table
   1  0.000  0.000  0.204-   2 2.93   8 2.93   7 2.93   6 2.93   4 2.93  12 2.93  16 2.93  10 2.93
                             3 2.93
   2  0.333  0.000  0.204-   1 2.93   8 2.93   9 2.93   3 2.93   4 2.93   5 2.93  10 2.93  17 2.93
                            11 2.93
   3  0.667  0.000  0.204-   9 2.93   2 2.93   5 2.93  11 2.93   7 2.93  18 2.93   1 2.93   6 2.93
                            12 2.93
   4  0.000  0.333  0.204-   5 2.93   6 2.93   2 2.93   1 2.93   7 2.93  13 2.93  15 2.93   9 2.93
                            10 2.93
   5  0.333  0.333  0.204-   4 2.93   3 2.93   7 2.93   2 2.93   8 2.93  14 2.93  13 2.93  11 2.93
                             6 2.93
   6  0.667  0.333  0.204-   4 2.93   9 2.93   1 2.93  15 2.93   8 2.93  12 2.93   3 2.93   5 2.93
                            14 2.93
   7  0.000  0.667  0.204-   8 2.93   1 2.93   5 2.93   3 2.93   4 2.93  16 2.93  18 2.93  13 2.93
                             9 2.93
   8  0.333  0.667  0.204-   7 2.93   1 2.93   2 2.93   9 2.93   5 2.93  16 2.93   6 2.93  17 2.93
                            14 2.93
   9  0.667  0.667  0.204-   3 2.93   2 2.93   8 2.93   6 2.93  17 2.93   4 2.93  15 2.93   7 2.93
                            18 2.93
  10  0.111  0.111  0.296-  20 2.92  19 2.93  26 2.93  12 2.93  16 2.93  15 2.93  17 2.93  13 2.93
                            11 2.93   2 2.93   1 2.93   4 2.93
  11  0.444  0.111  0.296-  21 2.90  20 2.90  27 2.92  14 2.93  17 2.93  18 2.93   3 2.93  12 2.93
                            13 2.93  10 2.93   5 2.93   2 2.93
  12  0.778  0.111  0.296-  21 2.92  25 2.93  19 2.93  10 2.93  16 2.93  18 2.93  15 2.93  11 2.93
                             1 2.93  14 2.93   6 2.93   3 2.93
  13  0.111  0.444  0.296-  20 2.90  23 2.90  22 2.92  15 2.93  14 2.93  18 2.93  10 2.93  11 2.93
                            16 2.93   4 2.93   5 2.93   7 2.93
  14  0.444  0.444  0.296-  23 2.90  21 2.90  24 2.92  13 2.93  11 2.93  16 2.93   5 2.93  12 2.93
                            17 2.93   8 2.93  15 2.93   6 2.93
  15  0.778  0.444  0.296-  24 2.92  22 2.92  19 2.92  13 2.93  10 2.93  12 2.93  17 2.93  18 2.93
                             4 2.93   6 2.93   9 2.93  14 2.93
  16  0.111  0.778  0.296-  23 2.92  26 2.93  25 2.93  18 2.93  12 2.93  10 2.93  14 2.93  17 2.93
                            13 2.93   7 2.93   8 2.93   1 2.93
  17  0.444  0.778  0.296-  27 2.92  24 2.92  26 2.92  11 2.93  10 2.93   9 2.93  18 2.93  15 2.93
                            16 2.93   2 2.93  14 2.93   8 2.93
  18  0.778  0.778  0.296-  22 2.92  27 2.92  25 2.92  16 2.93  12 2.93  13 2.93  11 2.93  17 2.93
                            15 2.93   7 2.93   3 2.93   9 2.93
  19  0.889  0.223  0.388-  28 2.91  15 2.92  10 2.93  12 2.93  24 2.93  22 2.93  26 2.94  25 2.94
                            20 2.94  21 2.94  32 2.95  31 2.95
  20  0.223  0.223  0.388-  36 2.71  31 2.90  29 2.90  13 2.90  11 2.90  21 2.91  23 2.91  10 2.92
                            27 2.93  22 2.93  19 2.94  26 2.94
  21  0.554  0.223  0.388-  36 2.71  30 2.90  32 2.90  11 2.90  14 2.90  20 2.91  23 2.91  12 2.92
                            27 2.93  24 2.93  25 2.94  19 2.94
  22  0.888  0.556  0.388-  35 2.91  18 2.92  15 2.92  13 2.92  24 2.93  27 2.93  33 2.93  31 2.93
                            25 2.93  19 2.93  23 2.93  20 2.93
  23  0.223  0.554  0.388-  36 2.71  34 2.90  33 2.90  14 2.90  13 2.90  21 2.91  20 2.91  16 2.92
                            22 2.93  24 2.93  26 2.94  25 2.94
  24  0.556  0.556  0.388-  35 2.91  15 2.92  17 2.92  14 2.92  27 2.93  22 2.93  32 2.93  34 2.93
                            19 2.93  26 2.93  23 2.93  21 2.93
  25  0.889  0.889  0.388-  28 2.91  18 2.92  16 2.93  12 2.93  22 2.93  27 2.93  26 2.94  19 2.94
                            23 2.94  21 2.94  33 2.95  30 2.95
  26  0.223  0.889  0.388-  28 2.91  17 2.92  16 2.93  10 2.93  27 2.93  24 2.93  25 2.94  19 2.94
                            23 2.94  20 2.94  34 2.95  29 2.95
  27  0.556  0.888  0.388-  35 2.91  17 2.92  18 2.92  11 2.92  24 2.93  22 2.93  29 2.93  30 2.93
                            26 2.93  25 2.93  20 2.93  21 2.93
  28  0.000  0.000  0.480-  38 2.23  26 2.91  25 2.91  19 2.91  29 2.97  34 2.97  33 2.97  32 2.97
                            31 2.97  30 2.97
  29  0.333  0.008  0.480-  38 2.34  31 2.86  30 2.86  36 2.87  20 2.90  27 2.93  26 2.95  28 2.97
                            35 2.97  34 3.07
  30  0.659  0.008  0.480-  32 2.86  29 2.86  36 2.87  21 2.90  27 2.93  25 2.95  28 2.97  35 2.97
                            33 3.07
  31  0.008  0.333  0.480-  38 2.33  29 2.86  33 2.86  36 2.87  20 2.90  22 2.93  19 2.95  28 2.97
                            35 2.97  32 3.07
  32  0.659  0.333  0.480-  30 2.86  34 2.86  36 2.87  21 2.90  24 2.93  19 2.95  28 2.97  35 2.97
                            31 3.07
  33  0.008  0.659  0.480-  34 2.86  31 2.86  36 2.87  23 2.90  22 2.93  25 2.95  28 2.97  35 2.97
                            30 3.07
  34  0.333  0.659  0.480-  33 2.86  32 2.86  36 2.87  23 2.90  24 2.93  26 2.95  28 2.97  35 2.97
                            29 3.07
  35  0.667  0.667  0.480-  24 2.91  27 2.91  22 2.91  32 2.97  30 2.97  29 2.97  34 2.97  31 2.97
                            33 2.97
  36  0.333  0.333  0.470-  37 1.60  21 2.71  20 2.71  23 2.71  31 2.87  30 2.87  33 2.87  29 2.87
                            34 2.87  32 2.87
  37  0.343  0.303  0.531-  36 1.60
  38  0.104  0.105  0.540-  39 0.97  28 2.23  31 2.33  29 2.34
  39  0.096  0.101  0.577-  38 0.97

  LATTYP: Found a hexagonal cell.
 ALAT       =     8.7913665772
 C/A-ratio  =     2.9469639759

  Lattice vectors:

 A1 = (  -4.3956832886,  -7.6135467898,   0.0000000000)
 A2 = (   8.7913665771,   0.0000000000,   0.0000000000)
 A3 = (   0.0000000000,   0.0000000000,  25.9078406020)

Analysis of symmetry for initial positions (statically):
 Subroutine PRICEL returns:
 Original cell was already a primitive cell.

 Routine SETGRP: Setting up the symmetry group for a
 hexagonal supercell.

 Subroutine GETGRP returns: Found  1 space group operations
 (whereof  1 operations were pure point group operations)
 out of a pool of 24 trial point group operations.

The static configuration has the point symmetry C_1 .

Analysis of symmetry for dynamics (positions and initial velocities):
 Subroutine PRICEL returns:
 Original cell was already a primitive cell.

[...]

The dynamic configuration has the point symmetry C_1 .

Analysis of constrained symmetry for selective dynamics:
 Subroutine PRICEL returns:
[...]
     41      -5.0486      2.00000
     42      -5.0384      2.00000
     43      -5.0150      2.00000
     44      -4.9993      2.00000
     45      -4.9782      2.00000
     46      -4.9637      2.00000
     47      -4.9213      2.00000
     48      -4.9098      2.00000
     49      -4.8858      2.00000
     50      -4.8784      2.00000
     51      -4.8673      2.00000
     52      -4.8538      2.00000
     53      -4.8428      2.00000
     54      -4.8362      2.00000
     55      -4.8232      2.00000
     56      -4.7934      2.00000
     57      -4.7754      2.00000
     58      -4.7622      2.00000
     59      -4.7434      2.00000
     60      -4.7342      2.00000
[...]
    238       5.2298      0.00000
    239       5.2714      0.00000
    240       5.4791      0.00000
    241       5.5473      0.00000
    242       5.6556      0.00000
    243       5.8227      0.00000
    244       5.8535      0.00000
    245       5.8948      0.00000
    246       5.9420      0.00000
    247       6.1533      0.00000
    248       6.2452      0.00000
    249       6.3014      0.00000
    250       6.4450      0.00000
    251       6.5238      0.00000
    252       6.5702      0.00000

 soft charge-density along one line, spin component           1
         0         1         2         3         4         5         6         7         8         9
 total charge-density along one line

------------------------ aborting loop because EDIFF is reached ----------------------------------------

 total charge

# of ion       s       p       d       tot
    1        0.418   0.202   9.179   9.798
    2        0.417   0.203   9.178   9.798
    3        0.417   0.203   9.177   9.798
    4        0.416   0.203   9.178   9.797
    5        0.420   0.203   9.176   9.798
    6        0.416   0.204   9.177   9.797
    7        0.416   0.204   9.177   9.797
    8        0.416   0.204   9.177   9.797
    9        0.413   0.204   9.178   9.794
   10        0.408   0.267   9.165   9.841
   11        0.405   0.272   9.166   9.842
   12        0.411   0.267   9.164   9.842
   13        0.405   0.271   9.166   9.842
   14        0.401   0.273   9.167   9.841
   15        0.405   0.269   9.165   9.839
   16        0.412   0.266   9.165   9.843
   17        0.405   0.269   9.165   9.839
   18        0.401   0.274   9.162   9.837
   19        0.405   0.266   9.165   9.835
   20        0.427   0.301   9.140   9.868
   21        0.430   0.296   9.144   9.871
   22        0.393   0.278   9.164   9.835
   23        0.434   0.292   9.146   9.872
   24        0.394   0.275   9.166   9.836
   25        0.400   0.270   9.161   9.832
   26        0.406   0.265   9.165   9.836
   27        0.393   0.278   9.164   9.834
   28        0.377   0.239   9.181   9.798
   29        0.366   0.227   9.195   9.789
   30        0.402   0.204   9.187   9.793
   31        0.370   0.229   9.191   9.790
   32        0.404   0.201   9.190   9.795
   33        0.408   0.207   9.180   9.796
   34        0.407   0.203   9.186   9.796
   35        0.413   0.193   9.183   9.790
   36        0.374   0.400   5.151   5.925
   37        1.612   3.262   0.000   4.874
   38        1.556   3.491   0.000   5.047
   39        0.617   0.120   0.000   0.737
tot         18.390  15.756 326.144 360.290

  FORCE on cell =-STRESS in cart. coord.  units (eV):
  Direction    XX          YY          ZZ          XY          YZ          ZX
  Alpha Z   661.88308   661.88308   661.88308
  Ewald  179049.73168178966.90496************    55.21352   -18.56962   -11.91958
  Hartree189124.79202189051.40651************    44.78950    -0.80187    -3.85279
  E(xc)   -2124.88534 -2124.91791 -2128.72399     0.04421    -0.05559    -0.02431
  Local  ************************379250.72481   -99.50551    15.58062    13.63038
  n-local  -395.44192  -395.08124  -396.87659    -0.21008    -0.92193    -0.09721
  augment  3264.70827  3264.47423  3265.49112     0.00393     1.11308     0.17298
  Kinetic  5120.68769  5120.16233  5100.19359    -0.09446     3.49843     1.94239
  Fock        0.00000     0.00000     0.00000     0.00000     0.00000     0.00000
  Total      -7.34729    -7.51559    -2.48232     0.24111    -0.15689    -0.14812
  in kB      -6.78833    -6.94383    -2.29347     0.22276    -0.14495    -0.13686

 VOLUME and BASIS-vectors are now :
  energy-cutoff  :      500.00
  volume of cell :     1734.10
      direct lattice vectors                 reciprocal lattice vectors
     8.791366577  0.000000000  0.000000000     0.113747958 -0.065672414  0.000000000
     4.395683289  7.613546790  0.000000000     0.000000000  0.131344829  0.000000000
     0.000000000  0.000000000 25.907840602     0.000000000  0.000000000  0.038598354

  length of vectors
     8.791366577  8.791366577 25.907840602     0.131344829  0.131344829  0.038598354

 FORCES acting on ions
    electron-ion (+dipol)            ewald-force                    non-local-force                 convergence-correction
   0.247E+00 0.128E+00 0.282E+04   -.206E+00 -.137E+00 -.282E+04   -.401E-01 -.145E-01 -.187E+01   0.459E-02 0.242E-01 -.156E+00
   0.213E-01 0.475E+00 0.282E+04   -.235E+00 -.541E+00 -.282E+04   0.125E+00 0.537E-01 -.157E+01   0.797E-01 0.229E-01 -.128E+00
   -.280E+00 0.338E+00 0.282E+04   0.441E+00 -.464E+00 -.282E+04   -.750E-01 0.109E+00 -.170E+01   -.814E-01 0.218E-01 -.158E+00
   0.416E+00 -.228E+00 0.282E+04   -.570E+00 0.986E-01 -.282E+04   0.112E+00 0.728E-01 -.156E+01   0.490E-01 0.491E-01 -.138E+00
   -.113E+00 -.482E-01 0.282E+04   0.167E+00 0.138E+00 -.282E+04   -.936E-02 -.410E-01 -.161E+01   -.362E-01 -.404E-01 -.933E-01
   -.322E+00 0.183E-01 0.282E+04   0.402E+00 -.423E-01 -.282E+04   -.968E-01 -.137E-01 -.160E+01   0.173E-02 0.391E-01 -.200E+00
   0.157E+00 -.390E+00 0.282E+04   -.165E+00 0.581E+00 -.282E+04   0.597E-01 -.119E+00 -.165E+01   -.430E-01 -.769E-01 -.164E+00
   -.141E+00 -.275E+00 0.282E+04   0.129E+00 0.367E+00 -.282E+04   -.580E-01 -.803E-01 -.157E+01   0.570E-01 -.267E-01 -.203E+00
   0.995E-02 -.133E-01 0.282E+04   0.358E-01 -.160E-02 -.282E+04   -.144E-01 0.265E-01 -.189E+01   -.290E-01 -.129E-01 -.186E+00
   0.400E+01 0.225E+01 0.997E+03   -.372E+01 -.208E+01 -.997E+03   -.348E+00 -.224E+00 -.782E+00   0.710E-01 0.471E-01 0.465E+00
   -.161E+01 0.423E+01 0.100E+04   0.156E+01 -.459E+01 -.100E+04   0.867E-01 0.212E+00 -.466E+00   -.346E-01 0.110E+00 0.544E+00
   -.237E+01 0.217E+01 0.994E+03   0.216E+01 -.207E+01 -.994E+03   0.234E+00 -.157E+00 -.736E+00   -.293E-01 0.403E-01 0.473E+00
   0.295E+01 -.375E+01 0.100E+04   -.324E+01 0.389E+01 -.100E+04   0.199E+00 -.958E-02 -.410E+00   0.545E-01 -.110E+00 0.555E+00
   -.369E+01 -.229E+01 0.999E+03   0.403E+01 0.255E+01 -.999E+03   -.213E+00 -.136E+00 -.327E+00   -.833E-01 -.947E-01 0.543E+00
   0.733E+00 -.453E+00 0.995E+03   -.788E+00 0.315E+00 -.995E+03   0.435E-02 0.786E-01 -.698E+00   0.386E-01 0.387E-01 0.413E+00
   0.765E+00 -.284E+01 0.994E+03   -.773E+00 0.264E+01 -.994E+03   -.865E-02 0.206E+00 -.681E+00   0.100E-01 -.759E-02 0.479E+00
   0.950E-01 0.101E+01 0.995E+03   -.299E+00 -.101E+01 -.995E+03   0.103E+00 -.110E-01 -.683E+00   0.769E-01 0.215E-01 0.421E+00
   -.882E+00 -.273E+00 0.994E+03   0.107E+01 0.343E+00 -.993E+03   -.801E-01 -.168E-01 -.806E+00   -.799E-01 -.331E-01 0.414E+00
   0.118E+02 -.711E+01 -.843E+03   -.117E+02 0.702E+01 0.842E+03   -.121E+00 0.713E-01 0.199E+00   0.277E-01 0.191E-01 0.770E+00
   0.361E+01 0.162E+00 -.813E+03   -.319E+01 0.128E+00 0.813E+03   -.963E+00 -.600E+00 -.105E+01   0.466E+00 0.258E+00 0.125E+01
   -.154E+02 0.519E+01 -.834E+03   0.147E+02 -.467E+01 0.833E+03   0.122E+01 -.770E+00 -.618E+00   -.486E+00 0.220E+00 0.123E+01
   0.492E+01 -.121E+02 -.851E+03   -.529E+01 0.121E+02 0.850E+03   0.246E+00 -.258E-01 0.446E+00   0.142E+00 -.745E-01 0.757E+00
   -.153E+01 -.163E+02 -.838E+03   0.162E+01 0.156E+02 0.837E+03   -.324E-01 0.133E+01 -.556E+00   -.430E-01 -.538E+00 0.126E+01
   -.343E+01 -.232E+01 -.855E+03   0.373E+01 0.245E+01 0.853E+03   -.203E+00 -.848E-01 0.685E+00   -.105E+00 -.508E-01 0.745E+00
   0.690E+01 0.568E+01 -.861E+03   -.661E+01 -.546E+01 0.860E+03   -.145E+00 -.141E+00 0.350E+00   -.452E-01 -.149E-01 0.738E+00
   0.952E+00 0.148E+02 -.844E+03   -.961E+00 -.146E+02 0.843E+03   -.251E-01 -.200E+00 0.175E+00   0.450E-01 0.160E-01 0.764E+00
   -.776E+01 0.123E+02 -.849E+03   0.757E+01 -.127E+02 0.848E+03   0.888E-01 0.298E+00 0.467E+00   -.202E-02 0.165E+00 0.767E+00
   0.114E+03 0.686E+02 -.259E+04   -.116E+03 -.693E+02 0.259E+04   0.609E+00 0.308E+00 0.136E+01   0.877E-01 0.575E-01 0.344E+00
   -.782E+02 0.106E+03 -.259E+04   0.793E+02 -.107E+03 0.259E+04   -.115E+01 0.984E-01 0.258E+01   0.233E+00 0.530E+00 0.286E+00
   -.324E+02 0.552E+02 -.269E+04   0.329E+02 -.559E+02 0.269E+04   -.145E-01 -.103E+00 0.255E+01   -.351E+00 0.550E+00 0.290E+00
   0.419E+02 -.129E+03 -.260E+04   -.419E+02 0.130E+03 0.259E+04   -.791E+00 -.116E+01 0.241E+01   0.566E+00 -.778E-01 0.275E+00
   -.130E+02 -.252E+02 -.269E+04   0.125E+02 0.258E+02 0.269E+04   0.120E+01 -.429E+00 0.270E+01   -.532E+00 -.213E-01 0.313E+00
   0.234E+02 -.391E+02 -.270E+04   -.234E+02 0.391E+02 0.270E+04   -.375E+00 0.660E+00 0.222E+01   0.291E+00 -.560E+00 0.265E+00
   -.188E+02 0.500E+01 -.270E+04   0.186E+02 -.601E+01 0.269E+04   0.469E+00 0.143E+01 0.258E+01   -.266E+00 -.449E+00 0.310E+00
   -.518E+01 -.129E-01 -.271E+04   0.515E+01 0.887E-02 0.271E+04   0.733E-01 0.736E-02 0.194E+01   -.298E-01 -.487E-02 0.354E+00
   -.253E+02 -.437E+02 -.143E+04   0.254E+02 0.439E+02 0.143E+04   0.157E+00 -.325E-01 -.152E+00   -.263E-01 -.158E-01 0.145E+00
   -.315E+02 -.140E+02 -.187E+04   0.303E+02 0.107E+02 0.190E+04   0.117E+01 0.312E+01 -.280E+02   0.375E-01 0.170E+00 -.107E+01
   0.173E+02 0.952E+01 -.182E+04   -.124E+02 -.767E+01 0.179E+04   -.503E+01 -.189E+01 0.262E+02   0.903E-01 0.485E-01 -.204E-01
   0.101E+02 0.369E+01 -.366E+03   -.108E+02 -.391E+01 0.374E+03   0.693E+00 0.213E+00 -.809E+01   0.104E-01 0.571E-02 -.146E-01
   0.281E+01 -.231E+01 -.286E+00   0.000E+00 0.135E-12 0.261E-11   -.295E+01 0.203E+01 -.122E+02   0.137E+00 0.245E+00 0.126E+02

 POSITION                                       TOTAL-FORCE (eV/Angst)
      0.00000      0.00000      5.28219         0.005974      0.002128     -0.033855
      2.93046      0.00000      5.28219        -0.009083      0.011856      0.016657
      5.86091      0.00000      5.28219         0.003894      0.006531      0.024564
      1.46523      2.53785      5.28219         0.007231     -0.006558      0.021557
      4.39568      2.53785      5.28219         0.008382      0.009635     -0.005614
      7.32614      2.53785      5.28219        -0.014894      0.002436      0.026632
      2.93046      5.07570      5.28219         0.008570     -0.003615      0.026307
      5.86091      5.07570      5.28219        -0.012409     -0.013120      0.028712
      8.79137      5.07570      5.28219         0.002358     -0.000301      0.019933
      1.46523      0.84595      7.67490         0.006558     -0.001036     -0.025157
      4.39568      0.84595      7.67490         0.001678     -0.032426     -0.054573
      7.32614      0.84595      7.67490        -0.005738     -0.010039     -0.017564
      2.93046      3.38380      7.67490        -0.030833      0.021004     -0.046829
      5.86091      3.38380      7.67490         0.040592      0.024852     -0.023392
      8.79137      3.38380      7.67490        -0.011699     -0.019886     -0.013223
      4.39568      5.92165      7.67490        -0.006212     -0.000560     -0.026107
      7.32614      5.92165      7.67490        -0.024218      0.004584     -0.012513
     10.25659      5.92165      7.67490         0.030459      0.021632      0.051220
      8.79137      1.69455     10.06139         0.018961      0.001009      0.022783
      2.94158      1.69832     10.04035        -0.076361     -0.049739     -0.000514
      5.84978      1.69832     10.04035         0.074465     -0.031012     -0.050888
     10.25392      4.23129     10.05365         0.018041     -0.121739      0.077281
      4.39568      4.21690     10.04035         0.014391      0.127070     -0.114406
      7.32881      4.23129     10.05365        -0.016563     -0.010431      0.018973
     11.71953      6.76627     10.06139         0.097974      0.059902      0.139043
      5.86321      6.76627     10.06139         0.011243      0.017014      0.020527
      8.79137      6.76451     10.05365        -0.094916      0.075612      0.081580
      0.00000      0.00000     12.42536        -0.549058     -0.308155     -0.044749
      2.96459      0.05999     12.43855         0.250104     -0.448973     -0.047674
      5.82677      0.05999     12.43855         0.142863     -0.229130     -0.187844
      1.53425      2.53742     12.43855        -0.196474      0.467123     -0.031399
      7.25712      2.53742     12.43855         0.074307      0.124510     -0.219321
      2.96534      5.01614     12.43855        -0.078594      0.139060     -0.177105
      5.82603      5.01614     12.43855         0.087676     -0.032056     -0.206423
      8.79137      5.07570     12.42471         0.006098     -0.000554     -0.044316
      4.39568      2.53785     12.16969         0.202070      0.185816      0.849978
      4.34583      2.30589     13.74839         0.013931      0.016525     -0.030462
      1.37853      0.79685     13.98681        -0.000318      0.004136     -0.011724
      1.29189      0.76958     14.95543        -0.000449     -0.003105     -0.000096
    total drift:                                0.000684     -0.038912      0.141996

  FREE ENERGIE OF THE ION-ELECTRON SYSTEM (eV)
  free  energy   TOTEN  =      -112.96419664 eV

  energy  without entropy=     -112.96419664  energy(sigma->0) =     -112.96419664

 stress matrix after NEB project (eV)
     -7.34729      0.24111     -0.14812
      0.24111     -7.51559     -0.15689
     -0.14812     -0.15689     -2.48232
  FORCES: max atom, RMS     0.037350    0.006324
  FORCE total and by dimension    0.039491    0.030462
  Stress total and by dimension   10.809165    7.515592
|           W    W    AA    RRRRR   N    N  II  N    N   GGGG   !!!           |
|           W    W   A  A   R    R  NN   N  II  NN   N  G    G  !!!           |
|           W    W  A    A  R    R  N N  N  II  N N  N  G       !!!           |
|           W WW W  AAAAAA  RRRRR   N  N N  II  N  N N  G  GGG   !            |
|           WW  WW  A    A  R   R   N   NN  II  N   NN  G    G                |
|           W    W  A    A  R    R  N    N  II  N    N   GGGG   !!!           |
|     Tetrahedron method does not include variations of the Fermi             |
|     occupations, so forces and stress will be inaccurate. We suggest        |
|     using a different smearing scheme ISMEAR = 1 or 2 for metals in         |
|     relaxations.                                                            |

 total charge

# of ion       s       p       d       tot
    1        0.418   0.202   9.179   9.798
    2        0.417   0.203   9.178   9.798
    3        0.417   0.203   9.177   9.798
    4        0.416   0.203   9.178   9.797
    5        0.420   0.203   9.176   9.798
    6        0.416   0.204   9.177   9.797
    7        0.416   0.204   9.177   9.797
    8        0.416   0.204   9.177   9.797
    9        0.413   0.204   9.178   9.794
   10        0.408   0.267   9.165   9.841
   11        0.405   0.272   9.166   9.842
   12        0.411   0.267   9.164   9.842
   13        0.405   0.271   9.166   9.842
   14        0.401   0.273   9.167   9.841
   15        0.405   0.269   9.165   9.839
   16        0.412   0.266   9.165   9.843
   17        0.405   0.269   9.165   9.839
   18        0.401   0.274   9.162   9.837
   19        0.405   0.266   9.165   9.835
   20        0.427   0.301   9.140   9.868
   21        0.430   0.296   9.144   9.871
   22        0.393   0.278   9.164   9.835
   23        0.434   0.292   9.146   9.872
   24        0.394   0.275   9.166   9.836
   25        0.400   0.270   9.161   9.832
   26        0.406   0.265   9.165   9.836
   27        0.393   0.278   9.164   9.834
   28        0.377   0.239   9.181   9.798
   29        0.366   0.227   9.195   9.789
   30        0.402   0.204   9.187   9.793
   31        0.370   0.229   9.191   9.790
   32        0.404   0.201   9.190   9.795
   33        0.408   0.207   9.180   9.796
   34        0.407   0.203   9.186   9.796
   35        0.413   0.193   9.183   9.790
   36        0.374   0.400   5.151   5.925
   37        1.612   3.262   0.000   4.874
   38        1.556   3.491   0.000   5.047
   39        0.617   0.120   0.000   0.737
tot         18.390  15.756 326.144 360.290

 BZINTS: Fermi energy:    0.100006;  405.000000 electrons
         Band energy:-0.165763E+04;  BLOECHL correction:   -0.029096