 vasp.6.2.0 18Jan21 (build Jun 12 2021 23:27:24) complex

 executed on             LinuxIFC date 2022.05.27  06:22:57

 INCAR:
   ISMEAR = -5
   SIGMA = 0.1
   ISPIN = 1
   EDIFF = 1.d-5
   EDIFFG = -0.01
   NSW = 0
   NELM = 150
   ENCUT = 500
   ISIF = 2
   IBRION = 2
   LREAL = Auto
   ALGO = Fast
   ICHARG = 11
   LORBIT = 10
   LCHARG = .F.
   LWAVE = .F.

 POTCAR:    PAW_PBE Cu 22Jun2005
 POTCAR:    PAW_PBE Pt 04Feb2005
 POTCAR:    PAW_PBE N 08Apr2002
|           W    W    AA    RRRRR   N    N  II  N    N   GGGG   !!!           |
|           W    W   A  A   R    R  NN   N  II  NN   N  G    G  !!!           |
|           W    W  A    A  R    R  N N  N  II  N N  N  G       !!!           |
|           W WW W  AAAAAA  RRRRR   N  N N  II  N  N N  G  GGG   !            |
|           WW  WW  A    A  R   R   N   NN  II  N   NN  G    G                |
|           W    W  A    A  R    R  N    N  II  N    N   GGGG   !!!           |
|     For optimal performance we recommend to set                             |
|       NCORE = 2 up to number-of-cores-per-socket                            |
|     This setting can greatly improve the performance of VASP for DFT.       |
|     The default, NCORE=1 might be grossly inefficient on modern             |
|     multi-core architectures or massively parallel machines. Do your        |
|     Unfortunately you need to use the default for GW and RPA                |
|     calculations (for HF NCORE is supported but not extensively tested      |
|     yet).                                                                   |

 POTCAR:    PAW_PBE Cu 22Jun2005
   VRHFIN =Cu: d10 p1

   TITEL  = PAW_PBE Cu 22Jun2005
   POMASS =   63.546; ZVAL   =   11.000    mass and valenz
   ENMAX  =  295.446; ENMIN  =  221.585 eV

 POTCAR:    PAW_PBE Pt 04Feb2005
   VRHFIN =Pt: s1d9

   TITEL  = PAW_PBE Pt 04Feb2005
   POMASS =  195.080; ZVAL   =   10.000    mass and valenz
   ENMAX  =  230.283; ENMIN  =  172.712 eV

 POTCAR:    PAW_PBE N 08Apr2002
   VRHFIN =N: s2p3

   TITEL  = PAW_PBE N 08Apr2002
   POMASS =   14.001; ZVAL   =    5.000    mass and valenz
   ENMAX  =  400.000; ENMIN  =  300.000 eV

 Optimization of the real space projectors (new method)

 maximal supplied QI-value         = 16.25
 optimisation between [QCUT,QGAM] = [ 11.38, 22.75] = [ 36.24,144.96] Ry
 Optimized for a Real-space Cutoff    1.52 Angstroem

   l    n(q)    QCUT    max X(q) W(low)/X(q) W(high)/X(q)  e(spline)
   2      9    11.376     4.610    0.21E-03    0.10E-03    0.26E-06
   2      9    11.376     8.522    0.33E-03    0.16E-03    0.37E-06
   0     10    11.376    51.609    0.62E-04    0.20E-04    0.13E-06
   0     10    11.376    27.747    0.54E-04    0.20E-04    0.13E-06
   1     10    11.376    20.408    0.13E-04    0.99E-04    0.19E-06
   1     10    11.376    13.425    0.12E-04    0.87E-04    0.17E-06
 Optimization of the real space projectors (new method)

[...]

   l    n(q)    QCUT    max X(q) W(low)/X(q) W(high)/X(q)  e(spline)
   2      9    11.346    66.195    0.31E-03    0.12E-04    0.29E-06
   2      9    11.346    64.643    0.32E-03    0.12E-04    0.29E-06
   0     10    11.346    95.520    0.90E-04    0.16E-04    0.19E-06
   0     10    11.346    63.403    0.87E-04    0.15E-04    0.19E-06
   1     10    11.346    19.961    0.17E-03    0.21E-03    0.11E-06
   1     10    11.346    13.289    0.14E-03    0.18E-03    0.89E-07
 Optimization of the real space projectors (new method)

 maximal supplied QI-value         = 25.13
 optimisation between [QCUT,QGAM] = [ 11.31, 22.87] = [ 35.82,146.48] Ry
 Optimized for a Real-space Cutoff    1.27 Angstroem

   l    n(q)    QCUT    max X(q) W(low)/X(q) W(high)/X(q)  e(spline)
   0      9    11.310    79.467    0.75E-04    0.16E-03    0.36E-06
   0      9    11.310    66.151    0.74E-04    0.16E-03    0.36E-06
   1      8    11.310    17.416    0.35E-03    0.12E-03    0.95E-06
   1      8    11.310    12.382    0.37E-03    0.13E-03    0.98E-06
  PAW_PBE Cu 22Jun2005                  :
  PAW_PBE Pt 04Feb2005                  :
  PAW_PBE N 08Apr2002                   :

 POSCAR: Cu-Pt-N2
  positions in direct lattice
  velocities in cartesian coordinates
 exchange correlation table for  LEXCH =        8
   RHO(1)=    0.500       N(1)  =     2000
   RHO(2)=  100.500       N(2)  =     4000

 VTST: version 3.2, (02/03/18)

 CHAIN: initializing optimizer

 OPT: Using VASP Conjugate-Gradient optimizer
 CHAIN: Read ICHAIN            0

 POSCAR: Cu-Pt-N2
  positions in direct lattice
  velocities in cartesian coordinates

 ion  position               nearest neighbor table
   1  0.000  0.000  0.252-   7 2.57   3 2.57   4 2.57   2 2.57   6 2.57   8 2.57  12 2.57  10 2.57
                            16 2.57
   2  0.333  0.000  0.252-   8 2.57   9 2.57   5 2.57   1 2.57   3 2.57  11 2.57   4 2.57  10 2.57
                            17 2.57
   3  0.667  0.000  0.252-   1 2.57   7 2.57   6 2.57   9 2.57   2 2.57  12 2.57   5 2.57  18 2.57
                            11 2.57
   4  0.000  0.333  0.252-   5 2.57   6 2.57   1 2.57   7 2.57   2 2.57  13 2.57   9 2.57  10 2.57
                            15 2.57
   5  0.333  0.333  0.252-   4 2.57   2 2.57   7 2.57  13 2.57   8 2.57   6 2.57   3 2.57  11 2.57
                            14 2.57
   6  0.667  0.333  0.252-   4 2.57   9 2.57  15 2.57   3 2.57   1 2.57   8 2.57  14 2.57   5 2.57
                            12 2.57
   7  0.000  0.667  0.252-   1 2.57   3 2.57  16 2.57  18 2.57   4 2.57   5 2.57   8 2.57   9 2.57
                            13 2.57
   8  0.333  0.667  0.252-   9 2.57   2 2.57  17 2.57   6 2.57   1 2.57   7 2.57   5 2.57  14 2.57
                            16 2.57
   9  0.667  0.667  0.252-   8 2.57   6 2.57   2 2.57  17 2.57   3 2.57   7 2.57   4 2.57  15 2.57
                            18 2.57
  10  0.111  0.111  0.351-  20 2.53  26 2.56  19 2.56  11 2.57  12 2.57  13 2.57   1 2.57   2 2.57
                             4 2.57  15 2.57  16 2.57  17 2.57
  11  0.444  0.111  0.351-  20 2.55  21 2.55  27 2.56  10 2.57  13 2.57   2 2.57  17 2.57  14 2.57
                            12 2.57   5 2.57   3 2.57  18 2.57
  12  0.778  0.111  0.351-  21 2.53  19 2.56  25 2.56  15 2.57  10 2.57  14 2.57  18 2.57   3 2.57
                             1 2.57  16 2.57  11 2.57   6 2.57
  13  0.111  0.444  0.351-  23 2.55  20 2.55  22 2.56  16 2.57  18 2.57  10 2.57  11 2.57  14 2.57
                             5 2.57   4 2.57   7 2.57  15 2.57
  14  0.444  0.444  0.351-  21 2.55  23 2.55  24 2.56  15 2.57  17 2.57  12 2.57  16 2.57  13 2.57
                            11 2.57   6 2.57   8 2.57   5 2.57
  15  0.778  0.444  0.351-  19 2.56  24 2.56  22 2.56  14 2.57  17 2.57  12 2.57   6 2.57  18 2.57
                            10 2.57   9 2.57  13 2.57   4 2.57
  16  0.111  0.778  0.351-  23 2.53  25 2.56  26 2.56  18 2.57  13 2.57   7 2.57  14 2.57  17 2.57
                            12 2.57  10 2.57   8 2.57   1 2.57
  17  0.444  0.778  0.351-  26 2.56  27 2.56  24 2.56  14 2.57  15 2.57   8 2.57   9 2.57  11 2.57
                            16 2.57  18 2.57  10 2.57   2 2.57
  18  0.778  0.778  0.351-  25 2.56  22 2.56  27 2.56  16 2.57  13 2.57   7 2.57  15 2.57  12 2.57
                            17 2.57   9 2.57   3 2.57  11 2.57
  19  0.888  0.223  0.449-  28 2.54  32 2.55  31 2.55  21 2.55  20 2.55  15 2.56  12 2.56  10 2.56
                            22 2.56  24 2.56  25 2.58  26 2.58
  20  0.221  0.221  0.448-  10 2.53  11 2.55  13 2.55  26 2.55  19 2.55  27 2.57  22 2.57  29 2.59
                            31 2.59  36 2.60  23 2.60  21 2.60
  21  0.558  0.221  0.448-  12 2.53  14 2.55  11 2.55  19 2.55  25 2.55  24 2.57  27 2.57  32 2.59
                            30 2.59  36 2.60  20 2.60  23 2.60
  22  0.889  0.556  0.449-  35 2.54  18 2.56  15 2.56  13 2.56  19 2.56  25 2.56  24 2.56  27 2.56
                            31 2.57  33 2.57  23 2.57  20 2.57
  23  0.221  0.558  0.448-  16 2.53  13 2.55  14 2.55  25 2.55  26 2.55  22 2.57  24 2.57  33 2.59
                            34 2.59  36 2.60  20 2.60  21 2.60
  24  0.556  0.556  0.449-  35 2.54  15 2.56  17 2.56  14 2.56  19 2.56  26 2.56  22 2.56  27 2.56
                            32 2.57  34 2.57  21 2.57  23 2.57
  25  0.888  0.888  0.449-  28 2.54  33 2.55  30 2.55  21 2.55  23 2.55  18 2.56  16 2.56  12 2.56
                            22 2.56  27 2.56  19 2.58  26 2.58
  26  0.223  0.888  0.449-  28 2.54  29 2.55  34 2.55  20 2.55  23 2.55  17 2.56  10 2.56  16 2.56
                            27 2.56  24 2.56  25 2.58  19 2.58
  27  0.556  0.889  0.449-  35 2.54  17 2.56  18 2.56  11 2.56  26 2.56  25 2.56  24 2.56  22 2.56
                            29 2.57  30 2.57  20 2.57  21 2.57
  28  0.000  0.000  0.546-  25 2.54  19 2.54  26 2.54  33 2.55  30 2.55  31 2.55  29 2.55  32 2.55
                            34 2.55
  29  0.333  0.997  0.547-  34 2.52  26 2.55  28 2.55  35 2.56  27 2.57  31 2.59  20 2.59  36 2.59
                            30 2.59
  30  0.670  0.997  0.547-  33 2.52  25 2.55  28 2.55  35 2.56  27 2.57  32 2.59  21 2.59  36 2.59
                            29 2.59
  31  0.997  0.333  0.547-  32 2.52  19 2.55  28 2.55  35 2.56  22 2.57  29 2.59  20 2.59  36 2.59
                            33 2.59
  32  0.670  0.333  0.547-  31 2.52  19 2.55  28 2.55  35 2.56  24 2.57  30 2.59  21 2.59  36 2.59
                            34 2.59
  33  0.997  0.670  0.547-  30 2.52  25 2.55  28 2.55  35 2.56  22 2.57  34 2.59  23 2.59  36 2.59
                            31 2.59
  34  0.333  0.670  0.547-  29 2.52  26 2.55  28 2.55  35 2.56  24 2.57  33 2.59  23 2.59  36 2.59
                            32 2.59
  35  0.667  0.667  0.546-  24 2.54  27 2.54  22 2.54  34 2.56  32 2.56  29 2.56  30 2.56  33 2.56
                            31 2.56
  36  0.333  0.333  0.547-  31 2.59  29 2.59  33 2.59  34 2.59  32 2.59  30 2.59  23 2.60  20 2.60
                            21 2.60
  37  0.262  0.331  0.746-  38 1.11
  38  0.407  0.331  0.746-  37 1.11

  LATTYP: Found a hexagonal cell.
 ALAT       =     7.6967864036
 C/A-ratio  =     2.7653617908

  Lattice vectors:

 A1 = (  -3.8483927580,  -6.6656128093,   0.0000000000)
 A2 = (   7.6967864037,   0.0000000000,   0.0000000000)
 A3 = (   0.0000000000,   0.0000000000,  21.2843990326)

Analysis of symmetry for initial positions (statically):
 Subroutine PRICEL returns:
 Original cell was already a primitive cell.

 Routine SETGRP: Setting up the symmetry group for a
 hexagonal supercell.

 Subroutine GETGRP returns: Found  2 space group operations
 (whereof  2 operations were pure point group operations)
 out of a pool of 24 trial point group operations.

The static configuration has the point symmetry C_1h.

Analysis of symmetry for dynamics (positions and initial velocities):
 Subroutine PRICEL returns:
 Original cell was already a primitive cell.

[...]

The dynamic configuration has the point symmetry C_1h.

Analysis of constrained symmetry for selective dynamics:
 Subroutine PRICEL returns:
 Original cell was already a primitive cell.

 Routine SETGRP: Setting up the symmetry group for a
 hexagonal supercell.

[...]
     33      -3.8513      2.00000
     34      -3.8410      2.00000
     35      -3.8333      2.00000
     36      -3.8320      2.00000
     37      -3.8266      2.00000
     38      -3.7966      2.00000
     39      -3.7603      2.00000
     40      -3.7138      2.00000
     41      -3.6655      2.00000
     42      -3.5303      2.00000
     43      -3.5141      2.00000
     44      -3.4838      2.00000
     45      -3.4568      2.00000
     46      -3.4357      2.00000
     47      -3.4331      2.00000
     48      -3.4065      2.00000
     49      -3.3948      2.00000
     50      -3.3916      2.00000
     51      -3.2218      2.00000
     52      -3.2177      2.00000
     53      -3.1764      2.00000
     54      -3.1681      2.00000
     55      -3.1244      2.00000
     56      -3.1210      2.00000
     57      -3.1028      2.00000
     58      -3.0915      2.00000
     59      -3.0871      2.00000
     60      -3.0710      2.00000
[...]
    238       5.9607      0.00000
    239       5.9819      0.00000
    240       6.3053      0.00000
    241       6.3204      0.00000
    242       6.6125      0.00000
    243       6.6753      0.00000
    244       6.6998      0.00000
    245       6.8551      0.00000
    246       6.9149      0.00000
    247       7.0847      0.00000
    248       7.2355      0.00000
    249       7.3411      0.00000
    250       7.5154      0.00000
    251       7.5313      0.00000
    252       7.6186      0.00000

 soft charge-density along one line, spin component           1
         0         1         2         3         4         5         6         7         8         9
 total charge-density along one line

------------------------ aborting loop because EDIFF is reached ----------------------------------------

 total charge

# of ion       s       p       d       tot
    1        0.446   0.287   9.188   9.921
    2        0.449   0.284   9.188   9.921
    3        0.449   0.284   9.188   9.921
    4        0.449   0.284   9.188   9.921
    5        0.447   0.286   9.186   9.919
    6        0.449   0.284   9.188   9.921
    7        0.449   0.284   9.188   9.921
    8        0.449   0.284   9.188   9.921
    9        0.448   0.284   9.187   9.918
   10        0.441   0.375   9.177   9.992
   11        0.444   0.369   9.182   9.994
   12        0.441   0.375   9.177   9.992
   13        0.444   0.369   9.182   9.994
   14        0.444   0.369   9.182   9.994
   15        0.439   0.370   9.180   9.989
   16        0.441   0.375   9.177   9.992
   17        0.439   0.370   9.180   9.989
   18        0.439   0.370   9.180   9.989
   19        0.443   0.375   9.181   9.999
   20        0.438   0.376   9.185  10.000
   21        0.438   0.376   9.185  10.000
   22        0.439   0.373   9.182   9.993
   23        0.438   0.376   9.185  10.000
   24        0.439   0.373   9.182   9.993
   25        0.443   0.375   9.182   9.999
   26        0.443   0.375   9.182   9.999
   27        0.439   0.372   9.182   9.993
   28        0.452   0.292   9.194   9.938
   29        0.449   0.300   9.187   9.936
   30        0.449   0.300   9.187   9.936
   31        0.449   0.300   9.187   9.936
   32        0.449   0.300   9.187   9.936
   33        0.449   0.300   9.187   9.936
   34        0.449   0.300   9.187   9.936
   35        0.449   0.295   9.193   9.936
   36        0.715   0.425   8.142   9.282
   37        1.373   2.469   0.000   3.842
   38        1.373   2.469   0.000   3.842
tot         19.025  17.022 329.597 365.644

  FORCE on cell =-STRESS in cart. coord.  units (eV):
  Direction    XX          YY          ZZ          XY          YZ          ZX
  Alpha Z   914.28234   914.28234   914.28234
  Ewald  167742.11568167420.46148************     0.00038     0.10132     0.00016
  Hartree180869.44533180754.85335************     0.00003     0.11076     0.00006
  E(xc)   -2332.72904 -2333.96960 -2338.87606    -0.00033    -0.00001    -0.00004
  Local  ************************361498.63673     0.02017    -0.21182    -0.00072
  n-local  -777.76465  -765.22828  -781.40342     1.91897    -0.00012     0.15982
  augment  3360.90293  3360.62013  3379.37779    -0.01830    -0.00021     0.00028
  Kinetic  3451.29522  3469.38051  3498.08984     0.91750     0.00094    -0.15323
  Fock        0.00000     0.00000     0.00000     0.00000     0.00000     0.00000
  Total      -2.09045    -2.09544     3.81611     0.00000     0.00087    -0.00000
  in kB      -3.06718    -3.07450     5.59913     0.00000     0.00128    -0.00000

 VOLUME and BASIS-vectors are now :
  energy-cutoff  :      500.00
  volume of cell :     1091.97
      direct lattice vectors                 reciprocal lattice vectors
     7.696786404  0.000000000  0.000000000     0.129924354 -0.075011849  0.000000000
     3.848392758  6.665612809  0.000000000     0.000000000  0.150023716  0.000000000
     0.000000000  0.000000000 21.284399033     0.000000000  0.000000000  0.046982769

  length of vectors
     7.696786404  7.696786404 21.284399033     0.150023716  0.150023716  0.046982769

 FORCES acting on ions
    electron-ion (+dipol)            ewald-force                    non-local-force                 convergence-correction
   -.406E-04 0.260E-02 0.348E+04   0.580E-04 -.335E-02 -.348E+04   0.500E-10 -.752E-03 -.242E+01   -.327E-03 0.124E-02 -.805E+00
   -.283E+00 0.104E-01 0.348E+04   0.153E+00 0.129E+00 -.348E+04   0.121E-01 -.438E-01 -.200E+01   0.118E+00 -.963E-01 -.615E+00
   0.283E+00 0.105E-01 0.348E+04   -.153E+00 0.129E+00 -.348E+04   -.121E-01 -.438E-01 -.200E+01   -.117E+00 -.939E-01 -.614E+00
   -.138E+00 -.258E+00 0.348E+04   0.191E+00 0.671E-01 -.348E+04   -.305E-01 0.319E-01 -.200E+01   -.227E-01 0.158E+00 -.615E+00
   -.610E-04 -.798E-02 0.348E+04   0.116E-03 0.635E-03 -.348E+04   0.357E-09 -.536E-02 -.193E+01   0.121E-01 0.129E-01 -.585E+00
   0.138E+00 -.258E+00 0.348E+04   -.191E+00 0.670E-01 -.348E+04   0.305E-01 0.319E-01 -.200E+01   0.212E-01 0.159E+00 -.614E+00
   0.154E+00 0.247E+00 0.348E+04   0.379E-01 -.196E+00 -.348E+04   -.440E-01 0.116E-01 -.200E+01   -.145E+00 -.613E-01 -.610E+00
   -.154E+00 0.247E+00 0.348E+04   -.382E-01 -.196E+00 -.348E+04   0.440E-01 0.116E-01 -.200E+01   0.149E+00 -.627E-01 -.611E+00
   -.143E-03 0.696E-02 0.348E+04   0.263E-03 0.273E-02 -.348E+04   -.341E-09 0.513E-02 -.223E+01   -.131E-01 -.147E-01 -.561E+00
   0.112E+01 0.662E+00 0.120E+04   -.113E+01 -.667E+00 -.120E+04   -.718E-01 -.412E-01 -.852E+00   0.905E-01 0.539E-01 -.748E-01
   -.924E-04 -.217E+01 0.120E+04   0.191E-03 0.232E+01 -.120E+04   0.561E-08 -.842E-01 -.833E+00   0.118E-01 -.726E-01 -.434E-01
   -.112E+01 0.662E+00 0.120E+04   0.113E+01 -.667E+00 -.120E+04   0.718E-01 -.412E-01 -.852E+00   -.920E-01 0.545E-01 -.757E-01
   -.189E+01 0.107E+01 0.120E+04   0.202E+01 -.115E+01 -.120E+04   -.687E-01 0.347E-01 -.833E+00   -.615E-01 0.528E-01 -.458E-01
   0.189E+01 0.107E+01 0.120E+04   -.202E+01 -.115E+01 -.120E+04   0.687E-01 0.347E-01 -.833E+00   0.847E-01 0.511E-01 -.488E-01
   -.142E-03 -.278E+00 0.120E+04   0.298E-03 -.333E-01 -.120E+04   -.450E-08 0.676E-01 -.765E+00   -.298E-02 0.229E+00 -.191E+00
   -.919E-04 -.130E+01 0.120E+04   0.186E-03 0.131E+01 -.120E+04   -.559E-08 0.840E-01 -.849E+00   -.118E-02 -.109E+00 -.779E-01
   -.228E+00 0.135E+00 0.120E+04   -.385E-01 0.250E-01 -.120E+04   0.593E-01 -.332E-01 -.761E+00   0.195E+00 -.121E+00 -.188E+00
   0.228E+00 0.135E+00 0.120E+04   0.383E-01 0.249E-01 -.120E+04   -.593E-01 -.332E-01 -.761E+00   -.193E+00 -.119E+00 -.186E+00
   -.571E-04 0.158E+00 -.110E+04   0.693E-04 -.691E-01 0.110E+04   0.873E-08 -.131E+00 0.527E+00   0.108E-02 0.457E-01 0.112E+00
   -.302E+02 -.174E+02 -.111E+04   0.296E+02 0.170E+02 0.111E+04   0.340E+00 0.203E+00 0.544E+00   0.195E+00 0.111E+00 0.223E+00
   0.302E+02 -.174E+02 -.111E+04   -.296E+02 0.170E+02 0.111E+04   -.340E+00 0.203E+00 0.544E+00   -.216E+00 0.108E+00 0.223E+00
   -.170E+02 0.969E+01 -.111E+04   0.165E+02 -.940E+01 0.110E+04   0.375E+00 -.223E+00 0.828E+00   0.128E+00 -.591E-01 -.244E-01
   -.860E-04 0.347E+02 -.111E+04   0.148E-03 -.341E+02 0.111E+04   0.260E-07 -.391E+00 0.545E+00   -.139E-01 -.248E+00 0.224E+00
   0.170E+02 0.969E+01 -.111E+04   -.165E+02 -.940E+01 0.110E+04   -.375E+00 -.223E+00 0.828E+00   -.104E+00 -.594E-01 -.243E-01
   -.942E-01 -.348E-02 -.110E+04   0.178E-01 -.430E-01 0.110E+04   0.116E+00 0.666E-01 0.525E+00   -.427E-01 -.228E-01 0.111E+00
   0.943E-01 -.346E-02 -.110E+04   -.180E-01 -.430E-01 0.110E+04   -.116E+00 0.666E-01 0.525E+00   0.419E-01 -.206E-01 0.112E+00
   -.123E-03 -.195E+02 -.111E+04   0.245E-03 0.190E+02 0.111E+04   -.285E-07 0.428E+00 0.827E+00   0.113E-01 0.143E+00 -.231E-01
   -.363E-04 0.634E+00 -.337E+04   0.412E-04 -.637E+00 0.337E+04   -.877E-10 0.132E-02 0.226E+01   -.110E-03 0.105E-02 0.665E+00
   -.210E+02 -.328E+02 -.338E+04   0.209E+02 0.324E+02 0.337E+04   -.559E-01 0.224E+00 0.189E+01   0.790E-01 0.148E+00 0.537E+00
   0.210E+02 -.328E+02 -.338E+04   -.209E+02 0.324E+02 0.337E+04   0.559E-01 0.224E+00 0.189E+01   -.785E-01 0.149E+00 0.536E+00
   -.393E+02 -.150E+01 -.338E+04   0.390E+02 0.166E+01 0.337E+04   0.166E+00 -.159E+00 0.191E+01   0.170E+00 -.766E-03 0.539E+00
   0.393E+02 -.150E+01 -.338E+04   -.390E+02 0.166E+01 0.337E+04   -.166E+00 -.159E+00 0.191E+01   -.170E+00 -.766E-05 0.540E+00
   -.186E+02 0.343E+02 -.338E+04   0.183E+02 -.341E+02 0.337E+04   0.219E+00 -.657E-01 0.189E+01   0.860E-01 -.147E+00 0.537E+00
   0.186E+02 0.343E+02 -.338E+04   -.183E+02 -.341E+02 0.337E+04   -.219E+00 -.657E-01 0.189E+01   -.835E-01 -.148E+00 0.539E+00
   -.159E-03 -.514E+00 -.337E+04   0.255E-03 0.523E+00 0.337E+04   -.250E-09 0.375E-02 0.241E+01   -.124E-01 -.117E-01 0.580E+00
   -.424E-04 -.144E+00 -.304E+04   0.123E-03 0.139E+00 0.303E+04   -.368E-10 0.552E-03 0.212E+01   0.202E-02 0.413E-02 0.476E+00
   0.239E+03 -.128E-01 -.107E+04   -.285E+03 0.114E-01 0.107E+04   0.456E+02 -.135E-02 0.328E-01   0.617E-02 0.171E-02 -.120E-01
   -.239E+03 -.128E-01 -.107E+04   0.285E+03 0.114E-01 0.107E+04   -.456E+02 -.135E-02 0.328E-01   -.619E-02 0.171E-02 -.121E-01
   -.604E-04 -.684E-02 0.271E+01   0.171E-12 0.226E-12 0.819E-11   0.764E-09 -.115E-01 -.199E+01   0.251E-01 0.171E-01 -.706E+00

 POSITION                                       TOTAL-FORCE (eV/Angst)
      0.00000      0.00000      5.37156         0.000000     -0.000236      0.110332
      2.56560      0.00000      5.37156        -0.000209      0.000487      0.065124
      5.13119      0.00000      5.37156         0.000209      0.000487      0.065124
      1.28280      2.22187      5.37156         0.000248     -0.000790      0.065002
      3.84839      2.22187      5.37156        -0.000000      0.000243      0.063529
      6.41399      2.22187      5.37156        -0.000248     -0.000790      0.065002
      2.56560      4.44374      5.37156         0.000987      0.000356      0.064923
      5.13119      4.44374      5.37156        -0.000987      0.000356      0.064923
      7.69679      4.44374      5.37156        -0.000000      0.000131      0.060682
      1.28280      0.74062      7.46636         0.012296      0.007437     -0.073463
      3.84839      0.74062      7.46636         0.000000     -0.010539     -0.114854
      6.41399      0.74062      7.46636        -0.012296      0.007437     -0.073463
      2.56560      2.96249      7.46636        -0.009424      0.005948     -0.114777
      5.13119      2.96249      7.46636         0.009424      0.005948     -0.114777
      7.69679      2.96249      7.46636         0.000000     -0.015234     -0.055739
      3.84839      5.18437      7.46636         0.000000     -0.014526     -0.073118
      6.41399      5.18437      7.46636        -0.013136      0.007482     -0.055188
      8.97958      5.18437      7.46636         0.013136      0.007482     -0.055188
      7.69679      1.48680      9.55287        -0.000000      0.003193      0.001770
      2.54973      1.47208      9.52995         0.004667      0.002244     -0.008586
      5.14706      1.47208      9.52995        -0.004667      0.002244     -0.008586
      8.97744      3.70436      9.55084        -0.019886      0.011566     -0.002180
      3.84839      3.72144      9.52995         0.000000     -0.005736     -0.008474
      6.41613      3.70436      9.55084         0.019886      0.011566     -0.002180
     10.25757      5.92221      9.55287        -0.002641     -0.001511      0.000408
      5.13600      5.92221      9.55287         0.002641     -0.001511      0.000408
      7.69679      5.92251      9.55084         0.000000     -0.022333     -0.003126
      0.00000      0.00000     11.61595         0.000000     -0.000907      0.013286
      6.40108      6.64688     11.64473        -0.003905     -0.009701      0.009938
      8.99249      6.64688     11.64473         0.003905     -0.009701      0.009938
      8.95691      2.22006     11.64473        -0.009685      0.001138      0.011349
      6.43666      2.22006     11.64473         0.009685      0.001138      0.011349
     10.25261      4.46428     11.64473        -0.005647      0.008777      0.010097
      5.14096      4.46428     11.64473         0.005647      0.008777      0.010097
      7.69679      4.44374     11.61500        -0.000000      0.000695      0.007580
      3.84839      2.22187     11.65010        -0.000000      0.000329      0.047611
      3.29157      2.20817     15.87199        -0.001057     -0.000972      0.002613
      4.40522      2.20817     15.87199         0.001057     -0.000972      0.002613
    total drift:                                0.025041     -0.001231      0.010598

  FREE ENERGIE OF THE ION-ELECTRON SYSTEM (eV)
  free  energy   TOTEN  =      -145.51153133 eV

  energy  without entropy=     -145.51153133  energy(sigma->0) =     -145.51153133

 stress matrix after NEB project (eV)
     -2.09045      0.00000     -0.00000
      0.00000     -2.09544      0.00087
     -0.00000      0.00087      3.81611
  FORCES: max atom, RMS     0.002981    0.000684
  FORCE total and by dimension    0.004216    0.002613
  Stress total and by dimension    4.829444    3.816112
|           W    W    AA    RRRRR   N    N  II  N    N   GGGG   !!!           |
|           W    W   A  A   R    R  NN   N  II  NN   N  G    G  !!!           |
|           W    W  A    A  R    R  N N  N  II  N N  N  G       !!!           |
|           W WW W  AAAAAA  RRRRR   N  N N  II  N  N N  G  GGG   !            |
|           WW  WW  A    A  R   R   N   NN  II  N   NN  G    G                |
|           W    W  A    A  R    R  N    N  II  N    N   GGGG   !!!           |
|     Tetrahedron method does not include variations of the Fermi             |
|     occupations, so forces and stress will be inaccurate. We suggest        |
|     using a different smearing scheme ISMEAR = 1 or 2 for metals in         |
|     relaxations.                                                            |

 total charge

# of ion       s       p       d       tot
    1        0.446   0.287   9.188   9.921
    2        0.449   0.284   9.188   9.921
    3        0.449   0.284   9.188   9.921
    4        0.449   0.284   9.188   9.921
    5        0.447   0.286   9.186   9.919
    6        0.449   0.284   9.188   9.921
    7        0.449   0.284   9.188   9.921
    8        0.449   0.284   9.188   9.921
    9        0.448   0.284   9.187   9.918
   10        0.441   0.375   9.177   9.992
   11        0.444   0.369   9.182   9.994
   12        0.441   0.375   9.177   9.992
   13        0.444   0.369   9.182   9.994
   14        0.444   0.369   9.182   9.994
   15        0.439   0.370   9.180   9.989
   16        0.441   0.375   9.177   9.992
   17        0.439   0.370   9.180   9.989
   18        0.439   0.370   9.180   9.989
   19        0.443   0.375   9.181   9.999
   20        0.438   0.376   9.185  10.000
   21        0.438   0.376   9.185  10.000
   22        0.439   0.373   9.182   9.993
   23        0.438   0.376   9.185  10.000
   24        0.439   0.373   9.182   9.993
   25        0.443   0.375   9.182   9.999
   26        0.443   0.375   9.182   9.999
   27        0.439   0.372   9.182   9.993
   28        0.452   0.292   9.194   9.938
   29        0.449   0.300   9.187   9.936
   30        0.449   0.300   9.187   9.936
   31        0.449   0.300   9.187   9.936
   32        0.449   0.300   9.187   9.936
   33        0.449   0.300   9.187   9.936
   34        0.449   0.300   9.187   9.936
   35        0.449   0.295   9.193   9.936
   36        0.715   0.425   8.142   9.282
   37        1.373   2.469   0.000   3.842
   38        1.373   2.469   0.000   3.842
tot         19.025  17.022 329.597 365.644

 BZINTS: Fermi energy:    0.245595;  405.000000 electrons
         Band energy:-0.109905E+04;  BLOECHL correction:   -0.076224