 vasp.6.2.0 18Jan21 (build Jun 12 2021 23:27:24) complex

 executed on             LinuxIFC date 2022.05.27  05:58:47

 INCAR:
   ISMEAR = -5
   SIGMA = 0.1
   ISPIN = 1
   EDIFF = 1.d-5
   EDIFFG = -0.01
   NSW = 0
   NELM = 150
   ENCUT = 500
   ISIF = 2
   IBRION = 2
   LREAL = Auto
   ALGO = Fast
   ICHARG = 11
   LORBIT = 10
   LCHARG = .F.
   LWAVE = .F.

 POTCAR:    PAW_PBE Cu 22Jun2005
 POTCAR:    PAW_PBE V 08Apr2002
 POTCAR:    PAW_PBE H 15Jun2001
|           W    W    AA    RRRRR   N    N  II  N    N   GGGG   !!!           |
|           W    W   A  A   R    R  NN   N  II  NN   N  G    G  !!!           |
|           W    W  A    A  R    R  N N  N  II  N N  N  G       !!!           |
|           W WW W  AAAAAA  RRRRR   N  N N  II  N  N N  G  GGG   !            |
|           WW  WW  A    A  R   R   N   NN  II  N   NN  G    G                |
|           W    W  A    A  R    R  N    N  II  N    N   GGGG   !!!           |
|     For optimal performance we recommend to set                             |
|       NCORE = 2 up to number-of-cores-per-socket                            |
|     This setting can greatly improve the performance of VASP for DFT.       |
|     The default, NCORE=1 might be grossly inefficient on modern             |
|     multi-core architectures or massively parallel machines. Do your        |
|     Unfortunately you need to use the default for GW and RPA                |
|     calculations (for HF NCORE is supported but not extensively tested      |
|     yet).                                                                   |

 POTCAR:    PAW_PBE Cu 22Jun2005
   VRHFIN =Cu: d10 p1

   TITEL  = PAW_PBE Cu 22Jun2005
   POMASS =   63.546; ZVAL   =   11.000    mass and valenz
   ENMAX  =  295.446; ENMIN  =  221.585 eV

 POTCAR:    PAW_PBE V 08Apr2002
   VRHFIN =V: p6 d4 s1

   TITEL  = PAW_PBE V 08Apr2002
   POMASS =   50.941; ZVAL   =    5.000    mass and valenz
   ENMAX  =  192.543; ENMIN  =  144.408 eV

 POTCAR:    PAW_PBE H 15Jun2001
   VRHFIN =H: ultrasoft test

   TITEL  = PAW_PBE H 15Jun2001
   POMASS =    1.000; ZVAL   =    1.000    mass and valenz
   ENMAX  =  250.000; ENMIN  =  200.000 eV

 Optimization of the real space projectors (new method)

 maximal supplied QI-value         = 16.25
 optimisation between [QCUT,QGAM] = [ 11.38, 22.75] = [ 36.24,144.96] Ry
 Optimized for a Real-space Cutoff    1.52 Angstroem

   l    n(q)    QCUT    max X(q) W(low)/X(q) W(high)/X(q)  e(spline)
   2      9    11.376     4.610    0.21E-03    0.10E-03    0.26E-06
   2      9    11.376     8.522    0.33E-03    0.16E-03    0.37E-06
   0     10    11.376    51.609    0.62E-04    0.20E-04    0.13E-06
   0     10    11.376    27.747    0.54E-04    0.20E-04    0.13E-06
   1     10    11.376    20.408    0.13E-04    0.99E-04    0.19E-06
   1     10    11.376    13.425    0.12E-04    0.87E-04    0.17E-06
 Optimization of the real space projectors (new method)

[...]

   l    n(q)    QCUT    max X(q) W(low)/X(q) W(high)/X(q)  e(spline)
   2     10    11.327    96.114    0.36E-03    0.35E-03    0.42E-06
   2     10    11.327    88.986    0.37E-03    0.35E-03    0.42E-06
   0     11    11.327    20.919    0.40E-04    0.56E-04    0.79E-06
   0     11    11.327     9.593    0.30E-04    0.41E-04    0.60E-06
   1     10    11.327    11.615    0.15E-03    0.10E-03    0.19E-06
   1     10    11.327     7.031    0.11E-03    0.73E-04    0.14E-06
 Optimization of the real space projectors (new method)

 maximal supplied QI-value         = 34.20
 optimisation between [QCUT,QGAM] = [ 11.29, 22.57] = [ 35.68,142.71] Ry
 Optimized for a Real-space Cutoff    1.16 Angstroem

   l    n(q)    QCUT    max X(q) W(low)/X(q) W(high)/X(q)  e(spline)
   0      8    11.287    19.460    0.40E-03    0.73E-03    0.16E-06
   0      8    11.287    12.209    0.38E-03    0.70E-03    0.15E-06
   1      7    11.287     4.655    0.22E-03    0.25E-04    0.22E-06
  PAW_PBE Cu 22Jun2005                  :
  PAW_PBE V 08Apr2002                   :
  PAW_PBE H 15Jun2001                   :

 POSCAR: Cu-V-H2
  positions in direct lattice
  velocities in cartesian coordinates
 exchange correlation table for  LEXCH =        8
   RHO(1)=    0.500       N(1)  =     2000
   RHO(2)=  100.500       N(2)  =     4000

 VTST: version 3.2, (02/03/18)

 CHAIN: initializing optimizer

 OPT: Using VASP Conjugate-Gradient optimizer
 CHAIN: Read ICHAIN            0

 POSCAR: Cu-V-H2
  positions in direct lattice
  velocities in cartesian coordinates

 ion  position               nearest neighbor table
   1  0.000  0.000  0.252-   7 2.57   3 2.57   4 2.57   2 2.57   6 2.57   8 2.57  12 2.57  10 2.57
                            16 2.57
   2  0.333  0.000  0.252-   8 2.57   9 2.57   5 2.57   1 2.57   3 2.57  11 2.57   4 2.57  10 2.57
                            17 2.57
   3  0.667  0.000  0.252-   1 2.57   7 2.57   6 2.57   9 2.57   2 2.57  12 2.57   5 2.57  18 2.57
                            11 2.57
   4  0.000  0.333  0.252-   5 2.57   6 2.57   1 2.57   7 2.57   2 2.57  13 2.57   9 2.57  10 2.57
                            15 2.57
   5  0.333  0.333  0.252-   4 2.57   2 2.57   7 2.57  13 2.57   8 2.57   6 2.57   3 2.57  11 2.57
                            14 2.57
   6  0.667  0.333  0.252-   4 2.57   9 2.57  15 2.57   3 2.57   1 2.57   8 2.57  14 2.57   5 2.57
                            12 2.57
   7  0.000  0.667  0.252-   1 2.57   3 2.57  16 2.57  18 2.57   4 2.57   5 2.57   8 2.57   9 2.57
                            13 2.57
   8  0.333  0.667  0.252-   9 2.57   2 2.57  17 2.57   6 2.57   1 2.57   7 2.57   5 2.57  14 2.57
                            16 2.57
   9  0.667  0.667  0.252-   8 2.57   6 2.57   2 2.57  17 2.57   3 2.57   7 2.57   4 2.57  15 2.57
                            18 2.57
  10  0.111  0.111  0.351-  26 2.56  19 2.56  20 2.56  11 2.57  12 2.57  13 2.57   1 2.57   2 2.57
                             4 2.57  15 2.57  16 2.57  17 2.57
  11  0.444  0.111  0.351-  20 2.56  21 2.56  10 2.57  13 2.57   2 2.57  17 2.57  14 2.57  12 2.57
                             5 2.57   3 2.57  18 2.57  27 2.57
  12  0.778  0.111  0.351-  19 2.56  25 2.56  21 2.56  15 2.57  10 2.57  14 2.57  18 2.57   3 2.57
                             1 2.57  16 2.57  11 2.57   6 2.57
  13  0.111  0.444  0.351-  23 2.56  20 2.56  16 2.57  18 2.57  10 2.57  11 2.57  14 2.57   5 2.57
                             4 2.57   7 2.57  15 2.57  22 2.57
  14  0.444  0.444  0.351-  21 2.56  23 2.56  15 2.57  17 2.57  12 2.57  16 2.57  13 2.57  11 2.57
                             6 2.57   8 2.57   5 2.57  24 2.57
  15  0.778  0.444  0.351-  19 2.56  24 2.57  22 2.57  14 2.57  17 2.57  12 2.57   6 2.57  18 2.57
                            10 2.57   9 2.57  13 2.57   4 2.57
  16  0.111  0.778  0.351-  25 2.56  26 2.56  23 2.56  18 2.57  13 2.57   7 2.57  14 2.57  17 2.57
                            12 2.57  10 2.57   8 2.57   1 2.57
  17  0.444  0.778  0.351-  26 2.56  27 2.57  24 2.57  14 2.57  15 2.57   8 2.57   9 2.57  11 2.57
                            16 2.57  18 2.57  10 2.57   2 2.57
  18  0.778  0.778  0.351-  25 2.56  22 2.57  27 2.57  16 2.57  13 2.57   7 2.57  15 2.57  12 2.57
                            17 2.57   9 2.57   3 2.57  11 2.57
  19  0.889  0.222  0.449-  12 2.56  10 2.56  15 2.56  28 2.56  25 2.56  26 2.56  21 2.57  20 2.57
                            22 2.57  24 2.57  32 2.58  31 2.58
  20  0.222  0.222  0.449-  36 2.54  11 2.56  13 2.56  10 2.56  23 2.56  21 2.56  26 2.57  19 2.57
                            27 2.57  22 2.57  29 2.57  31 2.57
  21  0.555  0.222  0.449-  36 2.54  14 2.56  11 2.56  12 2.56  20 2.56  23 2.56  19 2.57  25 2.57
                            24 2.57  27 2.57  32 2.57  30 2.57
  22  0.888  0.556  0.449-  24 2.56  27 2.56  35 2.56  18 2.57  15 2.57  19 2.57  25 2.57  31 2.57
                            33 2.57  13 2.57  23 2.57  20 2.57
  23  0.222  0.555  0.449-  36 2.54  13 2.56  14 2.56  16 2.56  20 2.56  21 2.56  25 2.57  26 2.57
                            22 2.57  24 2.57  33 2.57  34 2.57
  24  0.556  0.556  0.449-  22 2.56  27 2.56  35 2.56  15 2.57  17 2.57  19 2.57  26 2.57  32 2.57
                            34 2.57  14 2.57  21 2.57  23 2.57
  25  0.889  0.889  0.449-  12 2.56  16 2.56  18 2.56  28 2.56  19 2.56  26 2.56  21 2.57  23 2.57
                            22 2.57  27 2.57  33 2.58  30 2.58
  26  0.222  0.889  0.449-  10 2.56  16 2.56  17 2.56  28 2.56  25 2.56  19 2.56  20 2.57  23 2.57
                            27 2.57  24 2.57  29 2.58  34 2.58
  27  0.556  0.888  0.449-  24 2.56  22 2.56  35 2.56  17 2.57  18 2.57  26 2.57  25 2.57  29 2.57
                            30 2.57  11 2.57  20 2.57  21 2.57
  28  0.000  0.000  0.547-  25 2.56  19 2.56  26 2.56  33 2.57  30 2.57  31 2.57  29 2.57  32 2.57
                            34 2.57
  29  0.333  0.000  0.548-  30 2.56  36 2.56  31 2.56  27 2.57  35 2.57  28 2.57  20 2.57  34 2.57
                            26 2.58
  30  0.666  0.000  0.548-  29 2.56  36 2.56  32 2.56  27 2.57  35 2.57  28 2.57  21 2.57  33 2.57
                            25 2.58
  31  0.000  0.333  0.548-  33 2.56  36 2.56  29 2.56  22 2.57  35 2.57  28 2.57  20 2.57  32 2.57
                            19 2.58
  32  0.666  0.333  0.548-  34 2.56  36 2.56  30 2.56  24 2.57  35 2.57  28 2.57  21 2.57  31 2.57
                            19 2.58
  33  0.000  0.666  0.548-  31 2.56  36 2.56  34 2.56  22 2.57  35 2.57  28 2.57  23 2.57  30 2.57
                            25 2.58
  34  0.333  0.666  0.548-  32 2.56  36 2.56  33 2.56  24 2.57  35 2.57  28 2.57  23 2.57  29 2.57
                            26 2.58
  35  0.667  0.667  0.548-  24 2.56  27 2.56  22 2.56  34 2.57  32 2.57  29 2.57  30 2.57  33 2.57
                            31 2.57
  36  0.333  0.333  0.546-  38 1.83  37 1.83  23 2.54  20 2.54  21 2.54  31 2.56  29 2.56  33 2.56
                            32 2.56  34 2.56  30 2.56
  37  0.278  0.334  0.629-  38 0.84  36 1.83
  38  0.388  0.334  0.629-  37 0.84  36 1.83

  LATTYP: Found a hexagonal cell.
 ALAT       =     7.6967864036
 C/A-ratio  =     2.7653617908

  Lattice vectors:

 A1 = (  -3.8483927580,  -6.6656128093,   0.0000000000)
 A2 = (   7.6967864037,   0.0000000000,   0.0000000000)
 A3 = (   0.0000000000,   0.0000000000,  21.2843990326)

Analysis of symmetry for initial positions (statically):
 Subroutine PRICEL returns:
 Original cell was already a primitive cell.

 Routine SETGRP: Setting up the symmetry group for a
 hexagonal supercell.

 Subroutine GETGRP returns: Found  2 space group operations
 (whereof  2 operations were pure point group operations)
 out of a pool of 24 trial point group operations.

The static configuration has the point symmetry C_1h.

Analysis of symmetry for dynamics (positions and initial velocities):
 Subroutine PRICEL returns:
 Original cell was already a primitive cell.

[...]

The dynamic configuration has the point symmetry C_1h.

Analysis of constrained symmetry for selective dynamics:
 Subroutine PRICEL returns:
 Original cell was already a primitive cell.

 Routine SETGRP: Setting up the symmetry group for a
 hexagonal supercell.

 Subroutine GETGRP returns: Found  2 space group operations
[...]
     33      -3.9129      2.00000
     34      -3.9067      2.00000
     35      -3.8698      2.00000
     36      -3.8011      2.00000
     37      -3.7821      2.00000
     38      -3.6619      2.00000
     39      -3.6553      2.00000
     40      -3.5795      2.00000
     41      -3.5752      2.00000
     42      -3.5706      2.00000
     43      -3.5414      2.00000
     44      -3.5300      2.00000
     45      -3.5264      2.00000
     46      -3.5208      2.00000
     47      -3.3390      2.00000
     48      -3.3295      2.00000
     49      -3.3170      2.00000
     50      -3.2997      2.00000
     51      -3.2583      2.00000
     52      -3.2551      2.00000
     53      -3.2352      2.00000
     54      -3.2297      2.00000
     55      -3.2196      2.00000
     56      -3.2052      2.00000
     57      -3.1778      2.00000
     58      -3.1745      2.00000
     59      -3.1663      2.00000
     60      -3.1524      2.00000
[...]
    238       6.7234      0.00000
    239       6.8439      0.00000
    240       6.9200      0.00000
    241       7.0060      0.00000
    242       7.0328      0.00000
    243       7.1900      0.00000
    244       7.3050      0.00000
    245       7.3549      0.00000
    246       7.4530      0.00000
    247       7.5204      0.00000
    248       7.6522      0.00000
    249       7.8542      0.00000
    250       8.0594      0.00000
    251       8.1566      0.00000
    252       8.2805      0.00000

 soft charge-density along one line, spin component           1
         0         1         2         3         4         5         6         7         8         9
 total charge-density along one line

------------------------ aborting loop because EDIFF is reached ----------------------------------------

 total charge

# of ion       s       p       d       tot
    1        0.450   0.282   9.189   9.920
    2        0.447   0.286   9.186   9.919
    3        0.447   0.286   9.186   9.919
    4        0.447   0.285   9.187   9.919
    5        0.451   0.286   9.181   9.918
    6        0.447   0.285   9.187   9.919
    7        0.446   0.285   9.186   9.918
    8        0.446   0.285   9.186   9.918
    9        0.448   0.283   9.189   9.920
   10        0.443   0.371   9.175   9.990
   11        0.443   0.365   9.183   9.991
   12        0.443   0.371   9.175   9.990
   13        0.443   0.365   9.183   9.991
   14        0.443   0.365   9.183   9.991
   15        0.439   0.370   9.175   9.985
   16        0.443   0.371   9.175   9.989
   17        0.439   0.370   9.176   9.985
   18        0.439   0.370   9.176   9.985
   19        0.442   0.370   9.178   9.990
   20        0.463   0.392   9.158  10.013
   21        0.463   0.392   9.158  10.013
   22        0.432   0.374   9.179   9.985
   23        0.465   0.390   9.160  10.016
   24        0.432   0.374   9.179   9.985
   25        0.443   0.368   9.179   9.990
   26        0.443   0.368   9.179   9.990
   27        0.433   0.373   9.182   9.987
   28        0.444   0.288   9.183   9.914
   29        0.472   0.303   9.165   9.940
   30        0.472   0.303   9.165   9.940
   31        0.469   0.304   9.165   9.938
   32        0.469   0.304   9.165   9.938
   33        0.471   0.302   9.166   9.940
   34        0.471   0.302   9.166   9.940
   35        0.441   0.290   9.183   9.914
   36        0.489   0.598   3.469   4.557
   37        0.557   0.029   0.000   0.586
   38        0.557   0.029   0.000   0.586
tot         17.334  12.335 324.656 354.326

  FORCE on cell =-STRESS in cart. coord.  units (eV):
  Direction    XX          YY          ZZ          XY          YZ          ZX
  Alpha Z   859.34289   859.34289   859.34289
  Ewald  170620.54591170603.47188************     0.00036    -0.04129     0.00015
  Hartree183454.81411183452.62716************     0.00003     0.07828     0.00006
  E(xc)   -2273.81219 -2273.71819 -2278.79411    -0.00030     0.02781    -0.00004
  Local  ************************367083.45143     0.01963     0.06528    -0.00067
  n-local  -759.97478  -758.82041  -772.45685     1.60969    -0.04338     0.03703
  augment  3327.46428  3326.40567  3351.16289    -0.01846    -0.06866     0.00017
  Kinetic  3175.36213  3179.16180  3209.85291     0.66840    -0.14143    -0.18000
  Fock        0.00000     0.00000     0.00000     0.00000     0.00000     0.00000
  Total      -8.86584    -8.79523    -1.51857     0.00000    -0.12339     0.00000
  in kB     -13.00827   -12.90467    -2.22810     0.00000    -0.18104     0.00000

 VOLUME and BASIS-vectors are now :
  energy-cutoff  :      500.00
  volume of cell :     1091.97
      direct lattice vectors                 reciprocal lattice vectors
     7.696786404  0.000000000  0.000000000     0.129924354 -0.075011849  0.000000000
     3.848392758  6.665612809  0.000000000     0.000000000  0.150023716  0.000000000
     0.000000000  0.000000000 21.284399033     0.000000000  0.000000000  0.046982769

  length of vectors
     7.696786404  7.696786404 21.284399033     0.150023716  0.150023716  0.046982769

 FORCES acting on ions
    electron-ion (+dipol)            ewald-force                    non-local-force                 convergence-correction
   -.408E-04 0.403E-01 0.345E+04   0.581E-04 -.199E-02 -.344E+04   0.114E-08 -.171E-01 -.242E+01   -.278E-03 -.246E-01 0.941E-01
   -.743E+00 -.607E+00 0.344E+04   0.619E+00 0.600E+00 -.344E+04   0.148E+00 0.157E+00 -.183E+01   -.153E-01 -.138E+00 0.145E+00
   0.743E+00 -.607E+00 0.344E+04   -.619E+00 0.600E+00 -.344E+04   -.148E+00 0.157E+00 -.183E+01   0.161E-01 -.135E+00 0.145E+00
   -.897E+00 -.325E+00 0.344E+04   0.831E+00 0.235E+00 -.344E+04   0.196E+00 -.517E-02 -.192E+01   -.109E+00 0.924E-01 0.135E+00
   -.617E-04 -.117E+00 0.344E+04   0.116E-03 -.159E-03 -.344E+04   -.851E-09 0.128E-01 -.125E+01   0.121E-01 0.983E-01 0.304E+00
   0.897E+00 -.325E+00 0.344E+04   -.831E+00 0.235E+00 -.344E+04   -.196E+00 -.517E-02 -.192E+01   0.107E+00 0.936E-01 0.136E+00
   -.297E+00 0.969E+00 0.344E+04   0.212E+00 -.835E+00 -.344E+04   0.144E+00 -.171E+00 -.189E+01   -.538E-01 0.278E-01 0.957E-01
   0.297E+00 0.969E+00 0.344E+04   -.212E+00 -.835E+00 -.344E+04   -.144E+00 -.171E+00 -.189E+01   0.573E-01 0.264E-01 0.958E-01
   -.143E-03 0.140E-01 0.344E+04   0.263E-03 0.215E-02 -.344E+04   -.185E-08 0.278E-01 -.215E+01   -.132E-01 -.403E-01 0.621E-01
   -.488E+01 -.283E+01 0.112E+04   0.530E+01 0.305E+01 -.112E+04   -.381E+00 -.216E+00 -.100E+01   -.591E-01 -.426E-02 -.152E+00
   -.904E-04 -.568E+01 0.111E+04   0.189E-03 0.549E+01 -.111E+04   -.142E-07 0.214E+00 -.125E+00   0.115E-01 -.517E-01 -.114E+00
   0.488E+01 -.283E+01 0.112E+04   -.530E+01 0.305E+01 -.112E+04   0.381E+00 -.216E+00 -.100E+01   0.579E-01 -.328E-02 -.153E+00
   -.495E+01 0.279E+01 0.111E+04   0.477E+01 -.274E+01 -.111E+04   0.234E+00 -.116E+00 -.176E+00   -.639E-01 0.854E-01 -.147E+00
   0.495E+01 0.279E+01 0.111E+04   -.477E+01 -.274E+01 -.111E+04   -.234E+00 -.116E+00 -.176E+00   0.874E-01 0.842E-01 -.149E+00
   -.141E-03 -.109E+01 0.112E+04   0.297E-03 0.856E+00 -.112E+04   -.810E-08 0.122E+00 -.102E+01   -.311E-02 0.931E-01 -.149E+00
   -.925E-04 0.569E+01 0.112E+04   0.186E-03 -.612E+01 -.112E+04   -.293E-07 0.440E+00 -.873E+00   -.702E-03 0.535E-02 -.168E+00
   -.911E+00 0.571E+00 0.112E+04   0.733E+00 -.416E+00 -.112E+04   0.115E+00 -.592E-01 -.927E+00   0.540E-01 -.929E-01 -.132E+00
   0.912E+00 0.571E+00 0.112E+04   -.733E+00 -.416E+00 -.112E+04   -.115E+00 -.592E-01 -.927E+00   -.528E-01 -.907E-01 -.131E+00
   -.660E-04 -.715E+01 -.121E+04   0.728E-04 0.715E+01 0.121E+04   0.164E-08 -.246E-01 0.922E+00   0.103E-02 0.315E-01 -.242E+00
   -.521E+02 -.301E+02 -.128E+04   0.536E+02 0.308E+02 0.128E+04   -.127E+01 -.631E+00 -.915E+00   -.294E+00 -.140E+00 -.478E+00
   0.521E+02 -.301E+02 -.128E+04   -.536E+02 0.308E+02 0.128E+04   0.127E+01 -.631E+00 -.915E+00   0.273E+00 -.141E+00 -.480E+00
   -.258E+02 0.148E+02 -.122E+04   0.256E+02 -.147E+02 0.122E+04   0.382E+00 -.253E+00 0.588E+00   -.156E+00 0.743E-01 -.374E+00
   -.807E-04 0.601E+02 -.128E+04   0.152E-03 -.618E+02 0.128E+04   -.977E-07 0.147E+01 -.878E+00   -.124E-01 0.266E+00 -.512E+00
   0.258E+02 0.148E+02 -.122E+04   -.256E+02 -.147E+02 0.122E+04   -.382E+00 -.253E+00 0.588E+00   0.157E+00 0.754E-01 -.374E+00
   0.630E+01 0.361E+01 -.121E+04   -.625E+01 -.365E+01 0.121E+04   -.463E-02 0.319E-01 0.981E+00   -.487E-01 0.347E-02 -.228E+00
   -.630E+01 0.361E+01 -.121E+04   0.625E+01 -.365E+01 0.121E+04   0.463E-02 0.319E-01 0.981E+00   0.499E-01 0.434E-02 -.228E+00
   -.124E-03 -.298E+02 -.122E+04   0.239E-03 0.296E+02 0.122E+04   -.302E-07 0.453E+00 0.605E+00   -.984E-03 -.192E+00 -.371E+00
   -.399E-04 0.378E+00 -.345E+04   0.445E-04 -.445E+00 0.345E+04   -.400E-08 0.601E-01 0.217E+01   -.135E-02 -.487E-02 -.124E+00
   -.420E+02 -.778E+02 -.345E+04   0.430E+02 0.791E+02 0.345E+04   -.871E+00 -.109E+01 0.102E+01   -.166E+00 -.243E+00 -.259E+00
   0.420E+02 -.778E+02 -.345E+04   -.430E+02 0.791E+02 0.345E+04   0.871E+00 -.109E+01 0.102E+01   0.188E+00 -.242E+00 -.259E+00
   -.876E+02 0.304E+01 -.345E+04   0.893E+02 -.294E+01 0.345E+04   -.146E+01 -.129E+00 0.110E+01   -.223E+00 0.346E-01 -.195E+00
   0.876E+02 0.304E+01 -.345E+04   -.893E+02 -.294E+01 0.345E+04   0.146E+01 -.129E+00 0.110E+01   0.245E+00 0.358E-01 -.193E+00
   -.472E+02 0.747E+02 -.345E+04   0.480E+02 -.761E+02 0.345E+04   -.605E+00 0.120E+01 0.111E+01   -.168E+00 0.225E+00 -.202E+00
   0.472E+02 0.747E+02 -.345E+04   -.480E+02 -.761E+02 0.345E+04   0.605E+00 0.120E+01 0.111E+01   0.193E+00 0.225E+00 -.201E+00
   -.123E-03 -.419E+00 -.347E+04   0.247E-03 0.476E+00 0.346E+04   0.915E-09 -.137E-01 0.260E+01   -.143E-01 -.238E-01 -.887E-01
   -.466E-04 0.532E-02 -.153E+04   0.627E-04 -.584E-01 0.153E+04   0.348E-08 -.523E-01 0.906E+00   -.425E-04 0.874E-02 -.950E-01
   0.141E+02 0.168E-01 -.354E+03   -.177E+02 -.169E-01 0.354E+03   0.364E+01 0.486E-03 -.990E+00   -.212E-01 0.458E-02 0.422E-01
   -.141E+02 0.168E-01 -.354E+03   0.177E+02 -.169E-01 0.354E+03   -.364E+01 0.486E-03 -.990E+00   0.213E-01 0.459E-02 0.422E-01
   -.243E-03 -.157E+00 0.161E+02   0.128E-12 0.525E-12 -.182E-11   -.844E-08 0.127E+00 -.112E+02   0.555E-01 0.321E-01 -.490E+01

 POSITION                                       TOTAL-FORCE (eV/Angst)
      0.00000      0.00000      5.37156         0.000000     -0.003419     -0.028919
      2.56560      0.00000      5.37156         0.008374      0.013714      0.056430
      5.13119      0.00000      5.37156        -0.008374      0.013714      0.056430
      1.28280      2.22187      5.37156         0.022517     -0.002594      0.047486
      3.84839      2.22187      5.37156         0.000000     -0.006506      0.041084
      6.41399      2.22187      5.37156        -0.022517     -0.002594      0.047486
      2.56560      4.44374      5.37156         0.002671     -0.010366      0.059043
      5.13119      4.44374      5.37156        -0.002671     -0.010366      0.059043
      7.69679      4.44374      5.37156        -0.000000      0.003665      0.024733
      1.28280      0.74062      7.46636        -0.012871     -0.004604     -0.084838
      3.84839      0.74062      7.46636         0.000000     -0.032203     -0.055446
      6.41399      0.74062      7.46636         0.012871     -0.004604     -0.084838
      2.56560      2.96249      7.46636        -0.022665      0.017887     -0.059053
      5.13119      2.96249      7.46636         0.022665      0.017887     -0.059053
      7.69679      2.96249      7.46636         0.000000     -0.016648     -0.037899
      3.84839      5.18437      7.46636        -0.000000      0.019032     -0.076483
      6.41399      5.18437      7.46636        -0.009455      0.004409     -0.022887
      8.97958      5.18437      7.46636         0.009455      0.004409     -0.022887
      7.69679      1.48017      9.54910        -0.000000      0.006299      0.056816
      2.56637      1.48170      9.55121        -0.034406     -0.006304     -0.077890
      5.13041      1.48170      9.55121         0.034406     -0.006304     -0.077890
      8.97729      3.70444      9.56154         0.007458     -0.014627      0.013178
      3.84839      3.70222      9.55121        -0.000000      0.072735     -0.071181
      6.41628      3.70444      9.56154        -0.007458     -0.014627      0.013178
     10.26332      5.92553      9.54910        -0.000770      0.003187      0.022969
      5.13026      5.92553      9.54910         0.000770      0.003187      0.022969
      7.69679      5.92234      9.56154        -0.000000      0.028921      0.009864
      0.00000      0.00000     11.64072         0.000000     -0.012308     -0.004397
      2.56831      0.00307     11.65724        -0.010584     -0.015466     -0.005849
      5.12847      0.00307     11.65724         0.010584     -0.015466     -0.005849
      1.28681      2.22269     11.65724         0.052453      0.010764      0.079464
      6.40997      2.22269     11.65724        -0.052453      0.010764      0.079464
      2.56689      4.43985     11.65724        -0.031002      0.007760     -0.029132
      5.12989      4.43985     11.65724         0.031002      0.007760     -0.029132
      7.69679      4.44374     11.65596        -0.000000      0.019775     -0.009707
      3.84839      2.22187     11.62023         0.000000     -0.096639      0.227403
      3.42609      2.22451     13.39727        -0.012383      0.004888     -0.036852
      4.27069      2.22451     13.39727         0.012383      0.004888     -0.036852
    total drift:                                0.055292      0.001524     -0.008463

  FREE ENERGIE OF THE ION-ELECTRON SYSTEM (eV)
  free  energy   TOTEN  =      -136.84599794 eV

  energy  without entropy=     -136.84599794  energy(sigma->0) =     -136.84599794

 stress matrix after NEB project (eV)
     -8.86584      0.00000      0.00000
      0.00000     -8.79523     -0.12339
      0.00000     -0.12339     -1.51857
  FORCES: max atom, RMS     0.039183    0.008989
  FORCE total and by dimension    0.055414    0.036852
  Stress total and by dimension   12.581564    8.865840
|           W    W    AA    RRRRR   N    N  II  N    N   GGGG   !!!           |
|           W    W   A  A   R    R  NN   N  II  NN   N  G    G  !!!           |
|           W    W  A    A  R    R  N N  N  II  N N  N  G       !!!           |
|           W WW W  AAAAAA  RRRRR   N  N N  II  N  N N  G  GGG   !            |
|           WW  WW  A    A  R   R   N   NN  II  N   NN  G    G                |
|           W    W  A    A  R    R  N    N  II  N    N   GGGG   !!!           |
|     Tetrahedron method does not include variations of the Fermi             |
|     occupations, so forces and stress will be inaccurate. We suggest        |
|     using a different smearing scheme ISMEAR = 1 or 2 for metals in         |
|     relaxations.                                                            |

 total charge

# of ion       s       p       d       tot
    1        0.450   0.282   9.189   9.920
    2        0.447   0.286   9.186   9.919
    3        0.447   0.286   9.186   9.919
    4        0.447   0.285   9.187   9.919
    5        0.451   0.286   9.181   9.918
    6        0.447   0.285   9.187   9.919
    7        0.446   0.285   9.186   9.918
    8        0.446   0.285   9.186   9.918
    9        0.448   0.283   9.189   9.920
   10        0.443   0.371   9.175   9.990
   11        0.443   0.365   9.183   9.991
   12        0.443   0.371   9.175   9.990
   13        0.443   0.365   9.183   9.991
   14        0.443   0.365   9.183   9.991
   15        0.439   0.370   9.175   9.985
   16        0.443   0.371   9.175   9.989
   17        0.439   0.370   9.176   9.985
   18        0.439   0.370   9.176   9.985
   19        0.442   0.370   9.178   9.990
   20        0.463   0.392   9.158  10.013
   21        0.463   0.392   9.158  10.013
   22        0.432   0.374   9.179   9.985
   23        0.465   0.390   9.160  10.016
   24        0.432   0.374   9.179   9.985
   25        0.443   0.368   9.179   9.990
   26        0.443   0.368   9.179   9.990
   27        0.433   0.373   9.182   9.987
   28        0.444   0.288   9.183   9.914
   29        0.472   0.303   9.165   9.940
   30        0.472   0.303   9.165   9.940
   31        0.469   0.304   9.165   9.938
   32        0.469   0.304   9.165   9.938
   33        0.471   0.302   9.166   9.940
   34        0.471   0.302   9.166   9.940
   35        0.441   0.290   9.183   9.914
   36        0.489   0.598   3.469   4.557
   37        0.557   0.029   0.000   0.586
   38        0.557   0.029   0.000   0.586
tot         17.334  12.335 324.656 354.326

 BZINTS: Fermi energy:    0.150799;  392.000000 electrons
         Band energy:-0.106220E+04;  BLOECHL correction:   -0.021550