 vasp.6.2.0 18Jan21 (build Jun 12 2021 23:27:24) complex

 executed on             LinuxIFC date 2022.05.26  20:10:50

 INCAR:
   ISMEAR = -5
   SIGMA = 0.1
   ISPIN = 1
   EDIFF = 1.d-5
   EDIFFG = -0.01
   NSW = 0
   NELM = 150
   ENCUT = 500
   ISIF = 2
   IBRION = 2
   LREAL = Auto
   ALGO = Fast
   ICHARG = 11
   LORBIT = 10
   LCHARG = .F.
   LWAVE = .F.

 POTCAR:    PAW_PBE Cu 22Jun2005
 POTCAR:    PAW_PBE Pt 04Feb2005
 POTCAR:    PAW_PBE O 08Apr2002
|           W    W    AA    RRRRR   N    N  II  N    N   GGGG   !!!           |
|           W    W   A  A   R    R  NN   N  II  NN   N  G    G  !!!           |
|           W    W  A    A  R    R  N N  N  II  N N  N  G       !!!           |
|           W WW W  AAAAAA  RRRRR   N  N N  II  N  N N  G  GGG   !            |
|           WW  WW  A    A  R   R   N   NN  II  N   NN  G    G                |
|           W    W  A    A  R    R  N    N  II  N    N   GGGG   !!!           |
|     For optimal performance we recommend to set                             |
|       NCORE = 2 up to number-of-cores-per-socket                            |
|     This setting can greatly improve the performance of VASP for DFT.       |
|     The default, NCORE=1 might be grossly inefficient on modern             |
|     multi-core architectures or massively parallel machines. Do your        |
|     Unfortunately you need to use the default for GW and RPA                |
|     calculations (for HF NCORE is supported but not extensively tested      |
|     yet).                                                                   |

 POTCAR:    PAW_PBE Cu 22Jun2005
   VRHFIN =Cu: d10 p1

   TITEL  = PAW_PBE Cu 22Jun2005
   POMASS =   63.546; ZVAL   =   11.000    mass and valenz
   ENMAX  =  295.446; ENMIN  =  221.585 eV

 POTCAR:    PAW_PBE Pt 04Feb2005
   VRHFIN =Pt: s1d9

   TITEL  = PAW_PBE Pt 04Feb2005
   POMASS =  195.080; ZVAL   =   10.000    mass and valenz
   ENMAX  =  230.283; ENMIN  =  172.712 eV

 POTCAR:    PAW_PBE O 08Apr2002
   VRHFIN =O: s2p4

   TITEL  = PAW_PBE O 08Apr2002
   POMASS =   16.000; ZVAL   =    6.000    mass and valenz
   ENMAX  =  400.000; ENMIN  =  300.000 eV

 Optimization of the real space projectors (new method)

 maximal supplied QI-value         = 16.25
 optimisation between [QCUT,QGAM] = [ 11.38, 22.75] = [ 36.24,144.96] Ry
 Optimized for a Real-space Cutoff    1.52 Angstroem

   l    n(q)    QCUT    max X(q) W(low)/X(q) W(high)/X(q)  e(spline)
   2      9    11.376     4.610    0.21E-03    0.10E-03    0.26E-06
   2      9    11.376     8.522    0.33E-03    0.16E-03    0.37E-06
   0     10    11.376    51.609    0.62E-04    0.20E-04    0.13E-06
   0     10    11.376    27.747    0.54E-04    0.20E-04    0.13E-06
   1     10    11.376    20.408    0.13E-04    0.99E-04    0.19E-06
   1     10    11.376    13.425    0.12E-04    0.87E-04    0.17E-06
 Optimization of the real space projectors (new method)

[...]

   l    n(q)    QCUT    max X(q) W(low)/X(q) W(high)/X(q)  e(spline)
   2      9    11.346    66.195    0.31E-03    0.12E-04    0.29E-06
   2      9    11.346    64.643    0.32E-03    0.12E-04    0.29E-06
   0     10    11.346    95.520    0.90E-04    0.16E-04    0.19E-06
   0     10    11.346    63.403    0.87E-04    0.15E-04    0.19E-06
   1     10    11.346    19.961    0.17E-03    0.21E-03    0.11E-06
   1     10    11.346    13.289    0.14E-03    0.18E-03    0.89E-07
 Optimization of the real space projectors (new method)

 maximal supplied QI-value         = 24.76
 optimisation between [QCUT,QGAM] = [ 11.39, 22.77] = [ 36.31,145.25] Ry
 Optimized for a Real-space Cutoff    1.00 Angstroem

   l    n(q)    QCUT    max X(q) W(low)/X(q) W(high)/X(q)  e(spline)
   0      7    11.387    20.381    0.39E-03    0.13E-02    0.15E-06
   0      7    11.387    15.268    0.42E-03    0.14E-02    0.17E-06
   1      6    11.387     5.964    0.41E-03    0.11E-02    0.17E-06
   1      6    11.387     5.382    0.39E-03    0.87E-03    0.15E-06
  PAW_PBE Cu 22Jun2005                  :
  PAW_PBE Pt 04Feb2005                  :
  PAW_PBE O 08Apr2002                   :

 POSCAR: Cu-Pt-O
  positions in direct lattice
  velocities in cartesian coordinates
 exchange correlation table for  LEXCH =        8
   RHO(1)=    0.500       N(1)  =     2000
   RHO(2)=  100.500       N(2)  =     4000

 VTST: version 3.2, (02/03/18)

 CHAIN: initializing optimizer

 OPT: Using VASP Conjugate-Gradient optimizer
 CHAIN: Read ICHAIN            0

 POSCAR: Cu-Pt-O
  positions in direct lattice
  velocities in cartesian coordinates

 ion  position               nearest neighbor table
   1  0.000  0.000  0.252-   7 2.57   3 2.57   4 2.57   2 2.57   6 2.57   8 2.57  12 2.57  10 2.57
                            16 2.57
   2  0.333  0.000  0.252-   8 2.57   9 2.57   5 2.57   1 2.57   3 2.57  11 2.57   4 2.57  10 2.57
                            17 2.57
   3  0.667  0.000  0.252-   1 2.57   7 2.57   6 2.57   9 2.57   2 2.57  12 2.57   5 2.57  18 2.57
                            11 2.57
   4  0.000  0.333  0.252-   5 2.57   6 2.57   1 2.57   7 2.57   2 2.57  13 2.57   9 2.57  10 2.57
                            15 2.57
   5  0.333  0.333  0.252-   4 2.57   2 2.57   7 2.57  13 2.57   8 2.57   6 2.57   3 2.57  11 2.57
                            14 2.57
   6  0.667  0.333  0.252-   4 2.57   9 2.57  15 2.57   3 2.57   1 2.57   8 2.57  14 2.57   5 2.57
                            12 2.57
   7  0.000  0.667  0.252-   1 2.57   3 2.57  16 2.57  18 2.57   4 2.57   5 2.57   8 2.57   9 2.57
                            13 2.57
   8  0.333  0.667  0.252-   9 2.57   2 2.57  17 2.57   6 2.57   1 2.57   7 2.57   5 2.57  14 2.57
                            16 2.57
   9  0.667  0.667  0.252-   8 2.57   6 2.57   2 2.57  17 2.57   3 2.57   7 2.57   4 2.57  15 2.57
                            18 2.57
  10  0.111  0.111  0.351-  20 2.53  26 2.56  19 2.56  11 2.57  12 2.57  13 2.57   1 2.57   2 2.57
                             4 2.57  15 2.57  16 2.57  17 2.57
  11  0.444  0.111  0.351-  20 2.55  21 2.55  27 2.56  10 2.57  13 2.57   2 2.57  17 2.57  14 2.57
                            12 2.57   5 2.57   3 2.57  18 2.57
  12  0.778  0.111  0.351-  21 2.53  19 2.56  25 2.56  15 2.57  10 2.57  14 2.57  18 2.57   3 2.57
                             1 2.57  16 2.57  11 2.57   6 2.57
  13  0.111  0.444  0.351-  23 2.55  20 2.55  22 2.56  16 2.57  18 2.57  10 2.57  11 2.57  14 2.57
                             5 2.57   4 2.57   7 2.57  15 2.57
  14  0.444  0.444  0.351-  21 2.55  23 2.55  24 2.56  15 2.57  17 2.57  12 2.57  16 2.57  13 2.57
                            11 2.57   6 2.57   8 2.57   5 2.57
  15  0.778  0.444  0.351-  19 2.56  24 2.56  22 2.56  14 2.57  17 2.57  12 2.57   6 2.57  18 2.57
                            10 2.57   9 2.57  13 2.57   4 2.57
  16  0.111  0.778  0.351-  23 2.53  25 2.56  26 2.56  18 2.57  13 2.57   7 2.57  14 2.57  17 2.57
                            12 2.57  10 2.57   8 2.57   1 2.57
  17  0.444  0.778  0.351-  26 2.56  27 2.56  24 2.56  14 2.57  15 2.57   8 2.57   9 2.57  11 2.57
                            16 2.57  18 2.57  10 2.57   2 2.57
  18  0.778  0.778  0.351-  25 2.56  22 2.56  27 2.56  16 2.57  13 2.57   7 2.57  15 2.57  12 2.57
                            17 2.57   9 2.57   3 2.57  11 2.57
  19  0.888  0.223  0.449-  28 2.54  32 2.55  31 2.55  21 2.55  20 2.55  15 2.56  12 2.56  10 2.56
                            22 2.56  24 2.56  25 2.58  26 2.58
  20  0.221  0.221  0.448-  10 2.53  11 2.55  13 2.55  26 2.55  19 2.55  27 2.57  22 2.57  29 2.59
                            31 2.59  36 2.60  23 2.60  21 2.60
  21  0.558  0.221  0.448-  12 2.53  14 2.55  11 2.55  19 2.55  25 2.55  24 2.57  27 2.57  32 2.59
                            30 2.59  36 2.60  20 2.60  23 2.60
  22  0.889  0.556  0.449-  35 2.54  18 2.56  15 2.56  13 2.56  19 2.56  25 2.56  24 2.56  27 2.56
                            31 2.57  33 2.57  23 2.57  20 2.57
  23  0.221  0.558  0.448-  16 2.53  13 2.55  14 2.55  25 2.55  26 2.55  22 2.57  24 2.57  33 2.59
                            34 2.59  36 2.60  20 2.60  21 2.60
  24  0.556  0.556  0.449-  35 2.54  15 2.56  17 2.56  14 2.56  19 2.56  26 2.56  22 2.56  27 2.56
                            32 2.57  34 2.57  21 2.57  23 2.57
  25  0.888  0.888  0.449-  28 2.54  33 2.55  30 2.55  21 2.55  23 2.55  18 2.56  16 2.56  12 2.56
                            22 2.56  27 2.56  19 2.58  26 2.58
  26  0.223  0.888  0.449-  28 2.54  29 2.55  34 2.55  20 2.55  23 2.55  17 2.56  10 2.56  16 2.56
                            27 2.56  24 2.56  25 2.58  19 2.58
  27  0.556  0.889  0.449-  35 2.54  17 2.56  18 2.56  11 2.56  26 2.56  25 2.56  24 2.56  22 2.56
                            29 2.57  30 2.57  20 2.57  21 2.57
  28  0.000  0.000  0.546-  25 2.54  19 2.54  26 2.54  33 2.55  30 2.55  31 2.55  29 2.55  32 2.55
                            34 2.55
  29  0.333  0.997  0.547-  34 2.52  26 2.55  28 2.55  35 2.56  27 2.57  31 2.59  20 2.59  36 2.59
                            30 2.59
  30  0.670  0.997  0.547-  33 2.52  25 2.55  28 2.55  35 2.56  27 2.57  32 2.59  21 2.59  36 2.59
                            29 2.59
  31  0.997  0.333  0.547-  32 2.52  19 2.55  28 2.55  35 2.56  22 2.57  29 2.59  20 2.59  36 2.59
                            33 2.59
  32  0.670  0.333  0.547-  31 2.52  19 2.55  28 2.55  35 2.56  24 2.57  30 2.59  21 2.59  36 2.59
                            34 2.59
  33  0.997  0.670  0.547-  30 2.52  25 2.55  28 2.55  35 2.56  22 2.57  34 2.59  23 2.59  36 2.59
                            31 2.59
  34  0.333  0.670  0.547-  29 2.52  26 2.55  28 2.55  35 2.56  24 2.57  33 2.59  23 2.59  36 2.59
                            32 2.59
  35  0.667  0.667  0.546-  24 2.54  27 2.54  22 2.54  34 2.56  32 2.56  29 2.56  30 2.56  33 2.56
                            31 2.56
  36  0.333  0.333  0.547-  37 1.87  31 2.59  29 2.59  33 2.59  34 2.59  32 2.59  30 2.59  23 2.60
                            20 2.60  21 2.60
  37  0.333  0.333  0.635-  36 1.87

  LATTYP: Found a hexagonal cell.
 ALAT       =     7.6967864036
 C/A-ratio  =     2.7653617908

  Lattice vectors:

 A1 = (  -3.8483927580,  -6.6656128093,   0.0000000000)
 A2 = (   7.6967864037,   0.0000000000,   0.0000000000)
 A3 = (   0.0000000000,   0.0000000000,  21.2843990326)

Analysis of symmetry for initial positions (statically):
 Subroutine PRICEL returns:
 Original cell was already a primitive cell.

 Routine SETGRP: Setting up the symmetry group for a
 hexagonal supercell.

 Subroutine GETGRP returns: Found  6 space group operations
 (whereof  6 operations were pure point group operations)
 out of a pool of 24 trial point group operations.

The static configuration has the point symmetry C_3v.

Analysis of symmetry for dynamics (positions and initial velocities):
 Subroutine PRICEL returns:
 Original cell was already a primitive cell.

[...]

The dynamic configuration has the point symmetry C_3v.

Analysis of constrained symmetry for selective dynamics:
 Subroutine PRICEL returns:
 Original cell was already a primitive cell.

 Routine SETGRP: Setting up the symmetry group for a
 hexagonal supercell.

 Subroutine GETGRP returns: Found  6 space group operations
[...]
     24      -4.4544      2.00000
     25      -4.4293      2.00000
     26      -4.4037      2.00000
     27      -4.3404      2.00000
     28      -4.3053      2.00000
     29      -4.2793      2.00000
     30      -4.2083      2.00000
     31      -4.1816      2.00000
     32      -4.1538      2.00000
     33      -4.1310      2.00000
     34      -4.1293      2.00000
     35      -4.1081      2.00000
     36      -4.0775      2.00000
     37      -4.0567      2.00000
     38      -4.0101      2.00000
     39      -3.9455      2.00000
     40      -3.9133      2.00000
     41      -3.8122      2.00000
     42      -3.8070      2.00000
     43      -3.7552      2.00000
     44      -3.7247      2.00000
     45      -3.7132      2.00000
     46      -3.7039      2.00000
     47      -3.6600      2.00000
     48      -3.6167      2.00000
     49      -3.6116      2.00000
     50      -3.5633      2.00000
     51      -3.4813      2.00000
     52      -3.4764      2.00000
     53      -3.4510      2.00000
     54      -3.4153      2.00000
     55      -3.3998      2.00000
     56      -3.3985      2.00000
     57      -3.3868      2.00000
     58      -3.3664      2.00000
     59      -3.3541      2.00000
     60      -3.3280      2.00000
[...]
    238       6.3549      0.00000
    239       6.3762      0.00000
    240       6.4298      0.00000
    241       6.9880      0.00000
    242       7.0895      0.00000
    243       7.1798      0.00000
    244       7.1859      0.00000
    245       7.2184      0.00000
    246       7.2857      0.00000
    247       7.3283      0.00000
    248       7.5390      0.00000
    249       7.5960      0.00000
    250       7.6677      0.00000
    251       7.7880      0.00000
    252       7.9479      0.00000

 soft charge-density along one line, spin component           1
         0         1         2         3         4         5         6         7         8         9
 total charge-density along one line

------------------------ aborting loop because EDIFF is reached ----------------------------------------

 total charge

# of ion       s       p       d       tot
    1        0.448   0.284   9.190   9.922
    2        0.450   0.284   9.187   9.921
    3        0.450   0.284   9.187   9.921
    4        0.450   0.284   9.187   9.921
    5        0.448   0.288   9.185   9.921
    6        0.450   0.284   9.187   9.921
    7        0.450   0.284   9.187   9.921
    8        0.450   0.284   9.187   9.921
    9        0.445   0.285   9.185   9.915
   10        0.442   0.373   9.179   9.994
   11        0.442   0.370   9.181   9.993
   12        0.442   0.373   9.179   9.994
   13        0.442   0.370   9.181   9.993
   14        0.442   0.370   9.181   9.993
   15        0.439   0.369   9.182   9.990
   16        0.442   0.373   9.179   9.994
   17        0.439   0.369   9.182   9.990
   18        0.439   0.369   9.182   9.990
   19        0.441   0.378   9.177   9.996
   20        0.448   0.385   9.177  10.009
   21        0.448   0.385   9.177  10.009
   22        0.439   0.368   9.186   9.993
   23        0.448   0.385   9.177  10.009
   24        0.439   0.368   9.186   9.993
   25        0.441   0.378   9.177   9.996
   26        0.441   0.378   9.177   9.996
   27        0.439   0.368   9.186   9.993
   28        0.456   0.289   9.196   9.942
   29        0.437   0.295   9.198   9.931
   30        0.437   0.295   9.198   9.931
   31        0.437   0.295   9.198   9.931
   32        0.437   0.295   9.198   9.931
   33        0.437   0.295   9.198   9.931
   34        0.437   0.295   9.198   9.931
   35        0.450   0.294   9.190   9.934
   36        0.764   0.713   8.004   9.481
   37        1.602   3.202   0.000   4.803
tot         17.887  15.561 329.507 362.954

  FORCE on cell =-STRESS in cart. coord.  units (eV):
  Direction    XX          YY          ZZ          XY          YZ          ZX
  Alpha Z   897.93015   897.93015   897.93015
  Ewald  174269.45063174269.45018************     0.00040     0.00012     0.00019
  Hartree187368.61043187368.61039************     0.00004     0.00006     0.00007
  E(xc)   -2321.58284 -2321.58241 -2325.58384    -0.00038    -0.00004    -0.00006
  Local  ************************374970.94490     0.01877    -0.00058    -0.00098
  n-local  -775.17697  -760.25462  -780.00604     8.26778    -0.06327     0.29529
  augment  3365.75586  3365.77596  3379.18252    -0.01741     0.00022     0.00038
  Kinetic  3406.93741  3410.98546  3416.15337     3.88004     1.85458    -1.15237
  Fock        0.00000     0.00000     0.00000     0.00000     0.00000     0.00000
  Total      -2.56474    -2.56474     2.13613     0.00000    -0.00000     0.00000
  in kB      -3.76308    -3.76308     3.13421     0.00000    -0.00000     0.00000

 VOLUME and BASIS-vectors are now :
  energy-cutoff  :      500.00
  volume of cell :     1091.97
      direct lattice vectors                 reciprocal lattice vectors
     7.696786404  0.000000000  0.000000000     0.129924354 -0.075011849  0.000000000
     3.848392758  6.665612809  0.000000000     0.000000000  0.150023716  0.000000000
     0.000000000  0.000000000 21.284399033     0.000000000  0.000000000  0.046982769

  length of vectors
     7.696786404  7.696786404 21.284399033     0.150023716  0.150023716  0.046982769

 FORCES acting on ions
    electron-ion (+dipol)            ewald-force                    non-local-force                 convergence-correction
   -.416E-04 0.183E-06 0.351E+04   0.579E-04 -.441E-05 -.350E+04   -.141E-17 -.240E-17 -.298E+01   -.327E-03 -.156E-03 -.420E+00
   -.162E+00 0.128E+00 0.351E+04   0.951E-01 0.312E-01 -.350E+04   0.197E-01 0.537E-01 -.195E+01   0.529E-01 -.190E+00 -.309E+00
   0.162E+00 0.128E+00 0.351E+04   -.951E-01 0.312E-01 -.350E+04   -.197E-01 0.537E-01 -.195E+01   -.520E-01 -.187E+00 -.308E+00
   0.299E-01 -.204E+00 0.351E+04   0.745E-01 0.668E-01 -.350E+04   0.564E-01 -.979E-02 -.195E+01   -.138E+00 0.141E+00 -.309E+00
   -.652E-04 -.537E-05 0.351E+04   0.116E-03 -.101E-04 -.350E+04   0.838E-18 -.936E-18 -.177E+01   0.121E-01 0.738E-02 -.328E+00
   -.299E-01 -.204E+00 0.351E+04   -.746E-01 0.666E-01 -.350E+04   -.564E-01 -.979E-02 -.195E+01   0.136E+00 0.142E+00 -.308E+00
   0.192E+00 0.760E-01 0.351E+04   -.206E-01 -.980E-01 -.350E+04   0.367E-01 -.439E-01 -.195E+01   -.188E+00 0.484E-01 -.308E+00
   -.191E+00 0.760E-01 0.351E+04   0.203E-01 -.979E-01 -.350E+04   -.367E-01 -.439E-01 -.195E+01   0.191E+00 0.471E-01 -.308E+00
   -.144E-03 -.329E-04 0.351E+04   0.263E-03 0.206E-04 -.350E+04   0.120E-17 0.113E-17 -.252E+01   -.131E-01 -.675E-02 -.234E+00
   0.227E+01 0.131E+01 0.121E+04   -.186E+01 -.107E+01 -.121E+04   -.416E+00 -.240E+00 -.113E+01   0.675E-02 0.389E-02 0.146E+00
   -.915E-04 -.105E+01 0.121E+04   0.191E-03 0.126E+01 -.121E+04   -.295E-08 0.443E-01 -.451E+00   0.118E-01 -.278E+00 0.193E+00
   -.227E+01 0.131E+01 0.121E+04   0.186E+01 -.107E+01 -.121E+04   0.416E+00 -.240E+00 -.113E+01   -.821E-02 0.446E-02 0.145E+00
   -.907E+00 0.524E+00 0.121E+04   0.109E+01 -.628E+00 -.121E+04   0.383E-01 -.221E-01 -.451E+00   -.234E+00 0.150E+00 0.193E+00
   0.908E+00 0.524E+00 0.121E+04   -.109E+01 -.628E+00 -.121E+04   -.383E-01 -.221E-01 -.451E+00   0.258E+00 0.148E+00 0.190E+00
   -.143E-03 -.501E+00 0.121E+04   0.298E-03 0.138E+00 -.121E+04   -.732E-08 0.110E+00 -.874E+00   -.298E-02 0.232E+00 0.820E-01
   -.919E-04 -.262E+01 0.121E+04   0.186E-03 0.215E+01 -.121E+04   -.320E-07 0.480E+00 -.113E+01   -.117E-02 -.106E-01 0.145E+00
   -.434E+00 0.250E+00 0.121E+04   0.120E+00 -.690E-01 -.121E+04   0.952E-01 -.550E-01 -.874E+00   0.200E+00 -.119E+00 0.818E-01
   0.434E+00 0.250E+00 0.121E+04   -.120E+00 -.690E-01 -.121E+04   -.952E-01 -.550E-01 -.874E+00   -.199E+00 -.116E+00 0.840E-01
   -.521E-04 0.877E+00 -.111E+04   0.679E-04 -.108E+01 0.111E+04   -.844E-08 0.127E+00 0.776E+00   0.105E-02 0.650E-01 0.352E+00
   -.218E+02 -.126E+02 -.111E+04   0.226E+02 0.131E+02 0.111E+04   -.737E+00 -.426E+00 -.680E-01   0.725E-02 0.406E-02 0.540E+00
   0.218E+02 -.126E+02 -.111E+04   -.226E+02 0.131E+02 0.111E+04   0.737E+00 -.426E+00 -.680E-01   -.283E-01 0.162E-02 0.539E+00
   -.119E+02 0.685E+01 -.111E+04   0.116E+02 -.671E+01 0.111E+04   0.338E+00 -.195E+00 0.110E+01   -.562E-01 0.456E-01 0.293E+00
   -.796E-04 0.251E+02 -.111E+04   0.146E-03 -.261E+02 0.111E+04   -.567E-07 0.851E+00 -.680E-01   -.139E-01 -.265E-01 0.539E+00
   0.119E+02 0.685E+01 -.111E+04   -.116E+02 -.671E+01 0.111E+04   -.338E+00 -.195E+00 0.110E+01   0.798E-01 0.452E-01 0.293E+00
   -.760E+00 -.439E+00 -.111E+04   0.937E+00 0.541E+00 0.111E+04   -.110E+00 -.634E-01 0.776E+00   -.581E-01 -.335E-01 0.352E+00
   0.760E+00 -.439E+00 -.111E+04   -.938E+00 0.541E+00 0.111E+04   0.110E+00 -.634E-01 0.776E+00   0.572E-01 -.314E-01 0.353E+00
   -.125E-03 -.137E+02 -.111E+04   0.246E-03 0.134E+02 0.111E+04   -.260E-07 0.390E+00 0.110E+01   0.113E-01 -.715E-01 0.293E+00
   -.344E-04 0.183E-04 -.342E+04   0.375E-04 -.337E-04 0.342E+04   0.725E-17 -.868E-18 0.212E+01   -.162E-03 -.422E-04 0.369E+00
   -.256E+01 -.174E+01 -.341E+04   0.152E+01 -.500E+00 0.341E+04   0.841E+00 0.190E+01 0.273E+01   0.800E-01 0.116E+00 0.332E+00
   0.256E+01 -.174E+01 -.341E+04   -.152E+01 -.500E+00 0.341E+04   -.841E+00 0.190E+01 0.273E+01   -.795E-01 0.117E+00 0.332E+00
   -.278E+01 -.135E+01 -.341E+04   0.328E+00 0.157E+01 0.341E+04   0.206E+01 -.220E+00 0.273E+01   0.140E+00 0.113E-01 0.332E+00
   0.278E+01 -.135E+01 -.341E+04   -.328E+00 0.157E+01 0.341E+04   -.206E+01 -.220E+00 0.273E+01   -.141E+00 0.121E-01 0.334E+00
   -.224E+00 0.308E+01 -.341E+04   -.119E+01 -.107E+01 0.341E+04   0.122E+01 -.168E+01 0.273E+01   0.617E-01 -.127E+00 0.332E+00
   0.224E+00 0.308E+01 -.341E+04   0.119E+01 -.107E+01 0.341E+04   -.122E+01 -.168E+01 0.273E+01   -.591E-01 -.128E+00 0.334E+00
   -.165E-03 -.319E-04 -.342E+04   0.258E-03 0.343E-05 0.342E+04   -.268E-17 -.150E-17 0.220E+01   -.124E-01 -.634E-02 0.346E+00
   -.752E-05 -.276E-04 -.289E+04   0.123E-03 0.248E-04 0.289E+04   0.977E-18 -.515E-17 -.187E+00   0.242E-02 0.147E-02 0.454E+00
   0.172E-03 -.859E-04 -.219E+04   0.145E-04 0.699E-05 0.222E+04   0.107E-17 -.167E-18 -.275E+02   0.310E-02 0.189E-02 -.617E-02
   -.582E-04 -.993E-04 0.228E+02   0.164E-12 0.236E-12 -.282E-10   0.443E-15 -.451E-15 -.279E+02   0.283E-01 0.134E-01 0.514E+01

 POSITION                                       TOTAL-FORCE (eV/Angst)
      0.00000      0.00000      5.37156        -0.000000     -0.000000      0.040376
      2.56560      0.00000      5.37156         0.006399      0.024271      0.073662
      5.13119      0.00000      5.37156        -0.006399      0.024271      0.073662
      1.28280      2.22187      5.37156         0.024219     -0.006594      0.073662
      3.84839      2.22187      5.37156        -0.000000     -0.000000      0.078906
      6.41399      2.22187      5.37156        -0.024219     -0.006594      0.073662
      2.56560      4.44374      5.37156         0.017820     -0.017678      0.073662
      5.13119      4.44374      5.37156        -0.017820     -0.017678      0.073662
      7.69679      4.44374      5.37156        -0.000000     -0.000000      0.038262
      1.28280      0.74062      7.46636         0.003320      0.001917     -0.071062
      3.84839      0.74062      7.46636         0.000000     -0.032429     -0.091783
      6.41399      0.74062      7.46636        -0.003320      0.001917     -0.071062
      2.56560      2.96249      7.46636        -0.028084      0.016214     -0.091783
      5.13119      2.96249      7.46636         0.028084      0.016214     -0.091783
      7.69679      2.96249      7.46636         0.000000     -0.020812     -0.057627
      3.84839      5.18437      7.46636         0.000000     -0.003834     -0.071062
      6.41399      5.18437      7.46636        -0.018023      0.010406     -0.057627
      8.97958      5.18437      7.46636         0.018023      0.010406     -0.057627
      7.69679      1.48680      9.55287         0.000000     -0.012681     -0.015373
      2.54973      1.47208      9.52995         0.113228      0.065372     -0.122442
      5.14706      1.47208      9.52995        -0.113228      0.065372     -0.122442
      8.97744      3.70436      9.55084         0.016551     -0.009556     -0.019124
      3.84839      3.72144      9.52995         0.000000     -0.130744     -0.122442
      6.41613      3.70436      9.55084        -0.016551     -0.009556     -0.019124
     10.25757      5.92221      9.55287         0.010982      0.006340     -0.015373
      5.13600      5.92221      9.55287        -0.010982      0.006340     -0.015373
      7.69679      5.92251      9.55084        -0.000000      0.019111     -0.019124
      0.00000      0.00000     11.61595        -0.000000     -0.000000     -0.002036
      6.40108      6.64688     11.64473        -0.116869     -0.221412     -0.056309
      8.99249      6.64688     11.64473         0.116869     -0.221412     -0.056309
      8.95691      2.22006     11.64473        -0.250182      0.009495     -0.056309
      6.43666      2.22006     11.64473         0.250182      0.009495     -0.056309
     10.25261      4.46428     11.64473        -0.133314      0.211917     -0.056309
      5.14096      4.46428     11.64473         0.133314      0.211917     -0.056309
      7.69679      4.44374     11.61500        -0.000000     -0.000000      0.032923
      3.84839      2.22187     11.65010        -0.000000     -0.000000      0.874291
      3.84839      2.22187     13.51761        -0.000000     -0.000000     -0.034611
    total drift:                                0.028227      0.013273     -0.021809

  FREE ENERGIE OF THE ION-ELECTRON SYSTEM (eV)
  free  energy   TOTEN  =      -133.64740774 eV

  energy  without entropy=     -133.64740774  energy(sigma->0) =     -133.64740774

 stress matrix after NEB project (eV)
     -2.56474      0.00000      0.00000
      0.00000     -2.56474     -0.00000
     -0.00000     -0.00000      2.13613
  FORCES: max atom, RMS     0.034611    0.005690
  FORCE total and by dimension    0.034611    0.034611
  Stress total and by dimension    4.209380    2.564744
|           W    W    AA    RRRRR   N    N  II  N    N   GGGG   !!!           |
|           W    W   A  A   R    R  NN   N  II  NN   N  G    G  !!!           |
|           W    W  A    A  R    R  N N  N  II  N N  N  G       !!!           |
|           W WW W  AAAAAA  RRRRR   N  N N  II  N  N N  G  GGG   !            |
|           WW  WW  A    A  R   R   N   NN  II  N   NN  G    G                |
|           W    W  A    A  R    R  N    N  II  N    N   GGGG   !!!           |
|     Tetrahedron method does not include variations of the Fermi             |
|     occupations, so forces and stress will be inaccurate. We suggest        |
|     using a different smearing scheme ISMEAR = 1 or 2 for metals in         |
|     relaxations.                                                            |

 total charge

# of ion       s       p       d       tot
    1        0.448   0.284   9.190   9.922
    2        0.450   0.284   9.187   9.921
    3        0.450   0.284   9.187   9.921
    4        0.450   0.284   9.187   9.921
    5        0.448   0.288   9.185   9.921
    6        0.450   0.284   9.187   9.921
    7        0.450   0.284   9.187   9.921
    8        0.450   0.284   9.187   9.921
    9        0.445   0.285   9.185   9.915
   10        0.442   0.373   9.179   9.994
   11        0.442   0.370   9.181   9.993
   12        0.442   0.373   9.179   9.994
   13        0.442   0.370   9.181   9.993
   14        0.442   0.370   9.181   9.993
   15        0.439   0.369   9.182   9.990
   16        0.442   0.373   9.179   9.994
   17        0.439   0.369   9.182   9.990
   18        0.439   0.369   9.182   9.990
   19        0.441   0.378   9.177   9.996
   20        0.448   0.385   9.177  10.009
   21        0.448   0.385   9.177  10.009
   22        0.439   0.368   9.186   9.993
   23        0.448   0.385   9.177  10.009
   24        0.439   0.368   9.186   9.993
   25        0.441   0.378   9.177   9.996
   26        0.441   0.378   9.177   9.996
   27        0.439   0.368   9.186   9.993
   28        0.456   0.289   9.196   9.942
   29        0.437   0.295   9.198   9.931
   30        0.437   0.295   9.198   9.931
   31        0.437   0.295   9.198   9.931
   32        0.437   0.295   9.198   9.931
   33        0.437   0.295   9.198   9.931
   34        0.437   0.295   9.198   9.931
   35        0.450   0.294   9.190   9.934
   36        0.764   0.713   8.004   9.481
   37        1.602   3.202   0.000   4.803
tot         17.887  15.561 329.507 362.954

 BZINTS: Fermi energy:   -0.018126;  401.000000 electrons
         Band energy:-0.117576E+04;  BLOECHL correction:   -0.040709