 vasp.6.2.0 18Jan21 (build Jun 12 2021 23:27:24) complex

 executed on             LinuxIFC date 2022.05.27  05:10:35

 INCAR:
   ISMEAR = -5
   SIGMA = 0.1
   ISPIN = 1
   EDIFF = 1.d-5
   EDIFFG = -0.01
   NSW = 0
   NELM = 150
   ENCUT = 500
   ISIF = 2
   IBRION = 2
   LREAL = Auto
   ALGO = Fast
   ICHARG = 11
   LORBIT = 10
   LCHARG = .F.
   LWAVE = .F.

 POTCAR:    PAW_PBE Au 04Oct2007
 POTCAR:    PAW_PBE Rh 04Feb2005
 POTCAR:    PAW_PBE C 08Apr2002
 POTCAR:    PAW_PBE O 08Apr2002
|           W    W    AA    RRRRR   N    N  II  N    N   GGGG   !!!           |
|           W    W   A  A   R    R  NN   N  II  NN   N  G    G  !!!           |
|           W    W  A    A  R    R  N N  N  II  N N  N  G       !!!           |
|           W WW W  AAAAAA  RRRRR   N  N N  II  N  N N  G  GGG   !            |
|           WW  WW  A    A  R   R   N   NN  II  N   NN  G    G                |
|           W    W  A    A  R    R  N    N  II  N    N   GGGG   !!!           |
|     For optimal performance we recommend to set                             |
|       NCORE = 2 up to number-of-cores-per-socket                            |
|     This setting can greatly improve the performance of VASP for DFT.       |
|     The default, NCORE=1 might be grossly inefficient on modern             |
|     multi-core architectures or massively parallel machines. Do your        |
|     Unfortunately you need to use the default for GW and RPA                |
|     calculations (for HF NCORE is supported but not extensively tested      |
|     yet).                                                                   |

 POTCAR:    PAW_PBE Au 04Oct2007
   VRHFIN =Au: s1d10

   TITEL  = PAW_PBE Au 04Oct2007
   POMASS =  196.966; ZVAL   =   11.000    mass and valenz
   ENMAX  =  229.943; ENMIN  =  172.457 eV

 POTCAR:    PAW_PBE Rh 04Feb2005
   VRHFIN =Rh: s1 d8

   TITEL  = PAW_PBE Rh 04Feb2005
   POMASS =  102.906; ZVAL   =    9.000    mass and valenz
   ENMAX  =  228.996; ENMIN  =  171.747 eV

 POTCAR:    PAW_PBE C 08Apr2002
   VRHFIN =C: s2p2

   TITEL  = PAW_PBE C 08Apr2002
   POMASS =   12.011; ZVAL   =    4.000    mass and valenz
   ENMAX  =  400.000; ENMIN  =  300.000 eV

 POTCAR:    PAW_PBE O 08Apr2002
   VRHFIN =O: s2p4

   TITEL  = PAW_PBE O 08Apr2002
   POMASS =   16.000; ZVAL   =    6.000    mass and valenz
   ENMAX  =  400.000; ENMIN  =  300.000 eV

 Optimization of the real space projectors (new method)

 maximal supplied QI-value         = 15.12
 optimisation between [QCUT,QGAM] = [ 11.34, 22.83] = [ 36.00,145.93] Ry
 Optimized for a Real-space Cutoff    1.39 Angstroem

   l    n(q)    QCUT    max X(q) W(low)/X(q) W(high)/X(q)  e(spline)
   2      9    11.338    60.898    0.39E-03    0.42E-03    0.21E-06
   2      9    11.338    58.894    0.40E-03    0.42E-03    0.22E-06
   0      9    11.338   109.617    0.13E-03    0.20E-04    0.13E-06
   0      9    11.338    75.026    0.13E-03    0.20E-04    0.13E-06
   1      9    11.338    16.344    0.33E-04    0.24E-03    0.18E-06
   1      9    11.338    10.160    0.26E-04    0.19E-03    0.15E-06
 Optimization of the real space projectors (new method)

[...]

   l    n(q)    QCUT    max X(q) W(low)/X(q) W(high)/X(q)  e(spline)
   0      7    11.310   115.676    0.43E-03    0.13E-02    0.19E-06
   0      7    11.310    87.132    0.43E-03    0.13E-02    0.18E-06
   1      6    11.310     4.429    0.42E-03    0.74E-03    0.11E-06
   1      6    11.310     2.733    0.34E-03    0.55E-03    0.92E-07
 Optimization of the real space projectors (new method)

 maximal supplied QI-value         = 24.76
 optimisation between [QCUT,QGAM] = [ 11.39, 22.77] = [ 36.31,145.25] Ry
 Optimized for a Real-space Cutoff    1.00 Angstroem

   l    n(q)    QCUT    max X(q) W(low)/X(q) W(high)/X(q)  e(spline)
   0      7    11.387    20.381    0.39E-03    0.13E-02    0.15E-06
   0      7    11.387    15.268    0.42E-03    0.14E-02    0.17E-06
   1      6    11.387     5.964    0.41E-03    0.11E-02    0.17E-06
   1      6    11.387     5.382    0.39E-03    0.87E-03    0.15E-06
  PAW_PBE Au 04Oct2007                  :
  PAW_PBE Rh 04Feb2005                  :
  PAW_PBE C 08Apr2002                   :
  PAW_PBE O 08Apr2002                   :

 POSCAR: Au-Rh-CO
  positions in direct lattice
  velocities in cartesian coordinates
 exchange correlation table for  LEXCH =        8
   RHO(1)=    0.500       N(1)  =     2000
   RHO(2)=  100.500       N(2)  =     4000

 VTST: version 3.2, (02/03/18)

 CHAIN: initializing optimizer

 OPT: Using VASP Conjugate-Gradient optimizer
 CHAIN: Read ICHAIN            0

 POSCAR: Au-Rh-CO
  positions in direct lattice
  velocities in cartesian coordinates

 ion  position               nearest neighbor table
   1  0.000  0.000  0.238-  16 2.94  12 2.94   6 2.94   8 2.94   7 2.94   3 2.94  10 2.94   4 2.94
                             2 2.94
   2  0.333  0.000  0.238-   9 2.94  11 2.94  17 2.94  10 2.94   8 2.94   4 2.94   5 2.94   1 2.94
                             3 2.94
   3  0.667  0.000  0.238-   7 2.94  18 2.94  12 2.94   1 2.94  11 2.94   5 2.94   6 2.94   9 2.94
                             2 2.94
   4  0.000  0.333  0.238-  10 2.94   6 2.94   5 2.94  13 2.94   2 2.94  15 2.94   9 2.94   1 2.94
                             7 2.94
   5  0.333  0.333  0.238-  13 2.94   7 2.94  11 2.94   4 2.94   2 2.94  14 2.94   3 2.94   8 2.94
                             6 2.94
   6  0.667  0.333  0.238-  15 2.94  14 2.94   1 2.94  12 2.94   4 2.94   9 2.94   8 2.94   3 2.94
                             5 2.94
   7  0.000  0.667  0.238-  18 2.94   3 2.94  16 2.94   5 2.94   1 2.94  13 2.94   8 2.94   4 2.94
                             9 2.94
   8  0.333  0.667  0.238-   9 2.94  17 2.94   1 2.94   2 2.94  14 2.94  16 2.94   6 2.94   7 2.94
                             5 2.94
   9  0.667  0.667  0.238-   2 2.94   8 2.94  17 2.94   6 2.94  15 2.94   4 2.94   3 2.94  18 2.94
                             7 2.94
  10  0.111  0.111  0.346-  20 2.91  26 2.93  19 2.93  11 2.94  17 2.94   2 2.94   4 2.94   1 2.94
                            12 2.94  16 2.94  13 2.94  15 2.94
  11  0.444  0.111  0.346-  20 2.91  21 2.91  27 2.93  13 2.94   2 2.94  10 2.94  17 2.94   5 2.94
                             3 2.94  18 2.94  14 2.94  12 2.94
  12  0.778  0.111  0.346-  21 2.91  25 2.93  19 2.93  16 2.94  18 2.94   1 2.94  14 2.94  15 2.94
                             3 2.94   6 2.94  10 2.94  11 2.94
  13  0.111  0.444  0.346-  23 2.91  20 2.91  22 2.93   5 2.94  18 2.94  11 2.94   7 2.94   4 2.94
                            16 2.94  10 2.94  14 2.94  15 2.94
  14  0.444  0.444  0.346-  21 2.91  23 2.91  24 2.93  15 2.94   6 2.94  12 2.94   8 2.94  17 2.94
                             5 2.94  16 2.94  13 2.94  11 2.94
  15  0.778  0.444  0.346-  24 2.93  22 2.93  19 2.93  14 2.94   6 2.94  17 2.94  12 2.94   9 2.94
                             4 2.94  10 2.94  13 2.94  18 2.94
  16  0.111  0.778  0.346-  23 2.91  25 2.93  26 2.93  18 2.94  12 2.94   7 2.94   1 2.94   8 2.94
                            13 2.94  10 2.94  14 2.94  17 2.94
  17  0.444  0.778  0.346-  27 2.93  24 2.93  26 2.93   9 2.94  15 2.94   2 2.94  10 2.94  11 2.94
                             8 2.94  14 2.94  16 2.94  18 2.94
  18  0.778  0.778  0.346-  22 2.93  27 2.93  25 2.93  16 2.94   7 2.94  13 2.94  12 2.94   3 2.94
                            11 2.94   9 2.94  15 2.94  17 2.94
  19  0.889  0.222  0.454-  15 2.93  10 2.93  12 2.93  21 2.94  20 2.94  24 2.94  22 2.94  26 2.94
                            25 2.94  28 2.96  32 2.96  31 2.96
  20  0.222  0.222  0.453-  36 2.79  10 2.91  11 2.91  13 2.91  26 2.94  19 2.94  23 2.94  21 2.94
                            27 2.94  22 2.94  29 2.95  31 2.95
  21  0.556  0.222  0.453-  36 2.79  12 2.91  14 2.91  11 2.91  25 2.94  19 2.94  20 2.94  23 2.94
                            27 2.94  24 2.94  30 2.95  32 2.95
  22  0.888  0.556  0.454-  24 2.92  27 2.92  18 2.93  15 2.93  13 2.93  25 2.94  19 2.94  23 2.94
                            20 2.94  33 2.95  31 2.95  35 2.96
  23  0.222  0.556  0.453-  36 2.79  16 2.91  13 2.91  14 2.91  25 2.94  26 2.94  20 2.94  21 2.94
                            22 2.94  24 2.94  33 2.95  34 2.95
  24  0.556  0.556  0.454-  27 2.92  22 2.92  15 2.93  17 2.93  14 2.93  26 2.94  19 2.94  21 2.94
                            23 2.94  32 2.95  34 2.95  35 2.96
  25  0.889  0.889  0.454-  18 2.93  16 2.93  12 2.93  23 2.94  21 2.94  22 2.94  27 2.94  19 2.94
                            26 2.94  28 2.96  33 2.96  30 2.96
  26  0.222  0.889  0.454-  17 2.93  10 2.93  16 2.93  20 2.94  23 2.94  27 2.94  24 2.94  19 2.94
                            25 2.94  28 2.96  29 2.96  34 2.96
  27  0.556  0.888  0.454-  24 2.92  22 2.92  17 2.93  18 2.93  11 2.93  26 2.94  25 2.94  20 2.94
                            21 2.94  29 2.95  30 2.95  35 2.96
  28  0.000  0.000  0.563-  34 2.95  32 2.95  33 2.95  30 2.95  31 2.95  29 2.95  25 2.96  19 2.96
                            26 2.96
  29  0.333  0.004  0.562-  31 2.90  30 2.90  36 2.91  20 2.95  27 2.95  28 2.95  35 2.96  26 2.96
                            34 3.01
  30  0.663  0.004  0.562-  32 2.90  29 2.90  36 2.91  21 2.95  27 2.95  28 2.95  35 2.96  25 2.96
                            33 3.01
  31  0.004  0.333  0.562-  29 2.90  33 2.90  36 2.91  20 2.95  22 2.95  28 2.95  35 2.96  19 2.96
                            32 3.01
  32  0.663  0.333  0.562-  30 2.90  34 2.90  36 2.91  21 2.95  24 2.95  28 2.95  35 2.96  19 2.96
                            31 3.01
  33  0.004  0.663  0.562-  34 2.90  31 2.90  36 2.91  23 2.95  22 2.95  28 2.95  35 2.96  25 2.96
                            30 3.01
  34  0.333  0.663  0.562-  33 2.90  32 2.90  36 2.91  23 2.95  24 2.95  28 2.95  35 2.96  26 2.96
                            29 3.01
  35  0.667  0.667  0.563-  29 2.96  34 2.96  32 2.96  31 2.96  30 2.96  33 2.96  24 2.96  27 2.96
                            22 2.96
  36  0.333  0.333  0.552-  37 1.84  20 2.79  23 2.79  21 2.79  33 2.91  31 2.91  29 2.91  30 2.91
                            34 2.91  32 2.91
  37  0.333  0.333  0.635-  38 1.16  36 1.84
  38  0.333  0.333  0.688-  37 1.16

  LATTYP: Found a hexagonal cell.
 ALAT       =     8.8135128021
 C/A-ratio  =     2.5184286595

  Lattice vectors:

 A1 = (  -4.4067569092,  -7.6327256898,   0.0000000000)
 A2 = (   8.8135128021,   0.0000000000,   0.0000000000)
 A3 = (   0.0000000000,   0.0000000000,  22.1962032318)

Analysis of symmetry for initial positions (statically):
 Subroutine PRICEL returns:
 Original cell was already a primitive cell.

 Routine SETGRP: Setting up the symmetry group for a
 hexagonal supercell.

 Subroutine GETGRP returns: Found  6 space group operations
 (whereof  6 operations were pure point group operations)
 out of a pool of 24 trial point group operations.

The static configuration has the point symmetry C_3v.

Analysis of symmetry for dynamics (positions and initial velocities):
 Subroutine PRICEL returns:
 Original cell was already a primitive cell.

[...]

The dynamic configuration has the point symmetry C_3v.

Analysis of constrained symmetry for selective dynamics:
 Subroutine PRICEL returns:
[...]
     33      -4.7515      2.00000
     34      -4.6726      2.00000
     35      -4.6635      2.00000
     36      -4.6502      2.00000
     37      -4.6416      2.00000
     38      -4.6340      2.00000
     39      -4.5866      2.00000
     40      -4.4830      2.00000
     41      -4.4792      2.00000
     42      -4.4391      2.00000
     43      -4.4108      2.00000
     44      -4.3512      2.00000
     45      -4.2962      2.00000
     46      -4.2673      2.00000
     47      -4.2175      2.00000
     48      -4.1973      2.00000
     49      -4.1835      2.00000
     50      -4.1745      2.00000
     51      -4.0716      2.00000
     52      -4.0449      2.00000
     53      -4.0160      2.00000
     54      -4.0095      2.00000
     55      -4.0004      2.00000
     56      -3.9965      2.00000
     57      -3.9783      2.00000
     58      -3.9413      2.00000
     59      -3.9049      2.00000
     60      -3.8662      2.00000
[...]
    238       6.2199      0.00000
    239       6.5098      0.00000
    240       6.5372      0.00000
    241       6.5582      0.00000
    242       6.5881      0.00000
    243       6.6237      0.00000
    244       6.7483      0.00000
    245       6.8700      0.00000
    246       6.8896      0.00000
    247       6.9475      0.00000
    248       6.9665      0.00000
    249       7.3081      0.00000
    250       7.3541      0.00000
    251       7.4159      0.00000
    252       7.7219      0.00000

 soft charge-density along one line, spin component           1
         0         1         2         3         4         5         6         7         8         9
 total charge-density along one line

------------------------ aborting loop because EDIFF is reached ----------------------------------------

 total charge

# of ion       s       p       d       tot
    1        0.544   0.238   8.770   9.553
    2        0.545   0.240   8.765   9.551
    3        0.545   0.240   8.765   9.551
    4        0.545   0.240   8.765   9.551
    5        0.544   0.242   8.760   9.545
    6        0.545   0.240   8.765   9.551
    7        0.545   0.240   8.765   9.551
    8        0.545   0.240   8.765   9.551
    9        0.542   0.239   8.771   9.551
   10        0.519   0.309   8.769   9.597
   11        0.522   0.306   8.780   9.608
   12        0.519   0.309   8.769   9.597
   13        0.522   0.306   8.780   9.608
   14        0.522   0.306   8.780   9.608
   15        0.513   0.309   8.774   9.596
   16        0.519   0.309   8.769   9.597
   17        0.513   0.309   8.774   9.596
   18        0.513   0.309   8.774   9.596
   19        0.518   0.303   8.775   9.596
   20        0.542   0.322   8.760   9.624
   21        0.542   0.322   8.760   9.624
   22        0.510   0.309   8.772   9.590
   23        0.542   0.322   8.760   9.624
   24        0.510   0.309   8.772   9.590
   25        0.518   0.303   8.775   9.596
   26        0.518   0.303   8.775   9.596
   27        0.510   0.309   8.772   9.590
   28        0.543   0.228   8.771   9.543
   29        0.541   0.239   8.768   9.548
   30        0.541   0.239   8.768   9.548
   31        0.541   0.239   8.768   9.548
   32        0.541   0.239   8.768   9.548
   33        0.541   0.239   8.768   9.548
   34        0.541   0.239   8.768   9.548
   35        0.540   0.228   8.773   9.542
   36        0.442   0.534   7.514   8.490
   37        0.959   1.556   0.000   2.515
   38        1.616   3.526   0.000   5.142
tot         21.616  15.236 314.450 351.301

  FORCE on cell =-STRESS in cart. coord.  units (eV):
  Direction    XX          YY          ZZ          XY          YZ          ZX
  Alpha Z  1031.26169  1031.26169  1031.26169
  Ewald  118040.01119118040.01163************    -0.00032    -0.00008    -0.00012
  Hartree127004.67723127004.67724************     0.00001    -0.00002    -0.00003
  E(xc)   -1815.59892 -1815.59899 -1820.99713     0.00006    -0.00001    -0.00001
  Local  ************************257127.70481     0.00209     0.00001    -0.00003
  n-local  -104.13823   -52.13018   -55.21536    23.80057    -1.31223     1.44192
  augment  2435.13843  2435.14001  2440.59400    -0.00137     0.00000     0.00004
  Kinetic  5656.93985  5670.81794  5667.54837     6.36593     0.03909     0.40365
  Fock        0.00000     0.00000     0.00000     0.00000     0.00000     0.00000
  Total     -18.79280   -18.79280     2.63660    -0.00000     0.00000    -0.00000
  in kB     -20.16484   -20.16484     2.82910    -0.00000     0.00000    -0.00000

 VOLUME and BASIS-vectors are now :
  energy-cutoff  :      500.00
  volume of cell :     1493.16
      direct lattice vectors                 reciprocal lattice vectors
     8.813512802  0.000000000  0.000000000     0.113462137 -0.065507406  0.000000000
     4.406756909  7.632725690  0.000000000     0.000000000  0.131014796  0.000000000
     0.000000000  0.000000000 22.196203232     0.000000000  0.000000000  0.045052750

  length of vectors
     8.813512802  8.813512802 22.196203232     0.131014796  0.131014796  0.045052750

 FORCES acting on ions
    electron-ion (+dipol)            ewald-force                    non-local-force                 convergence-correction
   -.195E-04 -.162E-04 0.250E+04   0.519E-04 0.434E-04 -.250E+04   -.920E-18 -.143E-17 -.100E+01   -.203E-03 -.131E-03 -.262E+00
   0.230E+00 0.377E+00 0.250E+04   -.315E+00 -.437E+00 -.250E+04   0.514E-01 0.661E-01 -.350E+00   0.350E-01 0.132E-01 -.299E+00
   -.230E+00 0.377E+00 0.250E+04   0.315E+00 -.437E+00 -.250E+04   -.514E-01 0.661E-01 -.350E+00   -.347E-01 0.152E-01 -.298E+00
   0.441E+00 0.103E-01 0.250E+04   -.536E+00 -.539E-01 -.250E+04   0.830E-01 0.114E-01 -.350E+00   0.290E-01 0.236E-01 -.299E+00
   0.859E-05 -.233E-04 0.250E+04   0.951E-04 0.171E-05 -.250E+04   0.126E-17 -.454E-18 -.155E+00   0.430E-02 0.262E-02 -.305E+00
   -.441E+00 0.104E-01 0.250E+04   0.536E+00 -.540E-01 -.250E+04   -.830E-01 0.114E-01 -.350E+00   -.305E-01 0.246E-01 -.298E+00
   0.212E+00 -.387E+00 0.250E+04   -.221E+00 0.491E+00 -.250E+04   0.316E-01 -.776E-01 -.350E+00   -.415E-02 -.376E-01 -.298E+00
   -.212E+00 -.387E+00 0.250E+04   0.221E+00 0.491E+00 -.250E+04   -.316E-01 -.776E-01 -.350E+00   0.605E-02 -.387E-01 -.298E+00
   0.192E-04 -.417E-04 0.250E+04   0.166E-03 -.201E-04 -.250E+04   -.582E-18 0.331E-18 -.659E+00   -.464E-02 -.240E-02 -.296E+00
   0.396E+01 0.228E+01 0.871E+03   -.366E+01 -.211E+01 -.870E+03   -.278E+00 -.161E+00 -.671E+00   -.691E-02 -.411E-02 -.153E+00
   0.143E-04 0.453E+01 0.875E+03   0.148E-03 -.448E+01 -.875E+03   0.348E-08 0.523E-01 -.275E+00   0.380E-02 -.131E+00 -.202E+00
   -.396E+01 0.228E+01 0.871E+03   0.366E+01 -.211E+01 -.870E+03   0.278E+00 -.161E+00 -.671E+00   0.560E-02 -.262E-02 -.154E+00
   0.392E+01 -.226E+01 0.875E+03   -.388E+01 0.224E+01 -.875E+03   0.453E-01 -.261E-01 -.275E+00   -.111E+00 0.689E-01 -.202E+00
   -.392E+01 -.226E+01 0.875E+03   0.388E+01 0.224E+01 -.875E+03   -.453E-01 -.261E-01 -.275E+00   0.119E+00 0.685E-01 -.202E+00
   0.306E-04 0.598E+00 0.870E+03   0.236E-03 -.629E+00 -.869E+03   -.378E-09 -.568E-02 -.511E+00   -.240E-02 0.243E-01 -.122E+00
   -.214E-04 -.457E+01 0.871E+03   0.163E-03 0.423E+01 -.870E+03   0.214E-07 0.322E+00 -.671E+00   0.295E-03 0.613E-02 -.154E+00
   0.518E+00 -.299E+00 0.870E+03   -.545E+00 0.315E+00 -.869E+03   -.492E-02 0.284E-02 -.511E+00   0.201E-01 -.138E-01 -.122E+00
   -.518E+00 -.299E+00 0.870E+03   0.545E+00 0.315E+00 -.869E+03   0.492E-02 0.284E-02 -.511E+00   -.201E-01 -.119E-01 -.122E+00
   -.407E-04 0.188E+01 -.788E+03   0.532E-04 -.195E+01 0.787E+03   0.106E-08 0.159E-01 0.677E+00   -.536E-03 0.644E-01 0.268E-01
   0.151E+02 0.874E+01 -.753E+03   -.142E+02 -.821E+01 0.753E+03   -.867E+00 -.501E+00 -.829E+00   -.543E-01 -.315E-01 0.111E+00
   -.151E+02 0.874E+01 -.753E+03   0.142E+02 -.821E+01 0.753E+03   0.867E+00 -.501E+00 -.829E+00   0.552E-01 -.295E-01 0.111E+00
   0.558E+01 -.322E+01 -.781E+03   -.575E+01 0.332E+01 0.780E+03   0.230E+00 -.133E+00 0.556E+00   -.280E-01 0.118E-01 0.269E-01
   -.136E-04 -.175E+02 -.753E+03   0.144E-03 0.164E+02 0.753E+03   0.667E-07 0.100E+01 -.829E+00   0.178E-02 0.626E-01 0.111E+00
   -.558E+01 -.322E+01 -.781E+03   0.575E+01 0.332E+01 0.780E+03   -.230E+00 -.133E+00 0.556E+00   0.211E-01 0.122E-01 0.269E-01
   -.162E+01 -.938E+00 -.788E+03   0.169E+01 0.975E+00 0.787E+03   -.137E-01 -.793E-02 0.677E+00   -.539E-01 -.312E-01 0.265E-01
   0.162E+01 -.938E+00 -.788E+03   -.169E+01 0.975E+00 0.787E+03   0.137E-01 -.793E-02 0.677E+00   0.558E-01 -.326E-01 0.268E-01
   0.766E-05 0.644E+01 -.781E+03   0.200E-03 -.664E+01 0.780E+03   0.177E-07 0.266E+00 0.556E+00   -.438E-02 -.302E-01 0.269E-01
   -.120E-04 -.130E-04 -.243E+04   0.287E-04 0.348E-04 0.242E+04   0.722E-17 -.171E-17 0.550E+00   0.951E-04 0.359E-04 0.330E+00
   0.259E+02 0.446E+02 -.239E+04   -.258E+02 -.444E+02 0.239E+04   -.219E+00 -.315E+00 0.647E+00   0.470E-01 0.429E-02 0.343E+00
   -.259E+02 0.446E+02 -.239E+04   0.258E+02 -.444E+02 0.239E+04   0.219E+00 -.315E+00 0.647E+00   -.469E-01 0.638E-02 0.344E+00
   0.515E+02 0.171E+00 -.239E+04   -.514E+02 -.157E+00 0.239E+04   -.382E+00 -.320E-01 0.647E+00   0.273E-01 0.385E-01 0.343E+00
   -.515E+02 0.171E+00 -.239E+04   0.514E+02 -.157E+00 0.239E+04   0.382E+00 -.320E-01 0.647E+00   -.288E-01 0.396E-01 0.343E+00
   0.256E+02 -.447E+02 -.239E+04   -.256E+02 0.446E+02 0.239E+04   -.163E+00 0.347E+00 0.647E+00   -.178E-01 -.438E-01 0.344E+00
   -.256E+02 -.447E+02 -.239E+04   0.256E+02 0.446E+02 0.239E+04   0.163E+00 0.347E+00 0.647E+00   0.200E-01 -.447E-01 0.343E+00
   0.300E-04 -.275E-04 -.243E+04   0.145E-03 -.500E-04 0.243E+04   0.412E-17 0.888E-18 0.625E+00   -.478E-02 -.247E-02 0.299E+00
   0.144E-04 -.581E-05 -.171E+04   0.917E-04 0.821E-05 0.172E+04   0.596E-17 -.967E-20 -.526E+01   0.335E-02 0.204E-02 0.346E+00
   -.536E-05 -.860E-04 -.862E+03   0.141E-04 0.912E-06 0.847E+03   -.635E-19 0.134E-18 0.151E+02   0.126E-02 0.770E-03 0.563E-01
   0.242E-03 -.918E-04 -.152E+04   0.552E-05 0.516E-06 0.158E+04   -.284E-18 -.353E-18 -.598E+02   0.376E-02 0.230E-02 0.650E-02
   -.464E-03 -.919E-03 0.534E+02   -.799E-13 0.243E-12 0.136E-11   0.375E-16 0.278E-15 -.521E+02   0.547E-02 0.395E-02 -.487E+00

 POSITION                                       TOTAL-FORCE (eV/Angst)
      0.00000      0.00000      5.28038         0.000000      0.000000     -0.095434
      2.93784      0.00000      5.28038         0.001579      0.019856     -0.046339
      5.87568      0.00000      5.28038        -0.001579      0.019856     -0.046339
      1.46892      2.54424      5.28038         0.017985     -0.008560     -0.046339
      4.40676      2.54424      5.28038        -0.000000      0.000000     -0.055631
      7.34459      2.54424      5.28038        -0.017985     -0.008560     -0.046339
      2.93784      5.08848      5.28038         0.016406     -0.011296     -0.046339
      5.87568      5.08848      5.28038        -0.016406     -0.011296     -0.046339
      8.81351      5.08848      5.28038         0.000000     -0.000000     -0.052770
      1.46892      0.84808      7.67911         0.010659      0.006154      0.085742
      4.40676      0.84808      7.67911        -0.000000     -0.037848      0.029122
      7.34459      0.84808      7.67911        -0.010659      0.006154      0.085742
      2.93784      3.39232      7.67911        -0.032777      0.018924      0.029122
      5.87568      3.39232      7.67911         0.032777      0.018924      0.029122
      8.81351      3.39232      7.67911        -0.000000     -0.013067      0.092567
      4.40676      5.93656      7.67911        -0.000000     -0.012308      0.085742
      7.34459      5.93656      7.67911        -0.011316      0.006533      0.092567
     10.28243      5.93656      7.67911         0.011316      0.006533      0.092567
      8.81351      1.69621     10.07295         0.000000      0.004144      0.001311
      2.93663      1.69546     10.04742        -0.001715     -0.000990     -0.230502
      5.87688      1.69546     10.04742         0.001715     -0.000990     -0.230502
     10.27557      4.24437     10.06760         0.034490     -0.019913     -0.008713
      4.40676      4.24180     10.04742         0.000000      0.001980     -0.230502
      7.35146      4.24437     10.06760        -0.034490     -0.019913     -0.008713
     11.75131      6.78462     10.07295        -0.003589     -0.002072      0.001311
      5.87571      6.78462     10.07295         0.003589     -0.002072      0.001311
      8.81351      6.77672     10.06760         0.000000      0.039825     -0.008713
      0.00000      0.00000     12.49471        -0.000000     -0.000000     -0.040627
      2.95476      0.03042     12.47845        -0.081786     -0.183707     -0.070341
      5.85875      0.03042     12.47845         0.081786     -0.183707     -0.070341
      1.50372      2.54369     12.47845        -0.199988      0.021025     -0.070341
      7.30979      2.54369     12.47845         0.199988      0.021025     -0.070341
      2.95572      5.05862     12.47845        -0.118202      0.162682     -0.070341
      5.85780      5.05862     12.47845         0.118202      0.162682     -0.070341
      8.81351      5.08848     12.49462         0.000000      0.000000     -0.023964
      4.40676      2.54424     12.26123         0.000000     -0.000000      1.073498
      4.40676      2.54424     14.10037        -0.000000     -0.000000      0.014370
      4.40676      2.54424     15.26505         0.000000      0.000000     -0.027944
    total drift:                                0.005008      0.003028      0.821431

  FREE ENERGIE OF THE ION-ELECTRON SYSTEM (eV)
  free  energy   TOTEN  =      -129.87688612 eV

  energy  without entropy=     -129.87688612  energy(sigma->0) =     -129.87688612

 stress matrix after NEB project (eV)
    -18.79280     -0.00000     -0.00000
     -0.00000    -18.79280     -0.00000
      0.00000      0.00000      2.63660
  FORCES: max atom, RMS     0.027944    0.005097
  FORCE total and by dimension    0.031422    0.027944
  Stress total and by dimension   26.707500   18.792803
|           W    W    AA    RRRRR   N    N  II  N    N   GGGG   !!!           |
|           W    W   A  A   R    R  NN   N  II  NN   N  G    G  !!!           |
|           W    W  A    A  R    R  N N  N  II  N N  N  G       !!!           |
|           W WW W  AAAAAA  RRRRR   N  N N  II  N  N N  G  GGG   !            |
|           WW  WW  A    A  R   R   N   NN  II  N   NN  G    G                |
|           W    W  A    A  R    R  N    N  II  N    N   GGGG   !!!           |
|     Tetrahedron method does not include variations of the Fermi             |
|     occupations, so forces and stress will be inaccurate. We suggest        |
|     using a different smearing scheme ISMEAR = 1 or 2 for metals in         |
|     relaxations.                                                            |

 total charge

# of ion       s       p       d       tot
    1        0.544   0.238   8.770   9.553
    2        0.545   0.240   8.765   9.551
    3        0.545   0.240   8.765   9.551
    4        0.545   0.240   8.765   9.551
    5        0.544   0.242   8.760   9.545
    6        0.545   0.240   8.765   9.551
    7        0.545   0.240   8.765   9.551
    8        0.545   0.240   8.765   9.551
    9        0.542   0.239   8.771   9.551
   10        0.519   0.309   8.769   9.597
   11        0.522   0.306   8.780   9.608
   12        0.519   0.309   8.769   9.597
   13        0.522   0.306   8.780   9.608
   14        0.522   0.306   8.780   9.608
   15        0.513   0.309   8.774   9.596
   16        0.519   0.309   8.769   9.597
   17        0.513   0.309   8.774   9.596
   18        0.513   0.309   8.774   9.596
   19        0.518   0.303   8.775   9.596
   20        0.542   0.322   8.760   9.624
   21        0.542   0.322   8.760   9.624
   22        0.510   0.309   8.772   9.590
   23        0.542   0.322   8.760   9.624
   24        0.510   0.309   8.772   9.590
   25        0.518   0.303   8.775   9.596
   26        0.518   0.303   8.775   9.596
   27        0.510   0.309   8.772   9.590
   28        0.543   0.228   8.771   9.543
   29        0.541   0.239   8.768   9.548
   30        0.541   0.239   8.768   9.548
   31        0.541   0.239   8.768   9.548
   32        0.541   0.239   8.768   9.548
   33        0.541   0.239   8.768   9.548
   34        0.541   0.239   8.768   9.548
   35        0.540   0.228   8.773   9.542
   36        0.442   0.534   7.514   8.490
   37        0.959   1.556   0.000   2.515
   38        1.616   3.526   0.000   5.142
tot         21.616  15.236 314.450 351.301

 BZINTS: Fermi energy:    0.752124;  404.000000 electrons
         Band energy:-0.123775E+04;  BLOECHL correction:   -0.095700