 vasp.6.2.0 18Jan21 (build Jun 12 2021 23:27:24) complex

 executed on             LinuxIFC date 2022.05.26  19:33:05

 INCAR:
   ISMEAR = -5
   SIGMA = 0.1
   ISPIN = 1
   EDIFF = 1.d-5
   EDIFFG = -0.01
   NSW = 0
   NELM = 150
   ENCUT = 500
   ISIF = 2
   IBRION = 2
   LREAL = Auto
   ALGO = Fast
   ICHARG = 11
   LORBIT = 10
   LCHARG = .F.
   LWAVE = .F.

 POTCAR:    PAW_PBE Au 04Oct2007
 POTCAR:    PAW_PBE Re 17Jan2003
 POTCAR:    PAW_PBE N 08Apr2002
|           W    W    AA    RRRRR   N    N  II  N    N   GGGG   !!!           |
|           W    W   A  A   R    R  NN   N  II  NN   N  G    G  !!!           |
|           W    W  A    A  R    R  N N  N  II  N N  N  G       !!!           |
|           W WW W  AAAAAA  RRRRR   N  N N  II  N  N N  G  GGG   !            |
|           WW  WW  A    A  R   R   N   NN  II  N   NN  G    G                |
|           W    W  A    A  R    R  N    N  II  N    N   GGGG   !!!           |
|     For optimal performance we recommend to set                             |
|       NCORE = 2 up to number-of-cores-per-socket                            |
|     This setting can greatly improve the performance of VASP for DFT.       |
|     The default, NCORE=1 might be grossly inefficient on modern             |
|     multi-core architectures or massively parallel machines. Do your        |
|     Unfortunately you need to use the default for GW and RPA                |
|     calculations (for HF NCORE is supported but not extensively tested      |
|     yet).                                                                   |

 POTCAR:    PAW_PBE Au 04Oct2007
   VRHFIN =Au: s1d10

   TITEL  = PAW_PBE Au 04Oct2007
   POMASS =  196.966; ZVAL   =   11.000    mass and valenz
   ENMAX  =  229.943; ENMIN  =  172.457 eV

 POTCAR:    PAW_PBE Re 17Jan2003
   VRHFIN =Re: 5p6s5d

   TITEL  = PAW_PBE Re 17Jan2003
   POMASS =  186.207; ZVAL   =    7.000    mass and valenz
   ENMAX  =  226.216; ENMIN  =  169.662 eV

 POTCAR:    PAW_PBE N 08Apr2002
   VRHFIN =N: s2p3

   TITEL  = PAW_PBE N 08Apr2002
   POMASS =   14.001; ZVAL   =    5.000    mass and valenz
   ENMAX  =  400.000; ENMIN  =  300.000 eV

 Optimization of the real space projectors (new method)

 maximal supplied QI-value         = 15.12
 optimisation between [QCUT,QGAM] = [ 11.34, 22.83] = [ 36.00,145.93] Ry
 Optimized for a Real-space Cutoff    1.39 Angstroem

   l    n(q)    QCUT    max X(q) W(low)/X(q) W(high)/X(q)  e(spline)
   2      9    11.338    60.898    0.39E-03    0.42E-03    0.21E-06
   2      9    11.338    58.894    0.40E-03    0.42E-03    0.22E-06
   0      9    11.338   109.617    0.13E-03    0.20E-04    0.13E-06
   0      9    11.338    75.026    0.13E-03    0.20E-04    0.13E-06
   1      9    11.338    16.344    0.33E-04    0.24E-03    0.18E-06
   1      9    11.338    10.160    0.26E-04    0.19E-03    0.15E-06
 Optimization of the real space projectors (new method)

[...]

   l    n(q)    QCUT    max X(q) W(low)/X(q) W(high)/X(q)  e(spline)
   2     10    11.327   884.633    0.22E-03    0.51E-03    0.88E-06
   2     10    11.327   796.723    0.22E-03    0.51E-03    0.88E-06
   0     11    11.327    65.348    0.44E-04    0.11E-03    0.75E-06
   0     11    11.327    39.642    0.40E-04    0.10E-03    0.69E-06
   1     10    11.327    13.988    0.15E-03    0.10E-03    0.19E-06
   1     10    11.327     8.682    0.11E-03    0.76E-04    0.14E-06
 Optimization of the real space projectors (new method)

 maximal supplied QI-value         = 25.13
 optimisation between [QCUT,QGAM] = [ 11.31, 22.87] = [ 35.82,146.48] Ry
 Optimized for a Real-space Cutoff    1.27 Angstroem

   l    n(q)    QCUT    max X(q) W(low)/X(q) W(high)/X(q)  e(spline)
   0      9    11.310    79.467    0.75E-04    0.16E-03    0.36E-06
   0      9    11.310    66.151    0.74E-04    0.16E-03    0.36E-06
   1      8    11.310    17.416    0.35E-03    0.12E-03    0.95E-06
   1      8    11.310    12.382    0.37E-03    0.13E-03    0.98E-06
  PAW_PBE Au 04Oct2007                  :
  PAW_PBE Re 17Jan2003                  :
  PAW_PBE N 08Apr2002                   :

 POSCAR: Au-Re-N
  positions in direct lattice
  velocities in cartesian coordinates
 exchange correlation table for  LEXCH =        8
   RHO(1)=    0.500       N(1)  =     2000
   RHO(2)=  100.500       N(2)  =     4000

 VTST: version 3.2, (02/03/18)

 CHAIN: initializing optimizer

 OPT: Using VASP Conjugate-Gradient optimizer
 CHAIN: Read ICHAIN            0

 POSCAR: Au-Re-N
  positions in direct lattice
  velocities in cartesian coordinates

 ion  position               nearest neighbor table
   1  0.000  0.000  0.238-  16 2.94  12 2.94   6 2.94   8 2.94   7 2.94   3 2.94  10 2.94   4 2.94
                             2 2.94
   2  0.333  0.000  0.238-   9 2.94  11 2.94  17 2.94  10 2.94   8 2.94   4 2.94   5 2.94   1 2.94
                             3 2.94
   3  0.667  0.000  0.238-   7 2.94  18 2.94  12 2.94   1 2.94  11 2.94   5 2.94   6 2.94   9 2.94
                             2 2.94
   4  0.000  0.333  0.238-  10 2.94   6 2.94   5 2.94  13 2.94   2 2.94  15 2.94   9 2.94   1 2.94
                             7 2.94
   5  0.333  0.333  0.238-  13 2.94   7 2.94  11 2.94   4 2.94   2 2.94  14 2.94   3 2.94   8 2.94
                             6 2.94
   6  0.667  0.333  0.238-  15 2.94  14 2.94   1 2.94  12 2.94   4 2.94   9 2.94   8 2.94   3 2.94
                             5 2.94
   7  0.000  0.667  0.238-  18 2.94   3 2.94  16 2.94   5 2.94   1 2.94  13 2.94   8 2.94   4 2.94
                             9 2.94
   8  0.333  0.667  0.238-   9 2.94  17 2.94   1 2.94   2 2.94  14 2.94  16 2.94   6 2.94   7 2.94
                             5 2.94
   9  0.667  0.667  0.238-   2 2.94   8 2.94  17 2.94   6 2.94  15 2.94   4 2.94   3 2.94  18 2.94
                             7 2.94
  10  0.111  0.111  0.346-  20 2.90  11 2.94  17 2.94   2 2.94   4 2.94   1 2.94  12 2.94  16 2.94
                            13 2.94  15 2.94  26 2.96  19 2.96
  11  0.444  0.111  0.346-  20 2.91  21 2.91  13 2.94   2 2.94  10 2.94  17 2.94   5 2.94   3 2.94
                            18 2.94  14 2.94  12 2.94  27 2.94
  12  0.778  0.111  0.346-  21 2.90  16 2.94  18 2.94   1 2.94  14 2.94  15 2.94   3 2.94   6 2.94
                            10 2.94  11 2.94  25 2.96  19 2.96
  13  0.111  0.444  0.346-  23 2.91  20 2.91   5 2.94  18 2.94  11 2.94   7 2.94   4 2.94  16 2.94
                            10 2.94  14 2.94  15 2.94  22 2.94
  14  0.444  0.444  0.346-  21 2.91  23 2.91  15 2.94   6 2.94  12 2.94   8 2.94  17 2.94   5 2.94
                            16 2.94  13 2.94  11 2.94  24 2.94
  15  0.778  0.444  0.346-  24 2.92  22 2.92  14 2.94   6 2.94  17 2.94  12 2.94   9 2.94   4 2.94
                            10 2.94  13 2.94  18 2.94  19 2.95
  16  0.111  0.778  0.346-  23 2.90  18 2.94  12 2.94   7 2.94   1 2.94   8 2.94  13 2.94  10 2.94
                            14 2.94  17 2.94  25 2.96  26 2.96
  17  0.444  0.778  0.346-  27 2.92  24 2.92   9 2.94  15 2.94   2 2.94  10 2.94  11 2.94   8 2.94
                            14 2.94  16 2.94  18 2.94  26 2.95
  18  0.778  0.778  0.346-  22 2.92  27 2.92  16 2.94   7 2.94  13 2.94  12 2.94   3 2.94  11 2.94
                             9 2.94  15 2.94  17 2.94  25 2.95
  19  0.888  0.224  0.455-  24 2.93  22 2.93  21 2.93  20 2.93  28 2.94  15 2.95  26 2.96  25 2.96
                            10 2.96  12 2.96  32 3.02  31 3.02
  20  0.222  0.222  0.452-  36 2.75  10 2.90  11 2.91  13 2.91  26 2.93  19 2.93  23 2.95  21 2.95
                            27 2.96  22 2.96  29 2.97  31 2.97
  21  0.556  0.222  0.452-  36 2.75  12 2.90  14 2.91  11 2.91  25 2.93  19 2.93  20 2.95  23 2.95
                            27 2.96  24 2.96  30 2.97  32 2.97
  22  0.886  0.557  0.454-  24 2.90  27 2.90  18 2.92  15 2.92  25 2.93  19 2.93  13 2.94  35 2.95
                            23 2.96  20 2.96  33 3.00  31 3.00
  23  0.222  0.556  0.452-  36 2.75  16 2.90  13 2.91  14 2.91  25 2.93  26 2.93  20 2.95  21 2.95
                            22 2.96  24 2.96  33 2.97  34 2.97
  24  0.557  0.557  0.454-  27 2.90  22 2.90  15 2.92  17 2.92  26 2.93  19 2.93  14 2.94  35 2.95
                            21 2.96  23 2.96  32 3.00  34 3.00
  25  0.888  0.888  0.455-  22 2.93  27 2.93  23 2.93  21 2.93  28 2.94  18 2.95  19 2.96  26 2.96
                            16 2.96  12 2.96  33 3.02  30 3.02
  26  0.224  0.888  0.455-  27 2.93  24 2.93  20 2.93  23 2.93  28 2.94  17 2.95  19 2.96  25 2.96
                            10 2.96  16 2.96  29 3.02  34 3.02
  27  0.557  0.886  0.454-  24 2.90  22 2.90  17 2.92  18 2.92  26 2.93  25 2.93  11 2.94  35 2.95
                            20 2.96  21 2.96  29 3.00  30 3.00
  28  0.000  0.000  0.563-  25 2.94  19 2.94  26 2.94  34 2.99  32 2.99  33 2.99  30 2.99  31 2.99
                            29 2.99
  29  0.333  0.011  0.565-  30 2.84  31 2.84  36 2.86  20 2.97  35 2.99  28 2.99  27 3.00  26 3.02
                            34 3.14
  30  0.655  0.011  0.565-  29 2.84  32 2.84  36 2.86  21 2.97  35 2.99  28 2.99  27 3.00  25 3.02
                            33 3.14
  31  0.011  0.333  0.565-  33 2.84  29 2.84  36 2.86  20 2.97  35 2.99  28 2.99  22 3.00  19 3.02
                            32 3.14
  32  0.655  0.333  0.565-  34 2.84  30 2.84  36 2.86  21 2.97  35 2.99  28 2.99  24 3.00  19 3.02
                            31 3.14
  33  0.011  0.655  0.565-  31 2.84  34 2.84  36 2.86  23 2.97  35 2.99  28 2.99  22 3.00  25 3.02
                            30 3.14
  34  0.333  0.655  0.565-  32 2.84  33 2.84  36 2.86  23 2.97  35 2.99  28 2.99  24 3.00  26 3.02
                            29 3.14
  35  0.667  0.667  0.563-  24 2.95  27 2.95  22 2.95  29 2.99  34 2.99  32 2.99  31 2.99  30 2.99
                            33 2.99
  36  0.333  0.333  0.550-  37 1.71  20 2.75  23 2.75  21 2.75  33 2.86  31 2.86  29 2.86  30 2.86
                            34 2.86  32 2.86
  37  0.333  0.333  0.627-  36 1.71

  LATTYP: Found a hexagonal cell.
 ALAT       =     8.8135128021
 C/A-ratio  =     2.5184286595

  Lattice vectors:

 A1 = (  -4.4067569092,  -7.6327256898,   0.0000000000)
 A2 = (   8.8135128021,   0.0000000000,   0.0000000000)
 A3 = (   0.0000000000,   0.0000000000,  22.1962032318)

Analysis of symmetry for initial positions (statically):
 Subroutine PRICEL returns:
 Original cell was already a primitive cell.

 Routine SETGRP: Setting up the symmetry group for a
 hexagonal supercell.

 Subroutine GETGRP returns: Found  6 space group operations
 (whereof  6 operations were pure point group operations)
 out of a pool of 24 trial point group operations.

The static configuration has the point symmetry C_3v.

Analysis of symmetry for dynamics (positions and initial velocities):
 Subroutine PRICEL returns:
 Original cell was already a primitive cell.

[...]

The dynamic configuration has the point symmetry C_3v.

Analysis of constrained symmetry for selective dynamics:
 Subroutine PRICEL returns:
 Original cell was already a primitive cell.

 Routine SETGRP: Setting up the symmetry group for a
 hexagonal supercell.

 Subroutine GETGRP returns: Found  6 space group operations
[...]
     24      -5.0931      2.00000
     25      -5.0628      2.00000
     26      -5.0595      2.00000
     27      -5.0131      2.00000
     28      -4.9501      2.00000
     29      -4.9404      2.00000
     30      -4.8621      2.00000
     31      -4.8448      2.00000
     32      -4.8154      2.00000
     33      -4.7677      2.00000
     34      -4.7565      2.00000
     35      -4.7319      2.00000
     36      -4.6803      2.00000
     37      -4.6720      2.00000
     38      -4.6005      2.00000
     39      -4.5336      2.00000
     40      -4.5144      2.00000
     41      -4.4785      2.00000
     42      -4.4412      2.00000
     43      -4.4165      2.00000
     44      -4.3805      2.00000
     45      -4.3220      2.00000
     46      -4.2898      2.00000
     47      -4.2094      2.00000
     48      -4.2005      2.00000
     49      -4.1678      2.00000
     50      -4.1515      2.00000
     51      -4.1418      2.00000
     52      -4.1315      2.00000
     53      -4.1086      2.00000
     54      -4.0979      2.00000
     55      -4.0693      2.00000
     56      -4.0125      2.00000
     57      -3.9985      2.00000
     58      -3.9880      2.00000
     59      -3.9792      2.00000
     60      -3.9653      2.00000
[...]
    238       6.5177      0.00000
    239       6.5481      0.00000
    240       6.5948      0.00000
    241       6.7504      0.00000
    242       6.7934      0.00000
    243       6.8221      0.00000
    244       6.8652      0.00000
    245       6.9838      0.00000
    246       7.2038      0.00000
    247       7.2378      0.00000
    248       7.3486      0.00000
    249       7.6342      0.00000
    250       7.6686      0.00000
    251       7.8182      0.00000
    252       7.8682      0.00000

 soft charge-density along one line, spin component           1
         0         1         2         3         4         5         6         7         8         9
 total charge-density along one line

------------------------ aborting loop because EDIFF is reached ----------------------------------------

 total charge

# of ion       s       p       d       tot
    1        0.548   0.239   8.767   9.554
    2        0.543   0.241   8.765   9.549
    3        0.543   0.241   8.765   9.549
    4        0.543   0.241   8.765   9.549
    5        0.543   0.241   8.764   9.548
    6        0.543   0.241   8.765   9.549
    7        0.543   0.241   8.765   9.549
    8        0.543   0.241   8.765   9.549
    9        0.543   0.241   8.766   9.550
   10        0.520   0.307   8.771   9.598
   11        0.517   0.311   8.776   9.605
   12        0.520   0.307   8.771   9.598
   13        0.517   0.311   8.776   9.605
   14        0.517   0.311   8.776   9.605
   15        0.514   0.309   8.773   9.596
   16        0.520   0.307   8.771   9.598
   17        0.514   0.309   8.773   9.596
   18        0.514   0.309   8.773   9.596
   19        0.517   0.293   8.776   9.587
   20        0.557   0.339   8.746   9.642
   21        0.557   0.339   8.746   9.642
   22        0.509   0.309   8.773   9.591
   23        0.557   0.339   8.746   9.642
   24        0.509   0.309   8.773   9.591
   25        0.517   0.293   8.776   9.587
   26        0.517   0.293   8.776   9.587
   27        0.509   0.309   8.773   9.591
   28        0.545   0.224   8.759   9.528
   29        0.551   0.248   8.758   9.557
   30        0.551   0.248   8.758   9.557
   31        0.551   0.248   8.758   9.557
   32        0.551   0.248   8.758   9.557
   33        0.551   0.248   8.758   9.557
   34        0.551   0.248   8.758   9.557
   35        0.537   0.225   8.763   9.525
   36        0.601   0.580   4.957   6.138
   37        1.350   2.217   0.000   3.567
tot         20.635  12.507 311.757 344.899

  FORCE on cell =-STRESS in cart. coord.  units (eV):
  Direction    XX          YY          ZZ          XY          YZ          ZX
  Alpha Z  1027.08462  1027.08462  1027.08462
  Ewald  118180.73622118180.73664************    -0.00032    -0.00009    -0.00014
  Hartree126813.68419126813.68420************     0.00001    -0.00002    -0.00004
  E(xc)   -1780.44788 -1780.44787 -1788.64562    -0.00001     0.00000     0.00000
  Local  ************************257453.27512     0.00189     0.00003     0.00003
  n-local  -106.36090   -57.52291   -54.82561    24.36724    -1.61704     1.45447
  augment  2375.55864  2375.56010  2390.47514    -0.00127     0.00001     0.00006
  Kinetic  5536.02285  5546.48778  5575.44727     6.16331     0.15260     0.26893
  Fock        0.00000     0.00000     0.00000     0.00000     0.00000     0.00000
  Total     -18.71814   -18.71814     2.31933    -0.00000     0.00000     0.00000
  in kB     -20.08473   -20.08473     2.48866    -0.00000     0.00000     0.00000

 VOLUME and BASIS-vectors are now :
  energy-cutoff  :      500.00
  volume of cell :     1493.16
      direct lattice vectors                 reciprocal lattice vectors
     8.813512802  0.000000000  0.000000000     0.113462137 -0.065507406  0.000000000
     4.406756909  7.632725690  0.000000000     0.000000000  0.131014796  0.000000000
     0.000000000  0.000000000 22.196203232     0.000000000  0.000000000  0.045052750

  length of vectors
     8.813512802  8.813512802 22.196203232     0.131014796  0.131014796  0.045052750

 FORCES acting on ions
    electron-ion (+dipol)            ewald-force                    non-local-force                 convergence-correction
   -.196E-04 -.162E-04 0.248E+04   0.520E-04 0.434E-04 -.248E+04   -.786E-17 -.744E-19 -.582E+00   -.160E-03 -.106E-03 -.186E+00
   0.735E+00 0.307E+00 0.248E+04   -.809E+00 -.342E+00 -.248E+04   -.844E-02 0.329E-01 -.358E+00   0.821E-01 0.369E-02 -.250E+00
   -.735E+00 0.307E+00 0.248E+04   0.809E+00 -.342E+00 -.248E+04   0.844E-02 0.329E-01 -.358E+00   -.818E-01 0.556E-02 -.249E+00
   0.633E+00 0.484E+00 0.248E+04   -.701E+00 -.529E+00 -.248E+04   0.243E-01 -.238E-01 -.358E+00   0.443E-01 0.692E-01 -.250E+00
   0.870E-05 -.232E-04 0.248E+04   0.951E-04 0.175E-05 -.248E+04   0.228E-17 -.319E-17 -.323E+00   0.418E-02 0.255E-02 -.243E+00
   -.633E+00 0.484E+00 0.248E+04   0.701E+00 -.529E+00 -.248E+04   -.243E-01 -.238E-01 -.358E+00   -.457E-01 0.701E-01 -.249E+00
   -.102E+00 -.790E+00 0.248E+04   0.108E+00 0.872E+00 -.248E+04   0.327E-01 -.915E-02 -.358E+00   -.360E-01 -.737E-01 -.249E+00
   0.102E+00 -.790E+00 0.248E+04   -.108E+00 0.872E+00 -.248E+04   -.327E-01 -.915E-02 -.358E+00   0.379E-01 -.747E-01 -.249E+00
   0.196E-04 -.416E-04 0.248E+04   0.166E-03 -.201E-04 -.248E+04   0.796E-18 0.138E-19 -.450E+00   -.457E-02 -.236E-02 -.184E+00
   0.790E+01 0.456E+01 0.824E+03   -.772E+01 -.446E+01 -.824E+03   -.270E+00 -.156E+00 -.439E+00   0.397E-01 0.228E-01 0.131E+00
   0.143E-04 0.453E+01 0.833E+03   0.148E-03 -.466E+01 -.832E+03   0.252E-08 0.378E-01 -.386E+00   0.354E-02 0.200E-01 0.114E+00
   -.790E+01 0.456E+01 0.824E+03   0.772E+01 -.446E+01 -.824E+03   0.270E+00 -.156E+00 -.439E+00   -.405E-01 0.235E-01 0.130E+00
   0.392E+01 -.227E+01 0.833E+03   -.403E+01 0.233E+01 -.832E+03   0.327E-01 -.189E-01 -.386E+00   0.194E-01 -.665E-02 0.114E+00
   -.392E+01 -.227E+01 0.833E+03   0.403E+01 0.233E+01 -.832E+03   -.327E-01 -.189E-01 -.386E+00   -.123E-01 -.727E-02 0.112E+00
   0.310E-04 0.514E+01 0.829E+03   0.236E-03 -.528E+01 -.828E+03   0.119E-08 0.179E-01 -.387E+00   -.170E-02 0.616E-01 0.105E+00
   -.214E-04 -.913E+01 0.824E+03   0.163E-03 0.891E+01 -.824E+03   0.208E-07 0.312E+00 -.439E+00   -.176E-03 -.468E-01 0.130E+00
   0.445E+01 -.257E+01 0.829E+03   -.457E+01 0.264E+01 -.828E+03   0.155E-01 -.895E-02 -.387E+00   0.527E-01 -.318E-01 0.105E+00
   -.445E+01 -.257E+01 0.829E+03   0.457E+01 0.264E+01 -.828E+03   -.155E-01 -.895E-02 -.387E+00   -.525E-01 -.306E-01 0.105E+00
   -.431E-04 0.390E+01 -.859E+03   0.544E-04 -.405E+01 0.859E+03   -.261E-08 -.392E-01 0.643E+00   0.509E-02 0.129E+00 0.283E+00
   0.889E+01 0.513E+01 -.811E+03   -.838E+01 -.484E+01 0.811E+03   -.893E+00 -.515E+00 -.594E+00   0.162E+00 0.933E-01 0.457E+00
   -.889E+01 0.513E+01 -.811E+03   0.838E+01 -.484E+01 0.811E+03   0.893E+00 -.515E+00 -.594E+00   -.169E+00 0.938E-01 0.456E+00
   -.571E+01 0.330E+01 -.838E+03   0.521E+01 -.301E+01 0.837E+03   0.497E+00 -.287E+00 0.759E+00   0.643E-01 -.383E-01 0.301E+00
   -.105E-04 -.103E+02 -.811E+03   0.140E-03 0.968E+01 0.811E+03   0.686E-07 0.103E+01 -.594E+00   -.369E-02 -.194E+00 0.456E+00
   0.571E+01 0.330E+01 -.838E+03   -.521E+01 -.301E+01 0.837E+03   -.497E+00 -.287E+00 0.759E+00   -.632E-01 -.364E-01 0.301E+00
   -.337E+01 -.195E+01 -.859E+03   0.351E+01 0.202E+01 0.859E+03   0.339E-01 0.196E-01 0.643E+00   -.108E+00 -.622E-01 0.282E+00
   0.337E+01 -.195E+01 -.859E+03   -.351E+01 0.202E+01 0.859E+03   -.339E-01 0.196E-01 0.643E+00   0.115E+00 -.602E-01 0.283E+00
   0.111E-04 -.659E+01 -.838E+03   0.198E-03 0.602E+01 0.837E+03   0.382E-07 0.573E+00 0.759E+00   -.154E-02 0.748E-01 0.301E+00
   -.136E-04 -.127E-04 -.244E+04   0.298E-04 0.335E-04 0.244E+04   0.488E-17 0.431E-17 0.534E+00   0.157E-02 0.889E-03 0.354E+00
   0.277E+02 0.470E+02 -.244E+04   -.272E+02 -.467E+02 0.244E+04   -.797E+00 -.105E+01 0.570E+00   0.135E+00 0.191E+00 0.272E+00
   -.277E+02 0.470E+02 -.244E+04   0.272E+02 -.467E+02 0.244E+04   0.797E+00 -.105E+01 0.570E+00   -.142E+00 0.193E+00 0.273E+00
   0.546E+02 0.429E+00 -.244E+04   -.540E+02 -.260E+00 0.244E+04   -.131E+01 -.166E+00 0.570E+00   0.233E+00 0.212E-01 0.272E+00
   -.546E+02 0.429E+00 -.244E+04   0.540E+02 -.260E+00 0.244E+04   0.131E+01 -.166E+00 0.570E+00   -.240E+00 0.224E-01 0.274E+00
   0.269E+02 -.475E+02 -.244E+04   -.268E+02 0.469E+02 0.244E+04   -.510E+00 0.121E+01 0.570E+00   0.961E-01 -.219E+00 0.273E+00
   -.269E+02 -.475E+02 -.244E+04   0.268E+02 0.469E+02 0.244E+04   0.510E+00 0.121E+01 0.570E+00   -.101E+00 -.219E+00 0.274E+00
   0.337E-04 -.293E-04 -.244E+04   0.141E-03 -.492E-04 0.244E+04   -.601E-17 -.389E-17 0.693E+00   -.324E-02 -.157E-02 0.304E+00
   -.288E-05 -.637E-05 -.132E+04   0.737E-04 0.671E-05 0.132E+04   0.343E-17 -.355E-17 0.156E+01   0.143E-02 0.858E-03 0.206E+00
   0.107E-03 -.597E-04 -.135E+04   0.222E-04 0.137E-05 0.138E+04   -.248E-18 0.125E-18 -.234E+02   0.185E-02 0.112E-02 -.287E+00
   -.672E-03 -.830E-03 0.182E+02   -.825E-14 -.255E-12 -.364E-11   -.114E-15 -.732E-17 -.219E+02   -.776E-02 -.386E-02 0.427E+01

 POSITION                                       TOTAL-FORCE (eV/Angst)
      0.00000      0.00000      5.28038        -0.000000     -0.000000     -0.122091
      2.93784      0.00000      5.28038         0.000585      0.002009     -0.052147
      5.87568      0.00000      5.28038        -0.000585      0.002009     -0.052147
      1.46892      2.54424      5.28038         0.002033     -0.000498     -0.052147
      4.40676      2.54424      5.28038        -0.000000     -0.000000     -0.082032
      7.34459      2.54424      5.28038        -0.002033     -0.000498     -0.052147
      2.93784      5.08848      5.28038         0.001447     -0.001511     -0.052147
      5.87568      5.08848      5.28038        -0.001447     -0.001511     -0.052147
      8.81351      5.08848      5.28038        -0.000000     -0.000000     -0.069325
      1.46892      0.84808      7.67911        -0.047548     -0.027452      0.122679
      4.40676      0.84808      7.67911        -0.000000     -0.070965      0.031188
      7.34459      0.84808      7.67911         0.047548     -0.027452      0.122679
      2.93784      3.39232      7.67911        -0.061457      0.035482      0.031188
      5.87568      3.39232      7.67911         0.061457      0.035482      0.031188
      8.81351      3.39232      7.67911        -0.000000     -0.061243      0.127585
      4.40676      5.93656      7.67911         0.000000      0.054903      0.122679
      7.34459      5.93656      7.67911        -0.053038      0.030622      0.127585
     10.28243      5.93656      7.67911         0.053038      0.030622      0.127585
      8.81351      1.70659     10.09931        -0.000000     -0.064539     -0.044156
      2.93410      1.69400     10.03753        -0.214777     -0.124001     -0.239710
      5.87941      1.69400     10.03753         0.214777     -0.124001     -0.239710
     10.26439      4.25082     10.06692         0.063555     -0.036694      0.007037
      4.40676      4.24472     10.03753         0.000000      0.248003     -0.239710
      7.36264      4.25082     10.06692        -0.063555     -0.036694      0.007037
     11.74232      6.77943     10.09931         0.055892      0.032269     -0.044156
      5.88471      6.77943     10.09931        -0.055892      0.032269     -0.044156
      8.81351      6.76381     10.06692         0.000000      0.073387      0.007037
      0.00000      0.00000     12.49835        -0.000000     -0.000000     -0.040003
      2.98825      0.08685     12.53577        -0.234828     -0.459791     -0.270202
      5.82526      0.08685     12.53577         0.234828     -0.459791     -0.270202
      1.56934      2.54447     12.53577        -0.515605      0.026528     -0.270202
      7.24417      2.54447     12.53577         0.515605      0.026528     -0.270202
      2.98785      5.00140     12.53577        -0.280777      0.433263     -0.270202
      5.82567      5.00140     12.53577         0.280777      0.433263     -0.270202
      8.81351      5.08848     12.49628        -0.000000     -0.000000      0.056014
      4.40676      2.54424     12.20474        -0.000000     -0.000000      2.201341
      4.40676      2.54424     13.90995        -0.000000     -0.000000     -0.023677
    total drift:                               -0.008430     -0.004693      0.560434

  FREE ENERGIE OF THE ION-ELECTRON SYSTEM (eV)
  free  energy   TOTEN  =      -124.76387610 eV

  energy  without entropy=     -124.76387610  energy(sigma->0) =     -124.76387610

 stress matrix after NEB project (eV)
    -18.71814     -0.00000      0.00000
     -0.00000    -18.71814      0.00000
      0.00000      0.00000      2.31933
  FORCES: max atom, RMS     0.023677    0.003893
  FORCE total and by dimension    0.023677    0.023677
  Stress total and by dimension   26.572860   18.718142
|           W    W    AA    RRRRR   N    N  II  N    N   GGGG   !!!           |
|           W    W   A  A   R    R  NN   N  II  NN   N  G    G  !!!           |
|           W    W  A    A  R    R  N N  N  II  N N  N  G       !!!           |
|           W WW W  AAAAAA  RRRRR   N  N N  II  N  N N  G  GGG   !            |
|           WW  WW  A    A  R   R   N   NN  II  N   NN  G    G                |
|           W    W  A    A  R    R  N    N  II  N    N   GGGG   !!!           |
|     Tetrahedron method does not include variations of the Fermi             |
|     occupations, so forces and stress will be inaccurate. We suggest        |
|     using a different smearing scheme ISMEAR = 1 or 2 for metals in         |
|     relaxations.                                                            |

 total charge

# of ion       s       p       d       tot
    1        0.548   0.239   8.767   9.554
    2        0.543   0.241   8.765   9.549
    3        0.543   0.241   8.765   9.549
    4        0.543   0.241   8.765   9.549
    5        0.543   0.241   8.764   9.548
    6        0.543   0.241   8.765   9.549
    7        0.543   0.241   8.765   9.549
    8        0.543   0.241   8.765   9.549
    9        0.543   0.241   8.766   9.550
   10        0.520   0.307   8.771   9.598
   11        0.517   0.311   8.776   9.605
   12        0.520   0.307   8.771   9.598
   13        0.517   0.311   8.776   9.605
   14        0.517   0.311   8.776   9.605
   15        0.514   0.309   8.773   9.596
   16        0.520   0.307   8.771   9.598
   17        0.514   0.309   8.773   9.596
   18        0.514   0.309   8.773   9.596
   19        0.517   0.293   8.776   9.587
   20        0.557   0.339   8.746   9.642
   21        0.557   0.339   8.746   9.642
   22        0.509   0.309   8.773   9.591
   23        0.557   0.339   8.746   9.642
   24        0.509   0.309   8.773   9.591
   25        0.517   0.293   8.776   9.587
   26        0.517   0.293   8.776   9.587
   27        0.509   0.309   8.773   9.591
   28        0.545   0.224   8.759   9.528
   29        0.551   0.248   8.758   9.557
   30        0.551   0.248   8.758   9.557
   31        0.551   0.248   8.758   9.557
   32        0.551   0.248   8.758   9.557
   33        0.551   0.248   8.758   9.557
   34        0.551   0.248   8.758   9.557
   35        0.537   0.225   8.763   9.525
   36        0.601   0.580   4.957   6.138
   37        1.350   2.217   0.000   3.567
tot         20.635  12.507 311.757 344.899

 BZINTS: Fermi energy:    0.678041;  397.000000 electrons
         Band energy:-0.123036E+04;  BLOECHL correction:   -0.053345