 vasp.6.2.0 18Jan21 (build Jun 12 2021 23:27:24) complex

 executed on             LinuxIFC date 2022.05.28  02:23:53

 INCAR:
   ISMEAR = -5
   SIGMA = 0.1
   ISPIN = 1
   EDIFF = 1.d-5
   EDIFFG = -0.01
   NSW = 0
   NELM = 150
   ENCUT = 500
   ISIF = 2
   IBRION = 2
   LREAL = Auto
   ALGO = Fast
   ICHARG = 11
   LORBIT = 10
   LCHARG = .F.
   LWAVE = .F.

 POTCAR:    PAW_PBE Cu 22Jun2005
 POTCAR:    PAW_PBE Co 02Aug2007
 POTCAR:    PAW_PBE H 15Jun2001
 POTCAR:    PAW_PBE O 08Apr2002
|           W    W    AA    RRRRR   N    N  II  N    N   GGGG   !!!           |
|           W    W   A  A   R    R  NN   N  II  NN   N  G    G  !!!           |
|           W    W  A    A  R    R  N N  N  II  N N  N  G       !!!           |
|           W WW W  AAAAAA  RRRRR   N  N N  II  N  N N  G  GGG   !            |
|           WW  WW  A    A  R   R   N   NN  II  N   NN  G    G                |
|           W    W  A    A  R    R  N    N  II  N    N   GGGG   !!!           |
|     For optimal performance we recommend to set                             |
|       NCORE = 2 up to number-of-cores-per-socket                            |
|     This setting can greatly improve the performance of VASP for DFT.       |
|     The default, NCORE=1 might be grossly inefficient on modern             |
|     multi-core architectures or massively parallel machines. Do your        |
|     Unfortunately you need to use the default for GW and RPA                |
|     calculations (for HF NCORE is supported but not extensively tested      |
|     yet).                                                                   |

 POTCAR:    PAW_PBE Cu 22Jun2005
   VRHFIN =Cu: d10 p1

   TITEL  = PAW_PBE Cu 22Jun2005
   POMASS =   63.546; ZVAL   =   11.000    mass and valenz
   ENMAX  =  295.446; ENMIN  =  221.585 eV

 POTCAR:    PAW_PBE Co 02Aug2007
   VRHFIN =Co: d8 s1

   TITEL  = PAW_PBE Co 02Aug2007
   POMASS =   58.933; ZVAL   =    9.000    mass and valenz
   ENMAX  =  267.968; ENMIN  =  200.976 eV

 POTCAR:    PAW_PBE H 15Jun2001
   VRHFIN =H: ultrasoft test

   TITEL  = PAW_PBE H 15Jun2001
   POMASS =    1.000; ZVAL   =    1.000    mass and valenz
   ENMAX  =  250.000; ENMIN  =  200.000 eV

 POTCAR:    PAW_PBE O 08Apr2002
   VRHFIN =O: s2p4

   TITEL  = PAW_PBE O 08Apr2002
   POMASS =   16.000; ZVAL   =    6.000    mass and valenz
   ENMAX  =  400.000; ENMIN  =  300.000 eV

 Optimization of the real space projectors (new method)

 maximal supplied QI-value         = 16.25
 optimisation between [QCUT,QGAM] = [ 11.38, 22.75] = [ 36.24,144.96] Ry
 Optimized for a Real-space Cutoff    1.52 Angstroem

   l    n(q)    QCUT    max X(q) W(low)/X(q) W(high)/X(q)  e(spline)
   2      9    11.376     4.610    0.21E-03    0.10E-03    0.26E-06
   2      9    11.376     8.522    0.33E-03    0.16E-03    0.37E-06
   0     10    11.376    51.609    0.62E-04    0.20E-04    0.13E-06
   0     10    11.376    27.747    0.54E-04    0.20E-04    0.13E-06
   1     10    11.376    20.408    0.13E-04    0.99E-04    0.19E-06
   1     10    11.376    13.425    0.12E-04    0.87E-04    0.17E-06
 Optimization of the real space projectors (new method)

[...]

   l    n(q)    QCUT    max X(q) W(low)/X(q) W(high)/X(q)  e(spline)
   0      8    11.287    19.460    0.40E-03    0.73E-03    0.16E-06
   0      8    11.287    12.209    0.38E-03    0.70E-03    0.15E-06
   1      7    11.287     4.655    0.22E-03    0.25E-04    0.22E-06
 Optimization of the real space projectors (new method)

 maximal supplied QI-value         = 24.76
 optimisation between [QCUT,QGAM] = [ 11.39, 22.77] = [ 36.31,145.25] Ry
 Optimized for a Real-space Cutoff    1.00 Angstroem

   l    n(q)    QCUT    max X(q) W(low)/X(q) W(high)/X(q)  e(spline)
   0      7    11.387    20.381    0.39E-03    0.13E-02    0.15E-06
   0      7    11.387    15.268    0.42E-03    0.14E-02    0.17E-06
   1      6    11.387     5.964    0.41E-03    0.11E-02    0.17E-06
   1      6    11.387     5.382    0.39E-03    0.87E-03    0.15E-06
  PAW_PBE Cu 22Jun2005                  :
  PAW_PBE Co 02Aug2007                  :
  PAW_PBE H 15Jun2001                   :
  PAW_PBE O 08Apr2002                   :

 POSCAR: Cu-Co-H2O
  positions in direct lattice
  velocities in cartesian coordinates
 exchange correlation table for  LEXCH =        8
   RHO(1)=    0.500       N(1)  =     2000
   RHO(2)=  100.500       N(2)  =     4000

 VTST: version 3.2, (02/03/18)

 CHAIN: initializing optimizer

 OPT: Using VASP Conjugate-Gradient optimizer
 CHAIN: Read ICHAIN            0

 POSCAR: Cu-Co-H2O
  positions in direct lattice
  velocities in cartesian coordinates

 ion  position               nearest neighbor table
   1  0.000  0.000  0.221-   7 2.57   3 2.57   4 2.57   2 2.57   6 2.57   8 2.57  12 2.57  10 2.57
                            16 2.57
   2  0.333  0.000  0.221-   8 2.57   9 2.57   5 2.57   1 2.57   3 2.57  11 2.57   4 2.57  10 2.57
                            17 2.57
   3  0.667  0.000  0.221-   1 2.57   7 2.57   6 2.57   9 2.57   2 2.57  12 2.57   5 2.57  18 2.57
                            11 2.57
   4  0.000  0.333  0.221-   5 2.57   6 2.57   1 2.57   7 2.57   2 2.57  13 2.57   9 2.57  10 2.57
                            15 2.57
   5  0.333  0.333  0.221-   4 2.57   2 2.57   7 2.57  13 2.57   8 2.57   6 2.57   3 2.57  11 2.57
                            14 2.57
   6  0.667  0.333  0.221-   4 2.57   9 2.57  15 2.57   3 2.57   1 2.57   8 2.57  14 2.57   5 2.57
                            12 2.57
   7  0.000  0.667  0.221-   1 2.57   3 2.57  16 2.57  18 2.57   4 2.57   5 2.57   8 2.57   9 2.57
                            13 2.57
   8  0.333  0.667  0.221-   9 2.57   2 2.57  17 2.57   6 2.57   1 2.57   7 2.57   5 2.57  14 2.57
                            16 2.57
   9  0.667  0.667  0.221-   8 2.57   6 2.57   2 2.57  17 2.57   3 2.57   7 2.57   4 2.57  15 2.57
                            18 2.57
  10  0.111  0.111  0.308-  20 2.55  26 2.56  19 2.56  11 2.57  12 2.57  13 2.57   1 2.57   2 2.57
                             4 2.57  15 2.57  16 2.57  17 2.57
  11  0.444  0.111  0.308-  20 2.55  21 2.55  27 2.56  10 2.57  13 2.57   2 2.57  17 2.57  14 2.57
                            12 2.57   5 2.57   3 2.57  18 2.57
  12  0.778  0.111  0.308-  21 2.55  19 2.56  25 2.56  15 2.57  10 2.57  14 2.57  18 2.57   3 2.57
                             1 2.57  16 2.57  11 2.57   6 2.57
  13  0.111  0.444  0.308-  23 2.55  20 2.55  22 2.56  16 2.57  18 2.57  10 2.57  11 2.57  14 2.57
                             5 2.57   4 2.57   7 2.57  15 2.57
  14  0.444  0.444  0.308-  21 2.55  23 2.55  24 2.56  15 2.57  17 2.57  12 2.57  16 2.57  13 2.57
                            11 2.57   6 2.57   8 2.57   5 2.57
  15  0.778  0.444  0.308-  24 2.56  22 2.56  19 2.56  14 2.57  17 2.57  12 2.57   6 2.57  18 2.57
                            10 2.57   9 2.57  13 2.57   4 2.57
  16  0.111  0.778  0.308-  23 2.55  25 2.56  26 2.56  18 2.57  13 2.57   7 2.57  14 2.57  17 2.57
                            12 2.57  10 2.57   8 2.57   1 2.57
  17  0.444  0.778  0.308-  27 2.56  24 2.56  26 2.56  14 2.57  15 2.57   8 2.57   9 2.57  11 2.57
                            16 2.57  18 2.57  10 2.57   2 2.57
  18  0.778  0.778  0.308-  22 2.56  27 2.56  25 2.56  16 2.57  13 2.57   7 2.57  15 2.57  12 2.57
                            17 2.57   9 2.57   3 2.57  11 2.57
  19  0.889  0.223  0.394-  28 2.54  32 2.56  31 2.56  15 2.56  12 2.56  10 2.56  22 2.56  24 2.56
                            21 2.57  20 2.57  25 2.57  26 2.57
  20  0.222  0.222  0.393-  36 2.46  29 2.55  31 2.55  11 2.55  13 2.55  10 2.55  23 2.56  21 2.56
                            26 2.57  19 2.57  27 2.57  22 2.57
  21  0.555  0.222  0.393-  36 2.46  32 2.55  30 2.55  14 2.55  11 2.55  12 2.55  20 2.56  23 2.56
                            19 2.57  25 2.57  24 2.57  27 2.57
  22  0.889  0.556  0.394-  35 2.54  31 2.55  33 2.55  18 2.56  15 2.56  13 2.56  24 2.56  27 2.56
                            19 2.56  25 2.56  23 2.57  20 2.57
  23  0.222  0.555  0.393-  36 2.46  33 2.55  34 2.55  13 2.55  14 2.55  16 2.55  20 2.56  21 2.56
                            25 2.57  26 2.57  22 2.57  24 2.57
  24  0.556  0.556  0.394-  35 2.54  32 2.55  34 2.55  15 2.56  17 2.56  14 2.56  22 2.56  27 2.56
                            19 2.56  26 2.56  21 2.57  23 2.57
  25  0.889  0.889  0.394-  28 2.54  33 2.56  30 2.56  18 2.56  16 2.56  12 2.56  22 2.56  27 2.56
                            21 2.57  23 2.57  19 2.57  26 2.57
  26  0.223  0.889  0.394-  28 2.54  29 2.56  34 2.56  17 2.56  10 2.56  16 2.56  27 2.56  24 2.56
                            20 2.57  23 2.57  25 2.57  19 2.57
  27  0.556  0.889  0.394-  35 2.54  29 2.55  30 2.55  17 2.56  18 2.56  11 2.56  24 2.56  22 2.56
                            26 2.56  25 2.56  20 2.57  21 2.57
  28  0.000  0.000  0.479-  25 2.54  19 2.54  26 2.54  33 2.58  30 2.58  31 2.58  29 2.58  32 2.58
                            34 2.58
  29  0.333  0.003  0.479-  31 2.54  36 2.54  30 2.55  20 2.55  27 2.55  26 2.56  28 2.58  35 2.58
                            34 2.61
  30  0.664  0.003  0.479-  32 2.54  36 2.54  29 2.55  21 2.55  27 2.55  25 2.56  28 2.58  35 2.58
                            33 2.61
  31  0.003  0.333  0.479-  29 2.54  36 2.54  33 2.55  20 2.55  22 2.55  19 2.56  28 2.58  35 2.58
                            32 2.61
  32  0.664  0.333  0.479-  30 2.54  36 2.54  34 2.55  21 2.55  24 2.55  19 2.56  28 2.58  35 2.58
                            31 2.61
  33  0.003  0.664  0.479-  34 2.54  36 2.54  31 2.55  23 2.55  22 2.55  25 2.56  28 2.58  35 2.58
                            30 2.61
  34  0.333  0.664  0.479-  33 2.54  36 2.54  32 2.55  23 2.55  24 2.55  26 2.56  28 2.58  35 2.58
                            29 2.61
  35  0.667  0.667  0.479-  24 2.54  27 2.54  22 2.54  34 2.58  32 2.58  29 2.58  30 2.58  33 2.58
                            31 2.58
  36  0.333  0.333  0.474-  39 2.20  23 2.46  20 2.46  21 2.46  31 2.54  29 2.54  33 2.54  34 2.54
                            32 2.54  30 2.54
  37  0.271  0.255  0.573-  39 0.98
  38  0.474  0.254  0.573-  39 0.98
  39  0.331  0.339  0.565-  37 0.98  38 0.98  36 2.20

  LATTYP: Found a hexagonal cell.
 ALAT       =     7.6967864036
 C/A-ratio  =     3.1535378041

  Lattice vectors:

 A1 = (  -3.8483927580,  -6.6656128093,   0.0000000000)
 A2 = (   7.6967864037,   0.0000000000,   0.0000000000)
 A3 = (   0.0000000000,   0.0000000000,  24.2721068937)

Analysis of symmetry for initial positions (statically):
 Subroutine PRICEL returns:
 Original cell was already a primitive cell.

 Routine SETGRP: Setting up the symmetry group for a
 hexagonal supercell.

 Subroutine GETGRP returns: Found  1 space group operations
 (whereof  1 operations were pure point group operations)
 out of a pool of 24 trial point group operations.

The static configuration has the point symmetry C_1 .

Analysis of symmetry for dynamics (positions and initial velocities):
 Subroutine PRICEL returns:
 Original cell was already a primitive cell.

[...]

The dynamic configuration has the point symmetry C_1 .

Analysis of constrained symmetry for selective dynamics:
 Subroutine PRICEL returns:
[...]
     41      -3.9646      2.00000
     42      -3.9580      2.00000
     43      -3.8790      2.00000
     44      -3.8744      2.00000
     45      -3.8579      2.00000
     46      -3.8355      2.00000
     47      -3.8306      2.00000
     48      -3.8106      2.00000
     49      -3.7953      2.00000
     50      -3.6295      2.00000
     51      -3.6115      2.00000
     52      -3.6061      2.00000
     53      -3.6012      2.00000
     54      -3.5480      2.00000
     55      -3.5428      2.00000
     56      -3.5313      2.00000
     57      -3.5052      2.00000
     58      -3.5003      2.00000
     59      -3.4711      2.00000
     60      -3.4674      2.00000
[...]
    238       5.6086      0.00000
    239       5.7579      0.00000
    240       5.7810      0.00000
    241       5.8761      0.00000
    242       5.9666      0.00000
    243       6.0227      0.00000
    244       6.1006      0.00000
    245       6.1136      0.00000
    246       6.3730      0.00000
    247       6.5831      0.00000
    248       6.7481      0.00000
    249       6.9859      0.00000
    250       7.0602      0.00000
    251       7.2231      0.00000
    252       7.4082      0.00000

 soft charge-density along one line, spin component           1
         0         1         2         3         4         5         6         7         8         9
 total charge-density along one line

------------------------ aborting loop because EDIFF is reached ----------------------------------------

 total charge

# of ion       s       p       d       tot
    1        0.447   0.286   9.187   9.920
    2        0.450   0.285   9.187   9.921
    3        0.450   0.285   9.187   9.921
    4        0.449   0.285   9.187   9.922
    5        0.445   0.288   9.183   9.916
    6        0.449   0.285   9.187   9.922
    7        0.449   0.285   9.187   9.921
    8        0.449   0.285   9.187   9.921
    9        0.447   0.284   9.189   9.920
   10        0.441   0.372   9.176   9.989
   11        0.444   0.367   9.184   9.995
   12        0.441   0.372   9.176   9.989
   13        0.444   0.368   9.184   9.995
   14        0.444   0.368   9.184   9.995
   15        0.439   0.371   9.180   9.989
   16        0.441   0.373   9.176   9.989
   17        0.439   0.371   9.180   9.989
   18        0.439   0.371   9.180   9.989
   19        0.443   0.370   9.181   9.995
   20        0.452   0.390   9.168  10.010
   21        0.452   0.390   9.168  10.010
   22        0.437   0.377   9.181   9.995
   23        0.451   0.391   9.168  10.011
   24        0.437   0.377   9.181   9.995
   25        0.443   0.371   9.181   9.995
   26        0.443   0.371   9.181   9.995
   27        0.438   0.376   9.181   9.995
   28        0.446   0.287   9.190   9.923
   29        0.456   0.298   9.183   9.937
   30        0.456   0.298   9.183   9.937
   31        0.456   0.297   9.183   9.936
   32        0.456   0.297   9.183   9.936
   33        0.452   0.291   9.186   9.930
   34        0.452   0.291   9.186   9.930
   35        0.442   0.290   9.190   9.922
   36        0.405   0.356   7.305   8.067
   37        0.607   0.118   0.000   0.725
   38        0.607   0.118   0.000   0.725
   39        1.571   3.590   0.000   5.161
tot         18.805  15.850 328.678 363.333

  FORCE on cell =-STRESS in cart. coord.  units (eV):
  Direction    XX          YY          ZZ          XY          YZ          ZX
  Alpha Z   775.44465   775.44465   775.44465
  Ewald  234989.97667234928.31078************    -0.35001   -16.13235     0.11634
  Hartree247946.09652247934.45828************    -0.07378    -0.29414     0.04614
  E(xc)   -2328.56068 -2328.81015 -2333.00278    -0.00150    -0.05217     0.00085
  Local  ************************496089.18812     0.35381    10.23611    -0.14153
  n-local  -793.84315  -794.80035  -808.78402    -0.01169    -0.02351    -0.00137
  augment  3470.31321  3471.61551  3486.06424    -0.01300     0.36294    -0.00287
  Kinetic  3341.27256  3358.58081  3389.50216     0.09943     5.89277    -0.02099
  Fock        0.00000     0.00000     0.00000     0.00000     0.00000     0.00000
  Total      -7.55220    -7.84822     0.90748     0.00325    -0.01036    -0.00343
  in kB      -9.71688   -10.09775     1.16759     0.00418    -0.01333    -0.00442

 VOLUME and BASIS-vectors are now :
  energy-cutoff  :      500.00
  volume of cell :     1245.25
      direct lattice vectors                 reciprocal lattice vectors
     7.696786404  0.000000000  0.000000000     0.129924354 -0.075011849  0.000000000
     3.848392758  6.665612809  0.000000000     0.000000000  0.150023716  0.000000000
     0.000000000  0.000000000 24.272106894     0.000000000  0.000000000  0.041199555

  length of vectors
     7.696786404  7.696786404 24.272106894     0.150023716  0.150023716  0.041199555

 FORCES acting on ions
    electron-ion (+dipol)            ewald-force                    non-local-force                 convergence-correction
   0.219E-02 0.382E-01 0.380E+04   0.243E-04 -.824E-02 -.379E+04   -.152E-04 0.657E-02 -.285E+01   -.217E-02 -.319E-01 -.602E+00
   0.259E+00 0.373E+00 0.380E+04   -.249E+00 -.299E+00 -.379E+04   0.234E-01 -.324E-01 -.184E+01   -.266E-01 -.237E-01 -.508E+00
   -.262E+00 0.362E+00 0.380E+04   0.249E+00 -.299E+00 -.379E+04   -.238E-01 -.337E-01 -.184E+01   0.293E-01 -.112E-01 -.505E+00
   0.428E+00 0.367E-01 0.380E+04   -.376E+00 -.585E-01 -.379E+04   -.253E-01 0.293E-01 -.184E+01   -.106E-01 -.125E-01 -.505E+00
   -.155E-01 -.247E-01 0.380E+04   0.225E-03 0.123E-01 -.380E+04   -.884E-02 -.132E-01 -.192E+01   0.245E-01 0.223E-01 -.423E+00
   -.417E+00 0.316E-01 0.380E+04   0.376E+00 -.586E-01 -.379E+04   0.259E-01 0.288E-01 -.184E+01   -.179E-03 -.687E-02 -.500E+00
   0.143E+00 -.416E+00 0.380E+04   -.127E+00 0.357E+00 -.379E+04   -.349E-01 0.781E-02 -.192E+01   0.281E-01 0.386E-01 -.534E+00
   -.154E+00 -.408E+00 0.380E+04   0.127E+00 0.357E+00 -.379E+04   0.329E-01 0.823E-02 -.193E+01   -.157E-01 0.304E-01 -.533E+00
   0.149E-01 -.109E-01 0.380E+04   0.190E-03 -.396E-02 -.379E+04   0.965E-02 0.711E-02 -.241E+01   -.251E-01 0.745E-02 -.597E+00
   0.325E+01 0.187E+01 0.131E+04   -.289E+01 -.167E+01 -.131E+04   -.359E+00 -.206E+00 -.939E+00   0.196E-01 0.209E-01 -.298E-01
   -.119E-01 0.284E+01 0.132E+04   0.677E-03 -.308E+01 -.132E+04   -.823E-02 0.104E+00 -.501E+00   0.200E-01 0.105E+00 0.982E-01
   -.324E+01 0.186E+01 0.131E+04   0.288E+01 -.167E+01 -.131E+04   0.359E+00 -.207E+00 -.939E+00   -.265E-01 0.269E-01 -.355E-01
   0.246E+01 -.149E+01 0.132E+04   -.267E+01 0.162E+01 -.132E+04   0.105E+00 -.737E-01 -.566E+00   0.764E-01 -.380E-01 0.682E-01
   -.248E+01 -.149E+01 0.132E+04   0.267E+01 0.162E+01 -.132E+04   -.123E+00 -.729E-01 -.566E+00   -.385E-01 -.416E-01 0.583E-01
   0.103E-01 0.201E+00 0.131E+04   -.488E-03 -.307E+00 -.131E+04   0.205E-02 0.132E+00 -.752E+00   -.119E-01 -.412E-01 -.171E+00
   -.123E-02 -.366E+01 0.131E+04   0.482E-03 0.325E+01 -.131E+04   0.586E-03 0.400E+00 -.101E+01   0.182E-03 -.287E-01 -.782E-01
   0.254E+00 -.588E-01 0.131E+04   -.333E+00 0.116E+00 -.131E+04   0.100E+00 -.517E-01 -.782E+00   -.398E-01 0.367E-02 -.198E+00
   -.252E+00 -.686E-01 0.131E+04   0.333E+00 0.117E+00 -.131E+04   -.101E+00 -.528E-01 -.782E+00   0.393E-01 0.139E-01 -.194E+00
   -.144E-02 0.173E+01 -.120E+04   -.469E-02 -.168E+01 0.120E+04   -.946E-02 0.558E-02 0.634E+00   0.159E-01 -.660E-01 0.560E+00
   0.617E+01 0.316E+01 -.118E+04   -.577E+01 -.293E+01 0.117E+04   -.987E+00 -.562E+00 -.995E+00   0.603E+00 0.341E+00 0.139E+01
   -.617E+01 0.316E+01 -.118E+04   0.577E+01 -.292E+01 0.118E+04   0.987E+00 -.561E+00 -.994E+00   -.606E+00 0.341E+00 0.139E+01
   0.143E+01 -.105E+01 -.119E+04   -.230E+01 0.156E+01 0.119E+04   0.453E+00 -.235E+00 0.648E+00   0.430E+00 -.286E+00 0.593E+00
   -.348E-02 -.730E+01 -.118E+04   0.520E-02 0.687E+01 0.118E+04   0.131E-02 0.117E+01 -.963E+00   -.307E-02 -.752E+00 0.138E+01
   -.144E+01 -.105E+01 -.119E+04   0.230E+01 0.156E+01 0.119E+04   -.469E+00 -.235E+00 0.649E+00   -.402E+00 -.283E+00 0.593E+00
   -.186E+01 -.442E+00 -.120E+04   0.179E+01 0.417E+00 0.120E+04   0.142E-01 -.720E-01 0.723E+00   0.713E-01 0.936E-01 0.547E+00
   0.185E+01 -.438E+00 -.120E+04   -.179E+01 0.412E+00 0.120E+04   -.306E-01 -.732E-01 0.723E+00   -.423E-01 0.960E-01 0.550E+00
   -.259E-02 0.223E+01 -.119E+04   -.104E-03 -.330E+01 0.119E+04   -.752E-02 0.530E+00 0.596E+00   0.107E-01 0.550E+00 0.594E+00
   0.471E-02 0.198E+01 -.369E+04   -.614E-02 -.206E+01 0.369E+04   -.152E-04 0.393E-01 0.208E+01   0.139E-02 0.475E-01 0.832E+00
   0.191E+02 0.354E+02 -.367E+04   -.192E+02 -.359E+02 0.366E+04   -.370E+00 -.469E+00 0.171E+01   0.371E+00 0.912E+00 0.730E+00
   -.191E+02 0.353E+02 -.367E+04   0.192E+02 -.359E+02 0.366E+04   0.371E+00 -.470E+00 0.171E+01   -.372E+00 0.919E+00 0.731E+00
   0.379E+02 -.334E+01 -.367E+04   -.384E+02 0.360E+01 0.366E+04   -.675E+00 -.110E+00 0.180E+01   0.946E+00 -.147E+00 0.746E+00
   -.379E+02 -.335E+01 -.367E+04   0.383E+02 0.360E+01 0.366E+04   0.672E+00 -.110E+00 0.181E+01   -.949E+00 -.141E+00 0.750E+00
   0.172E+02 -.304E+02 -.367E+04   -.178E+02 0.308E+02 0.367E+04   -.801E-01 0.478E+00 0.242E+01   0.563E+00 -.772E+00 0.761E+00
   -.172E+02 -.304E+02 -.367E+04   0.178E+02 0.308E+02 0.367E+04   0.769E-01 0.474E+00 0.243E+01   -.554E+00 -.774E+00 0.764E+00
   0.290E-01 0.902E+00 -.369E+04   -.170E-01 -.886E+00 0.369E+04   0.100E-01 0.105E-01 0.235E+01   -.222E-01 -.228E-01 0.924E+00
   -.483E-01 -.437E+01 -.281E+04   0.435E-01 0.442E+01 0.280E+04   -.214E-02 -.596E-02 0.260E+01   0.833E-02 -.310E-01 0.360E+00
   0.688E+02 0.453E+02 -.398E+03   -.756E+02 -.498E+02 0.399E+03   0.673E+01 0.448E+01 -.150E+01   0.465E-01 0.312E-01 -.536E-01
   -.682E+02 0.462E+02 -.398E+03   0.749E+02 -.508E+02 0.399E+03   -.666E+01 0.457E+01 -.153E+01   -.458E-01 0.319E-01 -.536E-01
   -.418E+00 -.579E+02 -.232E+04   0.715E+00 0.102E+03 0.232E+04   -.300E+00 -.442E+02 0.742E+01   0.982E-03 -.433E-01 -.624E+00
   0.193E+00 0.353E+02 -.729E+01   -.111E-15 -.114E-12 0.182E-11   -.308E+00 -.354E+02 -.923E+00   0.112E+00 0.799E-01 0.828E+01

 POSITION                                       TOTAL-FORCE (eV/Angst)
      0.00000      0.00000      5.37156         0.000110      0.005059      0.051701
      2.56560      0.00000      5.37156         0.006726      0.018911      0.076571
      5.13119      0.00000      5.37156        -0.006570      0.018786      0.076508
      1.28280      2.22187      5.37156         0.015449     -0.004636      0.078742
      3.84839      2.22187      5.37156         0.000395     -0.002863      0.055465
      6.41399      2.22187      5.37156        -0.015148     -0.004752      0.078764
      2.56560      4.44374      5.37156         0.009694     -0.012344      0.076884
      5.13119      4.44374      5.37156        -0.009644     -0.012224      0.076915
      7.69679      4.44374      5.37156        -0.000259      0.000092      0.041876
      1.28280      0.74062      7.46636         0.026607      0.012711     -0.061342
      3.84839      0.74062      7.46636         0.000557     -0.031259     -0.107939
      6.41399      0.74062      7.46636        -0.026407      0.012712     -0.061390
      2.56560      2.96249      7.46636        -0.023774      0.017381     -0.111591
      5.13119      2.96249      7.46636         0.025034      0.017445     -0.111562
      7.69679      2.96249      7.46636         0.000115     -0.014546     -0.027589
      3.84839      5.18437      7.46636         0.000098     -0.032865     -0.069636
      6.41399      5.18437      7.46636        -0.018199      0.009811     -0.026379
      8.97958      5.18437      7.46636         0.018440      0.009762     -0.026350
      7.69679      1.48420      9.55496         0.000404     -0.005573     -0.029179
      2.56664      1.48185      9.54157         0.020636      0.015649     -0.089152
      5.13014      1.48185      9.54157        -0.020269      0.015632     -0.089246
      8.97778      3.70416      9.55304         0.009549     -0.002753     -0.005132
      3.84839      3.70191      9.54157         0.000048     -0.018582     -0.071065
      6.41579      3.70416      9.55304        -0.008371     -0.002852     -0.004796
     10.25982      5.92351      9.55496         0.010144     -0.002820     -0.011808
      5.13375      5.92351      9.55496        -0.008977     -0.002921     -0.011709
      7.69679      5.92291      9.55304         0.000560      0.008650     -0.018347
      0.00000      0.00000     11.62172         0.000026      0.011857      0.037095
      2.57582      0.02145     11.62841        -0.076117     -0.136895     -0.086634
      5.12097      0.02145     11.62841         0.076450     -0.137620     -0.087202
      1.30649      2.22000     11.62841        -0.165073     -0.002541     -0.098696
      6.39030      2.22000     11.62841         0.165225     -0.002660     -0.098719
      2.57906      4.42416     11.62841        -0.098925      0.125349     -0.076092
      5.11773      4.42416     11.62841         0.098676      0.125273     -0.076218
      7.69679      4.44374     11.62071        -0.000120      0.004803      0.029524
      3.84839      2.22187     11.51210         0.001465      0.013698      0.878078
      3.06564      1.70030     13.89932        -0.025474     -0.019187      0.002469
      4.62415      1.69057     13.90231         0.019728     -0.015427     -0.000967
      3.84869      2.25797     13.71276        -0.002808      0.021742     -0.101853
    total drift:                               -0.003174     -0.014588      0.063920

  FREE ENERGIE OF THE ION-ELECTRON SYSTEM (eV)
  free  energy   TOTEN  =      -142.74424656 eV

  energy  without entropy=     -142.74424656  energy(sigma->0) =     -142.74424656

 stress matrix after NEB project (eV)
     -7.55220      0.00325     -0.00343
      0.00325     -7.84822     -0.01036
     -0.00343     -0.01036      0.90748
  FORCES: max atom, RMS     0.104185    0.017907
  FORCE total and by dimension    0.111830    0.101853
  Stress total and by dimension   10.929500    7.848219
|           W    W    AA    RRRRR   N    N  II  N    N   GGGG   !!!           |
|           W    W   A  A   R    R  NN   N  II  NN   N  G    G  !!!           |
|           W    W  A    A  R    R  N N  N  II  N N  N  G       !!!           |
|           W WW W  AAAAAA  RRRRR   N  N N  II  N  N N  G  GGG   !            |
|           WW  WW  A    A  R   R   N   NN  II  N   NN  G    G                |
|           W    W  A    A  R    R  N    N  II  N    N   GGGG   !!!           |
|     Tetrahedron method does not include variations of the Fermi             |
|     occupations, so forces and stress will be inaccurate. We suggest        |
|     using a different smearing scheme ISMEAR = 1 or 2 for metals in         |
|     relaxations.                                                            |

 total charge

# of ion       s       p       d       tot
    1        0.447   0.286   9.187   9.920
    2        0.450   0.285   9.187   9.921
    3        0.450   0.285   9.187   9.921
    4        0.449   0.285   9.187   9.922
    5        0.445   0.288   9.183   9.916
    6        0.449   0.285   9.187   9.922
    7        0.449   0.285   9.187   9.921
    8        0.449   0.285   9.187   9.921
    9        0.447   0.284   9.189   9.920
   10        0.441   0.372   9.176   9.989
   11        0.444   0.367   9.184   9.995
   12        0.441   0.372   9.176   9.989
   13        0.444   0.368   9.184   9.995
   14        0.444   0.368   9.184   9.995
   15        0.439   0.371   9.180   9.989
   16        0.441   0.373   9.176   9.989
   17        0.439   0.371   9.180   9.989
   18        0.439   0.371   9.180   9.989
   19        0.443   0.370   9.181   9.995
   20        0.452   0.390   9.168  10.010
   21        0.452   0.390   9.168  10.010
   22        0.437   0.377   9.181   9.995
   23        0.451   0.391   9.168  10.011
   24        0.437   0.377   9.181   9.995
   25        0.443   0.371   9.181   9.995
   26        0.443   0.371   9.181   9.995
   27        0.438   0.376   9.181   9.995
   28        0.446   0.287   9.190   9.923
   29        0.456   0.298   9.183   9.937
   30        0.456   0.298   9.183   9.937
   31        0.456   0.297   9.183   9.936
   32        0.456   0.297   9.183   9.936
   33        0.452   0.291   9.186   9.930
   34        0.452   0.291   9.186   9.930
   35        0.442   0.290   9.190   9.922
   36        0.405   0.356   7.305   8.067
   37        0.607   0.118   0.000   0.725
   38        0.607   0.118   0.000   0.725
   39        1.571   3.590   0.000   5.161
tot         18.805  15.850 328.678 363.333

 BZINTS: Fermi energy:   -0.198292;  402.000000 electrons
         Band energy:-0.125278E+04;  BLOECHL correction:   -0.050962