 vasp.6.2.0 18Jan21 (build Jun 12 2021 23:27:24) complex

 executed on             LinuxIFC date 2022.05.26  20:16:12

 INCAR:
   ISMEAR = -5
   SIGMA = 0.1
   ISPIN = 1
   EDIFF = 1.d-5
   EDIFFG = -0.01
   NSW = 0
   NELM = 150
   ENCUT = 500
   ISIF = 2
   IBRION = 2
   LREAL = Auto
   ALGO = Fast
   ICHARG = 11
   LORBIT = 10
   LCHARG = .F.
   LWAVE = .F.

 POTCAR:    PAW_PBE Au 04Oct2007
 POTCAR:    PAW_PBE Re 17Jan2003
|           W    W    AA    RRRRR   N    N  II  N    N   GGGG   !!!           |
|           W    W   A  A   R    R  NN   N  II  NN   N  G    G  !!!           |
|           W    W  A    A  R    R  N N  N  II  N N  N  G       !!!           |
|           W WW W  AAAAAA  RRRRR   N  N N  II  N  N N  G  GGG   !            |
|           WW  WW  A    A  R   R   N   NN  II  N   NN  G    G                |
|           W    W  A    A  R    R  N    N  II  N    N   GGGG   !!!           |
|     For optimal performance we recommend to set                             |
|       NCORE = 2 up to number-of-cores-per-socket                            |
|     This setting can greatly improve the performance of VASP for DFT.       |
|     The default, NCORE=1 might be grossly inefficient on modern             |
|     multi-core architectures or massively parallel machines. Do your        |
|     Unfortunately you need to use the default for GW and RPA                |
|     calculations (for HF NCORE is supported but not extensively tested      |
|     yet).                                                                   |

 POTCAR:    PAW_PBE Au 04Oct2007
   VRHFIN =Au: s1d10

   TITEL  = PAW_PBE Au 04Oct2007
   POMASS =  196.966; ZVAL   =   11.000    mass and valenz
   ENMAX  =  229.943; ENMIN  =  172.457 eV

 POTCAR:    PAW_PBE Re 17Jan2003
   VRHFIN =Re: 5p6s5d

   TITEL  = PAW_PBE Re 17Jan2003
   POMASS =  186.207; ZVAL   =    7.000    mass and valenz
   ENMAX  =  226.216; ENMIN  =  169.662 eV

 Optimization of the real space projectors (new method)

 maximal supplied QI-value         = 15.12
 optimisation between [QCUT,QGAM] = [ 11.34, 22.83] = [ 36.00,145.93] Ry
 Optimized for a Real-space Cutoff    1.39 Angstroem

   l    n(q)    QCUT    max X(q) W(low)/X(q) W(high)/X(q)  e(spline)
   2      9    11.338    60.898    0.39E-03    0.42E-03    0.21E-06
   2      9    11.338    58.894    0.40E-03    0.42E-03    0.22E-06
   0      9    11.338   109.617    0.13E-03    0.20E-04    0.13E-06
   0      9    11.338    75.026    0.13E-03    0.20E-04    0.13E-06
   1      9    11.338    16.344    0.33E-04    0.24E-03    0.18E-06
   1      9    11.338    10.160    0.26E-04    0.19E-03    0.15E-06
 Optimization of the real space projectors (new method)

 maximal supplied QI-value         = 13.98
 optimisation between [QCUT,QGAM] = [ 11.33, 22.79] = [ 35.93,145.49] Ry
 Optimized for a Real-space Cutoff    1.56 Angstroem

   l    n(q)    QCUT    max X(q) W(low)/X(q) W(high)/X(q)  e(spline)
   2     10    11.327   884.633    0.22E-03    0.51E-03    0.88E-06
   2     10    11.327   796.723    0.22E-03    0.51E-03    0.88E-06
   0     11    11.327    65.348    0.44E-04    0.11E-03    0.75E-06
   0     11    11.327    39.642    0.40E-04    0.10E-03    0.69E-06
   1     10    11.327    13.988    0.15E-03    0.10E-03    0.19E-06
   1     10    11.327     8.682    0.11E-03    0.76E-04    0.14E-06
  PAW_PBE Au 04Oct2007                  :
  PAW_PBE Re 17Jan2003                  :

 POSCAR: Au-Re
  positions in direct lattice
  velocities in cartesian coordinates
 exchange correlation table for  LEXCH =        8
   RHO(1)=    0.500       N(1)  =     2000
   RHO(2)=  100.500       N(2)  =     4000

 VTST: version 3.2, (02/03/18)

 CHAIN: initializing optimizer

 OPT: Using VASP Conjugate-Gradient optimizer
 CHAIN: Read ICHAIN            0

 POSCAR: Au-Re
  positions in direct lattice
  velocities in cartesian coordinates

 ion  position               nearest neighbor table
   1  0.000  0.000  0.238-  16 2.94  12 2.94   6 2.94   8 2.94   7 2.94   3 2.94  10 2.94   4 2.94
                             2 2.94
   2  0.333  0.000  0.238-   9 2.94  11 2.94  17 2.94  10 2.94   8 2.94   4 2.94   5 2.94   1 2.94
                             3 2.94
   3  0.667  0.000  0.238-   7 2.94  18 2.94  12 2.94   1 2.94  11 2.94   5 2.94   6 2.94   9 2.94
                             2 2.94
   4  0.000  0.333  0.238-  10 2.94   6 2.94   5 2.94  13 2.94   2 2.94  15 2.94   9 2.94   1 2.94
                             7 2.94
   5  0.333  0.333  0.238-  13 2.94   7 2.94  11 2.94   4 2.94   2 2.94  14 2.94   3 2.94   8 2.94
                             6 2.94
   6  0.667  0.333  0.238-  15 2.94  14 2.94   1 2.94  12 2.94   4 2.94   9 2.94   8 2.94   3 2.94
                             5 2.94
   7  0.000  0.667  0.238-  18 2.94   3 2.94  16 2.94   5 2.94   1 2.94  13 2.94   8 2.94   4 2.94
                             9 2.94
   8  0.333  0.667  0.238-   9 2.94  17 2.94   1 2.94   2 2.94  14 2.94  16 2.94   6 2.94   7 2.94
                             5 2.94
   9  0.667  0.667  0.238-   2 2.94   8 2.94  17 2.94   6 2.94  15 2.94   4 2.94   3 2.94  18 2.94
                             7 2.94
  10  0.111  0.111  0.346-  20 2.90  11 2.94  17 2.94   2 2.94   4 2.94   1 2.94  12 2.94  16 2.94
                            13 2.94  15 2.94  26 2.96  19 2.96
  11  0.444  0.111  0.346-  20 2.91  21 2.91  13 2.94   2 2.94  10 2.94  17 2.94   5 2.94   3 2.94
                            18 2.94  14 2.94  12 2.94  27 2.94
  12  0.778  0.111  0.346-  21 2.90  16 2.94  18 2.94   1 2.94  14 2.94  15 2.94   3 2.94   6 2.94
                            10 2.94  11 2.94  25 2.96  19 2.96
  13  0.111  0.444  0.346-  23 2.91  20 2.91   5 2.94  18 2.94  11 2.94   7 2.94   4 2.94  16 2.94
                            10 2.94  14 2.94  15 2.94  22 2.94
  14  0.444  0.444  0.346-  21 2.91  23 2.91  15 2.94   6 2.94  12 2.94   8 2.94  17 2.94   5 2.94
                            16 2.94  13 2.94  11 2.94  24 2.94
  15  0.778  0.444  0.346-  24 2.92  22 2.92  14 2.94   6 2.94  17 2.94  12 2.94   9 2.94   4 2.94
                            10 2.94  13 2.94  18 2.94  19 2.95
  16  0.111  0.778  0.346-  23 2.90  18 2.94  12 2.94   7 2.94   1 2.94   8 2.94  13 2.94  10 2.94
                            14 2.94  17 2.94  25 2.96  26 2.96
  17  0.444  0.778  0.346-  27 2.92  24 2.92   9 2.94  15 2.94   2 2.94  10 2.94  11 2.94   8 2.94
                            14 2.94  16 2.94  18 2.94  26 2.95
  18  0.778  0.778  0.346-  22 2.92  27 2.92  16 2.94   7 2.94  13 2.94  12 2.94   3 2.94  11 2.94
                             9 2.94  15 2.94  17 2.94  25 2.95
  19  0.888  0.224  0.455-  24 2.93  22 2.93  21 2.93  20 2.93  28 2.94  15 2.95  26 2.96  25 2.96
                            10 2.96  12 2.96  32 3.02  31 3.02
  20  0.222  0.222  0.452-  36 2.75  10 2.90  11 2.91  13 2.91  26 2.93  19 2.93  23 2.95  21 2.95
                            27 2.96  22 2.96  29 2.97  31 2.97
  21  0.556  0.222  0.452-  36 2.75  12 2.90  14 2.91  11 2.91  25 2.93  19 2.93  20 2.95  23 2.95
                            27 2.96  24 2.96  30 2.97  32 2.97
  22  0.886  0.557  0.454-  24 2.90  27 2.90  18 2.92  15 2.92  25 2.93  19 2.93  13 2.94  35 2.95
                            23 2.96  20 2.96  33 3.00  31 3.00
  23  0.222  0.556  0.452-  36 2.75  16 2.90  13 2.91  14 2.91  25 2.93  26 2.93  20 2.95  21 2.95
                            22 2.96  24 2.96  33 2.97  34 2.97
  24  0.557  0.557  0.454-  27 2.90  22 2.90  15 2.92  17 2.92  26 2.93  19 2.93  14 2.94  35 2.95
                            21 2.96  23 2.96  32 3.00  34 3.00
  25  0.888  0.888  0.455-  22 2.93  27 2.93  23 2.93  21 2.93  28 2.94  18 2.95  19 2.96  26 2.96
                            16 2.96  12 2.96  33 3.02  30 3.02
  26  0.224  0.888  0.455-  27 2.93  24 2.93  20 2.93  23 2.93  28 2.94  17 2.95  19 2.96  25 2.96
                            10 2.96  16 2.96  29 3.02  34 3.02
  27  0.557  0.886  0.454-  24 2.90  22 2.90  17 2.92  18 2.92  26 2.93  25 2.93  11 2.94  35 2.95
                            20 2.96  21 2.96  29 3.00  30 3.00
  28  0.000  0.000  0.563-  25 2.94  19 2.94  26 2.94  34 2.99  32 2.99  33 2.99  30 2.99  31 2.99
                            29 2.99
  29  0.333  0.011  0.565-  30 2.84  31 2.84  36 2.86  20 2.97  35 2.99  28 2.99  27 3.00  26 3.02
                            34 3.14
  30  0.655  0.011  0.565-  29 2.84  32 2.84  36 2.86  21 2.97  35 2.99  28 2.99  27 3.00  25 3.02
                            33 3.14
  31  0.011  0.333  0.565-  33 2.84  29 2.84  36 2.86  20 2.97  35 2.99  28 2.99  22 3.00  19 3.02
                            32 3.14
  32  0.655  0.333  0.565-  34 2.84  30 2.84  36 2.86  21 2.97  35 2.99  28 2.99  24 3.00  19 3.02
                            31 3.14
  33  0.011  0.655  0.565-  31 2.84  34 2.84  36 2.86  23 2.97  35 2.99  28 2.99  22 3.00  25 3.02
                            30 3.14
  34  0.333  0.655  0.565-  32 2.84  33 2.84  36 2.86  23 2.97  35 2.99  28 2.99  24 3.00  26 3.02
                            29 3.14
  35  0.667  0.667  0.563-  24 2.95  27 2.95  22 2.95  29 2.99  34 2.99  32 2.99  31 2.99  30 2.99
                            33 2.99
  36  0.333  0.333  0.550-  20 2.75  23 2.75  21 2.75  33 2.86  31 2.86  29 2.86  30 2.86  34 2.86
                            32 2.86

  LATTYP: Found a hexagonal cell.
 ALAT       =     8.8135128021
 C/A-ratio  =     2.5184286595

  Lattice vectors:

 A1 = (  -4.4067569092,  -7.6327256898,   0.0000000000)
 A2 = (   8.8135128021,   0.0000000000,   0.0000000000)
 A3 = (   0.0000000000,   0.0000000000,  22.1962032318)

Analysis of symmetry for initial positions (statically):
 Subroutine PRICEL returns:
 Original cell was already a primitive cell.

 Routine SETGRP: Setting up the symmetry group for a
 hexagonal supercell.

 Subroutine GETGRP returns: Found  6 space group operations
 (whereof  6 operations were pure point group operations)
 out of a pool of 24 trial point group operations.

The static configuration has the point symmetry C_3v.

Analysis of symmetry for dynamics (positions and initial velocities):
 Subroutine PRICEL returns:
 Original cell was already a primitive cell.

[...]

The dynamic configuration has the point symmetry C_3v.

Analysis of constrained symmetry for selective dynamics:
 Subroutine PRICEL returns:
 Original cell was already a primitive cell.

 Routine SETGRP: Setting up the symmetry group for a
 hexagonal supercell.

 Subroutine GETGRP returns: Found  6 space group operations
 (whereof  6 operations were pure point group operations)
 out of a pool of 24 trial point group operations.

The constrained configuration has the point symmetry C_3v.

 Subroutine INISYM returns: Found  6 space group operations
 (whereof  6 operations are pure point group operations),
 and found     1 'primitive' translations

                                     Primitive cell

  volume of cell :    1493.1636

  direct lattice vectors                    reciprocal lattice vectors
     8.813512802  0.000000000  0.000000000     0.113462137 -0.065507406  0.000000000
     4.406756909  7.632725690  0.000000000     0.000000000  0.131014796  0.000000000
[...]
     15      -5.2530      2.00000
     16      -5.2282      2.00000
     17      -5.2238      2.00000
     18      -5.2128      2.00000
     19      -5.1893      2.00000
     20      -5.1531      2.00000
     21      -5.1393      2.00000
     22      -5.1263      2.00000
     23      -5.0671      2.00000
     24      -5.0340      2.00000
     25      -5.0303      2.00000
     26      -4.9875      2.00000
     27      -4.9354      2.00000
     28      -4.9058      2.00000
     29      -4.8602      2.00000
     30      -4.8047      2.00000
     31      -4.7961      2.00000
     32      -4.7375      2.00000
     33      -4.7370      2.00000
     34      -4.7168      2.00000
     35      -4.6751      2.00000
     36      -4.6617      2.00000
     37      -4.5467      2.00000
     38      -4.5103      2.00000
     39      -4.4624      2.00000
     40      -4.3995      2.00000
     41      -4.3763      2.00000
     42      -4.3420      2.00000
     43      -4.3236      2.00000
     44      -4.2939      2.00000
     45      -4.2790      2.00000
     46      -4.1847      2.00000
     47      -4.1648      2.00000
     48      -4.1337      2.00000
     49      -4.1151      2.00000
     50      -4.1041      2.00000
     51      -4.0984      2.00000
     52      -4.0835      2.00000
     53      -4.0558      2.00000
     54      -4.0097      2.00000
     55      -3.9855      2.00000
     56      -3.9791      2.00000
     57      -3.9560      2.00000
     58      -3.9471      2.00000
     59      -3.9438      2.00000
     60      -3.9198      2.00000
[...]
    238       6.7519      0.00000
    239       6.7956      0.00000
    240       6.8322      0.00000
    241       6.8730      0.00000
    242       7.0348      0.00000
    243       7.1589      0.00000
    244       7.2192      0.00000
    245       7.2965      0.00000
    246       7.6317      0.00000
    247       7.6669      0.00000
    248       7.7771      0.00000
    249       7.7917      0.00000
    250       7.9511      0.00000
    251       8.0233      0.00000
    252       8.0846      0.00000

 soft charge-density along one line, spin component           1
         0         1         2         3         4         5         6         7         8         9
 total charge-density along one line

------------------------ aborting loop because EDIFF is reached ----------------------------------------

 total charge

# of ion       s       p       d       tot
    1        0.547   0.238   8.764   9.549
    2        0.544   0.241   8.765   9.550
    3        0.544   0.241   8.765   9.550
    4        0.544   0.241   8.765   9.550
    5        0.542   0.241   8.762   9.545
    6        0.544   0.241   8.765   9.550
    7        0.544   0.241   8.765   9.550
    8        0.544   0.241   8.765   9.550
    9        0.543   0.239   8.769   9.550
   10        0.527   0.307   8.764   9.598
   11        0.522   0.307   8.782   9.610
   12        0.527   0.307   8.764   9.598
   13        0.522   0.307   8.782   9.610
   14        0.522   0.307   8.782   9.610
   15        0.516   0.307   8.776   9.599
   16        0.527   0.307   8.764   9.598
   17        0.516   0.307   8.776   9.599
   18        0.516   0.307   8.776   9.599
   19        0.514   0.296   8.774   9.583
   20        0.558   0.344   8.732   9.635
   21        0.558   0.344   8.732   9.635
   22        0.506   0.304   8.780   9.591
   23        0.558   0.344   8.732   9.635
   24        0.506   0.304   8.780   9.591
   25        0.514   0.296   8.774   9.583
   26        0.514   0.296   8.774   9.583
   27        0.506   0.304   8.780   9.591
   28        0.537   0.227   8.757   9.521
   29        0.571   0.254   8.729   9.553
   30        0.571   0.254   8.729   9.553
   31        0.571   0.254   8.729   9.553
   32        0.571   0.254   8.729   9.553
   33        0.571   0.254   8.729   9.553
   34        0.571   0.254   8.729   9.553
   35        0.532   0.227   8.759   9.518
   36        0.492   0.317   4.603   5.412
tot         19.312  10.047 311.200 340.559

  FORCE on cell =-STRESS in cart. coord.  units (eV):
  Direction    XX          YY          ZZ          XY          YZ          ZX
  Alpha Z  1008.49174  1008.49174  1008.49174
  Ewald  117880.51831117880.51871************    -0.00033    -0.00009    -0.00017
  Hartree126393.77959126393.77959************     0.00000    -0.00002    -0.00005
  E(xc)   -1758.19594 -1758.19592 -1766.29127    -0.00001     0.00000     0.00000
  Local  ************************256735.75084     0.00170     0.00005     0.00011
  n-local   -99.11189   -47.18890   -46.11972    24.24683    -1.13631     1.07791
  augment  2372.01040  2372.01184  2393.30850    -0.00125     0.00005     0.00006
  Kinetic  5425.16185  5442.31509  5504.15768     9.39374    -0.35118     1.39599
  Fock        0.00000     0.00000     0.00000     0.00000     0.00000     0.00000
  Total     -24.94895   -24.94895     2.52982    -0.00000     0.00000     0.00000
  in kB     -26.77044   -26.77044     2.71452    -0.00000     0.00000     0.00000

 VOLUME and BASIS-vectors are now :
  energy-cutoff  :      500.00
  volume of cell :     1493.16
      direct lattice vectors                 reciprocal lattice vectors
     8.813512802  0.000000000  0.000000000     0.113462137 -0.065507406  0.000000000
     4.406756909  7.632725690  0.000000000     0.000000000  0.131014796  0.000000000
     0.000000000  0.000000000 22.196203232     0.000000000  0.000000000  0.045052750

  length of vectors
     8.813512802  8.813512802 22.196203232     0.131014796  0.131014796  0.045052750

 FORCES acting on ions
    electron-ion (+dipol)            ewald-force                    non-local-force                 convergence-correction
   -.198E-04 -.163E-04 0.246E+04   0.520E-04 0.433E-04 -.246E+04   0.608E-17 -.361E-18 -.940E+00   -.160E-03 -.106E-03 -.118E+00
   0.633E+00 0.413E-01 0.246E+04   -.716E+00 -.182E+00 -.246E+04   0.583E-01 0.766E-01 -.229E+00   0.168E-01 0.658E-01 -.192E+00
   -.633E+00 0.413E-01 0.246E+04   0.716E+00 -.182E+00 -.246E+04   -.583E-01 0.766E-01 -.229E+00   -.166E-01 0.677E-01 -.191E+00
   0.352E+00 0.527E+00 0.246E+04   -.515E+00 -.529E+00 -.246E+04   0.955E-01 0.122E-01 -.229E+00   0.655E-01 -.184E-01 -.192E+00
   0.726E-05 -.241E-04 0.246E+04   0.951E-04 0.175E-05 -.246E+04   -.954E-18 -.862E-18 -.134E+00   0.418E-02 0.255E-02 -.244E+00
   -.352E+00 0.527E+00 0.246E+04   0.515E+00 -.529E+00 -.246E+04   -.955E-01 0.122E-01 -.229E+00   -.669E-01 -.175E-01 -.191E+00
   -.281E+00 -.569E+00 0.246E+04   0.201E+00 0.711E+00 -.246E+04   0.372E-01 -.888E-01 -.229E+00   0.504E-01 -.482E-01 -.191E+00
   0.281E+00 -.569E+00 0.246E+04   -.201E+00 0.711E+00 -.246E+04   -.372E-01 -.888E-01 -.229E+00   -.486E-01 -.492E-01 -.191E+00
   0.199E-04 -.415E-04 0.246E+04   0.166E-03 -.200E-04 -.246E+04   0.298E-18 -.157E-17 -.498E+00   -.457E-02 -.236E-02 -.176E+00
   0.730E+01 0.422E+01 0.793E+03   -.674E+01 -.389E+01 -.792E+03   -.427E+00 -.247E+00 -.804E+00   -.950E-01 -.550E-01 0.123E+00
   0.144E-04 0.311E+01 0.798E+03   0.148E-03 -.319E+01 -.798E+03   0.228E-08 0.342E-01 -.187E+00   0.354E-02 -.263E-01 0.137E+00
   -.730E+01 0.422E+01 0.793E+03   0.674E+01 -.389E+01 -.792E+03   0.427E+00 -.247E+00 -.804E+00   0.942E-01 -.543E-01 0.121E+00
   0.270E+01 -.156E+01 0.798E+03   -.277E+01 0.160E+01 -.798E+03   0.296E-01 -.171E-01 -.187E+00   -.207E-01 0.165E-01 0.137E+00
   -.270E+01 -.156E+01 0.798E+03   0.277E+01 0.160E+01 -.798E+03   -.296E-01 -.171E-01 -.187E+00   0.277E-01 0.159E-01 0.135E+00
   0.316E-04 0.543E+01 0.797E+03   0.236E-03 -.552E+01 -.797E+03   0.166E-08 0.249E-01 -.482E+00   -.170E-02 0.444E-02 0.197E+00
   -.213E-04 -.843E+01 0.793E+03   0.163E-03 0.778E+01 -.792E+03   0.329E-07 0.493E+00 -.804E+00   -.177E-03 0.109E+00 0.121E+00
   0.470E+01 -.271E+01 0.797E+03   -.478E+01 0.276E+01 -.797E+03   0.215E-01 -.124E-01 -.482E+00   0.324E-02 -.326E-02 0.197E+00
   -.470E+01 -.271E+01 0.797E+03   0.478E+01 0.276E+01 -.797E+03   -.215E-01 -.124E-01 -.482E+00   -.304E-02 -.201E-02 0.197E+00
   -.428E-04 0.258E+01 -.901E+03   0.552E-04 -.266E+01 0.900E+03   -.184E-08 -.276E-01 0.388E+00   0.512E-02 0.105E+00 0.549E+00
   -.565E+00 -.326E+00 -.869E+03   0.129E+01 0.743E+00 0.869E+03   -.829E+00 -.479E+00 -.104E+01   0.932E-01 0.537E-01 0.860E+00
   0.565E+00 -.326E+00 -.869E+03   -.129E+01 0.743E+00 0.869E+03   0.829E+00 -.479E+00 -.104E+01   -.101E+00 0.542E-01 0.860E+00
   -.119E+02 0.689E+01 -.883E+03   0.115E+02 -.662E+01 0.882E+03   0.494E+00 -.285E+00 0.594E+00   -.126E-02 -.426E-03 0.641E+00
   -.101E-04 0.653E+00 -.869E+03   0.139E-03 -.149E+01 0.869E+03   0.638E-07 0.958E+00 -.104E+01   -.372E-02 -.114E+00 0.860E+00
   0.119E+02 0.689E+01 -.883E+03   -.115E+02 -.662E+01 0.882E+03   -.494E+00 -.285E+00 0.594E+00   0.239E-02 0.143E-02 0.641E+00
   -.223E+01 -.129E+01 -.901E+03   0.231E+01 0.133E+01 0.900E+03   0.239E-01 0.138E-01 0.388E+00   -.863E-01 -.499E-01 0.549E+00
   0.223E+01 -.129E+01 -.901E+03   -.231E+01 0.133E+01 0.900E+03   -.239E-01 0.138E-01 0.388E+00   0.936E-01 -.479E-01 0.549E+00
   0.959E-05 -.138E+02 -.883E+03   0.199E-03 0.132E+02 0.882E+03   0.380E-07 0.570E+00 0.594E+00   -.155E-02 -.912E-03 0.641E+00
   -.108E-04 -.110E-04 -.247E+04   0.280E-04 0.308E-04 0.247E+04   0.742E-17 0.338E-17 0.529E+00   0.162E-02 0.917E-03 0.379E+00
   0.148E+01 0.186E+01 -.249E+04   -.626E+00 -.556E+00 0.249E+04   -.107E+01 -.159E+01 -.171E+00   0.210E+00 0.291E+00 0.296E+00
   -.148E+01 0.186E+01 -.249E+04   0.626E+00 -.556E+00 0.249E+04   0.107E+01 -.159E+01 -.171E+00   -.217E+00 0.292E+00 0.297E+00
   0.235E+01 0.350E+00 -.249E+04   -.794E+00 -.264E+00 0.249E+04   -.191E+01 -.129E+00 -.171E+00   0.357E+00 0.364E-01 0.297E+00
   -.235E+01 0.350E+00 -.249E+04   0.794E+00 -.264E+00 0.249E+04   0.191E+01 -.129E+00 -.171E+00   -.364E+00 0.376E-01 0.298E+00
   0.870E+00 -.221E+01 -.249E+04   -.168E+00 0.820E+00 0.249E+04   -.845E+00 0.172E+01 -.171E+00   0.145E+00 -.334E+00 0.297E+00
   -.870E+00 -.221E+01 -.249E+04   0.168E+00 0.820E+00 0.249E+04   0.845E+00 0.172E+01 -.171E+00   -.149E+00 -.334E+00 0.298E+00
   0.335E-04 -.326E-04 -.247E+04   0.143E-03 -.465E-04 0.247E+04   -.413E-17 -.465E-17 0.673E+00   -.319E-02 -.154E-02 0.247E+00
   -.226E-04 -.339E-05 -.150E+04   0.737E-04 0.671E-05 0.150E+04   0.162E-17 -.116E-17 0.228E+01   0.114E-02 0.682E-03 0.383E+00
   -.808E-03 -.775E-03 -.299E+01   -.113E-13 -.242E-12 0.182E-11   -.251E-17 -.228E-15 -.509E+01   -.951E-02 -.493E-02 0.862E+01

 POSITION                                       TOTAL-FORCE (eV/Angst)
      0.00000      0.00000      5.28038        -0.000000      0.000000     -0.136944
      2.93784      0.00000      5.28038        -0.007680      0.003043     -0.090550
      5.87568      0.00000      5.28038         0.007680      0.003043     -0.090550
      1.46892      2.54424      5.28038        -0.001205     -0.008172     -0.090550
      4.40676      2.54424      5.28038        -0.000000      0.000000     -0.120926
      7.34459      2.54424      5.28038         0.001205     -0.008172     -0.090550
      2.93784      5.08848      5.28038         0.006475      0.005130     -0.090550
      5.87568      5.08848      5.28038        -0.006475      0.005130     -0.090550
      8.81351      5.08848      5.28038        -0.000000      0.000000     -0.103121
      1.46892      0.84808      7.67911         0.037973      0.021924      0.181438
      4.40676      0.84808      7.67911        -0.000000     -0.075026     -0.004113
      7.34459      0.84808      7.67911        -0.037973      0.021924      0.181438
      2.93784      3.39232      7.67911        -0.064974      0.037513     -0.004113
      5.87568      3.39232      7.67911         0.064974      0.037513     -0.004113
      8.81351      3.39232      7.67911        -0.000000     -0.062322      0.114012
      4.40676      5.93656      7.67911        -0.000000     -0.043848      0.181438
      7.34459      5.93656      7.67911        -0.053973      0.031161      0.114012
     10.28243      5.93656      7.67911         0.053973      0.031161      0.114012
      8.81351      1.70659     10.09931        -0.000000     -0.006607     -0.008736
      2.93410      1.69400     10.03753        -0.011121     -0.006421     -0.006602
      5.87941      1.69400     10.03753         0.011121     -0.006421     -0.006602
     10.26439      4.25082     10.06692         0.014700     -0.008487     -0.018035
      4.40676      4.24472     10.03753         0.000000      0.012842     -0.006602
      7.36264      4.25082     10.06692        -0.014700     -0.008487     -0.018035
     11.74232      6.77943     10.09931         0.005722      0.003304     -0.008736
      5.88471      6.77943     10.09931        -0.005722      0.003304     -0.008736
      8.81351      6.76381     10.06692         0.000000      0.016974     -0.018035
      0.00000      0.00000     12.49835        -0.000000      0.000000     -0.000801
      2.98825      0.08685     12.53577        -0.004582      0.001655      0.016299
      5.82526      0.08685     12.53577         0.004582      0.001655      0.016299
      1.56934      2.54447     12.53577        -0.000858     -0.004795      0.016299
      7.24417      2.54447     12.53577         0.000858     -0.004795      0.016299
      2.98785      5.00140     12.53577         0.003724      0.003140      0.016299
      5.82567      5.00140     12.53577        -0.003724      0.003140      0.016299
      8.81351      5.08848     12.49628        -0.000000      0.000000      0.020877
      4.40676      2.54424     12.20474        -0.000000      0.000000      0.012533
    total drift:                               -0.010316     -0.005700      0.544417

  FREE ENERGIE OF THE ION-ELECTRON SYSTEM (eV)
  free  energy   TOTEN  =      -115.86558424 eV

  energy  without entropy=     -115.86558424  energy(sigma->0) =     -115.86558424

 stress matrix after NEB project (eV)
    -24.94895     -0.00000      0.00000
     -0.00000    -24.94895      0.00000
     -0.00000      0.00000      2.52982
  FORCES: max atom, RMS     0.024767    0.011967
  FORCE total and by dimension    0.071801    0.020877
  Stress total and by dimension   35.373726   24.948954
|           W    W    AA    RRRRR   N    N  II  N    N   GGGG   !!!           |
|           W    W   A  A   R    R  NN   N  II  NN   N  G    G  !!!           |
|           W    W  A    A  R    R  N N  N  II  N N  N  G       !!!           |
|           W WW W  AAAAAA  RRRRR   N  N N  II  N  N N  G  GGG   !            |
|           WW  WW  A    A  R   R   N   NN  II  N   NN  G    G                |
|           W    W  A    A  R    R  N    N  II  N    N   GGGG   !!!           |
|     Tetrahedron method does not include variations of the Fermi             |
|     occupations, so forces and stress will be inaccurate. We suggest        |
|     using a different smearing scheme ISMEAR = 1 or 2 for metals in         |
|     relaxations.                                                            |

 total charge

# of ion       s       p       d       tot
    1        0.547   0.238   8.764   9.549
    2        0.544   0.241   8.765   9.550
    3        0.544   0.241   8.765   9.550
    4        0.544   0.241   8.765   9.550
    5        0.542   0.241   8.762   9.545
    6        0.544   0.241   8.765   9.550
    7        0.544   0.241   8.765   9.550
    8        0.544   0.241   8.765   9.550
    9        0.543   0.239   8.769   9.550
   10        0.527   0.307   8.764   9.598
   11        0.522   0.307   8.782   9.610
   12        0.527   0.307   8.764   9.598
   13        0.522   0.307   8.782   9.610
   14        0.522   0.307   8.782   9.610
   15        0.516   0.307   8.776   9.599
   16        0.527   0.307   8.764   9.598
   17        0.516   0.307   8.776   9.599
   18        0.516   0.307   8.776   9.599
   19        0.514   0.296   8.774   9.583
   20        0.558   0.344   8.732   9.635
   21        0.558   0.344   8.732   9.635
   22        0.506   0.304   8.780   9.591
   23        0.558   0.344   8.732   9.635
   24        0.506   0.304   8.780   9.591
   25        0.514   0.296   8.774   9.583
   26        0.514   0.296   8.774   9.583
   27        0.506   0.304   8.780   9.591
   28        0.537   0.227   8.757   9.521
   29        0.571   0.254   8.729   9.553
   30        0.571   0.254   8.729   9.553
   31        0.571   0.254   8.729   9.553
   32        0.571   0.254   8.729   9.553
   33        0.571   0.254   8.729   9.553
   34        0.571   0.254   8.729   9.553
   35        0.532   0.227   8.759   9.518
   36        0.492   0.317   4.603   5.412
tot         19.312  10.047 311.200 340.559

 BZINTS: Fermi energy:    0.679328;  392.000000 electrons
         Band energy:-0.118424E+04;  BLOECHL correction:   -0.046547