 vasp.6.2.0 18Jan21 (build Jun 12 2021 23:27:24) complex

 executed on             LinuxIFC date 2022.05.27  05:02:07

 INCAR:
   ISMEAR = -5
   SIGMA = 0.1
   ISPIN = 1
   EDIFF = 1.d-5
   EDIFFG = -0.01
   NSW = 0
   NELM = 150
   ENCUT = 500
   ISIF = 2
   IBRION = 2
   LREAL = Auto
   ALGO = Fast
   ICHARG = 11
   LORBIT = 10
   LCHARG = .F.
   LWAVE = .F.

 POTCAR:    PAW_PBE Au 04Oct2007
 POTCAR:    PAW_PBE Mn 06Sep2000
 POTCAR:    PAW_PBE N 08Apr2002
|           W    W    AA    RRRRR   N    N  II  N    N   GGGG   !!!           |
|           W    W   A  A   R    R  NN   N  II  NN   N  G    G  !!!           |
|           W    W  A    A  R    R  N N  N  II  N N  N  G       !!!           |
|           W WW W  AAAAAA  RRRRR   N  N N  II  N  N N  G  GGG   !            |
|           WW  WW  A    A  R   R   N   NN  II  N   NN  G    G                |
|           W    W  A    A  R    R  N    N  II  N    N   GGGG   !!!           |
|     For optimal performance we recommend to set                             |
|       NCORE = 2 up to number-of-cores-per-socket                            |
|     This setting can greatly improve the performance of VASP for DFT.       |
|     The default, NCORE=1 might be grossly inefficient on modern             |
|     multi-core architectures or massively parallel machines. Do your        |
|     Unfortunately you need to use the default for GW and RPA                |
|     calculations (for HF NCORE is supported but not extensively tested      |
|     yet).                                                                   |

 POTCAR:    PAW_PBE Au 04Oct2007
   VRHFIN =Au: s1d10

   TITEL  = PAW_PBE Au 04Oct2007
   POMASS =  196.966; ZVAL   =   11.000    mass and valenz
   ENMAX  =  229.943; ENMIN  =  172.457 eV

 POTCAR:    PAW_PBE Mn 06Sep2000
   VRHFIN =Mn: d6 s1

   TITEL  = PAW_PBE Mn 06Sep2000
   POMASS =   54.938; ZVAL   =    7.000    mass and valenz
   ENMAX  =  269.864; ENMIN  =  202.398 eV

 POTCAR:    PAW_PBE N 08Apr2002
   VRHFIN =N: s2p3

   TITEL  = PAW_PBE N 08Apr2002
   POMASS =   14.001; ZVAL   =    5.000    mass and valenz
   ENMAX  =  400.000; ENMIN  =  300.000 eV

 Optimization of the real space projectors (new method)

 maximal supplied QI-value         = 15.12
 optimisation between [QCUT,QGAM] = [ 11.34, 22.83] = [ 36.00,145.93] Ry
 Optimized for a Real-space Cutoff    1.39 Angstroem

   l    n(q)    QCUT    max X(q) W(low)/X(q) W(high)/X(q)  e(spline)
   2      9    11.338    60.898    0.39E-03    0.42E-03    0.21E-06
   2      9    11.338    58.894    0.40E-03    0.42E-03    0.22E-06
   0      9    11.338   109.617    0.13E-03    0.20E-04    0.13E-06
   0      9    11.338    75.026    0.13E-03    0.20E-04    0.13E-06
   1      9    11.338    16.344    0.33E-04    0.24E-03    0.18E-06
   1      9    11.338    10.160    0.26E-04    0.19E-03    0.15E-06
 Optimization of the real space projectors (new method)

[...]

   l    n(q)    QCUT    max X(q) W(low)/X(q) W(high)/X(q)  e(spline)
   2      8    11.376   110.144    0.49E-03    0.27E-04    0.26E-06
   2      8    11.376   103.200    0.49E-03    0.28E-04    0.27E-06
   0      9    11.376    68.437    0.57E-04    0.92E-04    0.15E-06
   0      9    11.376    33.971    0.51E-04    0.83E-04    0.14E-06
   1      9    11.376    17.065    0.34E-03    0.68E-04    0.14E-06
   1      9    11.376    12.540    0.27E-03    0.59E-04    0.11E-06
 Optimization of the real space projectors (new method)

 maximal supplied QI-value         = 25.13
 optimisation between [QCUT,QGAM] = [ 11.31, 22.87] = [ 35.82,146.48] Ry
 Optimized for a Real-space Cutoff    1.27 Angstroem

   l    n(q)    QCUT    max X(q) W(low)/X(q) W(high)/X(q)  e(spline)
   0      9    11.310    79.467    0.75E-04    0.16E-03    0.36E-06
   0      9    11.310    66.151    0.74E-04    0.16E-03    0.36E-06
   1      8    11.310    17.416    0.35E-03    0.12E-03    0.95E-06
   1      8    11.310    12.382    0.37E-03    0.13E-03    0.98E-06
  PAW_PBE Au 04Oct2007                  :
  PAW_PBE Mn 06Sep2000                  :
  PAW_PBE N 08Apr2002                   :

 POSCAR: Au-Mn-N2
  positions in direct lattice
  velocities in cartesian coordinates
 exchange correlation table for  LEXCH =        8
   RHO(1)=    0.500       N(1)  =     2000
   RHO(2)=  100.500       N(2)  =     4000

 VTST: version 3.2, (02/03/18)

 CHAIN: initializing optimizer

 OPT: Using VASP Conjugate-Gradient optimizer
 CHAIN: Read ICHAIN            0

 POSCAR: Au-Mn-N2
  positions in direct lattice
  velocities in cartesian coordinates

 ion  position               nearest neighbor table
   1  0.000  0.000  0.203-  16 2.94  12 2.94   6 2.94   8 2.94   7 2.94   3 2.94  10 2.94   4 2.94
                             2 2.94
   2  0.333  0.000  0.203-   9 2.94  11 2.94  17 2.94  10 2.94   8 2.94   4 2.94   5 2.94   1 2.94
                             3 2.94
   3  0.667  0.000  0.203-   7 2.94  18 2.94  12 2.94   1 2.94  11 2.94   5 2.94   6 2.94   9 2.94
                             2 2.94
   4  0.000  0.333  0.203-  10 2.94   6 2.94   5 2.94  13 2.94   2 2.94  15 2.94   9 2.94   1 2.94
                             7 2.94
   5  0.333  0.333  0.203-  13 2.94   7 2.94  11 2.94   4 2.94   2 2.94  14 2.94   3 2.94   8 2.94
                             6 2.94
   6  0.667  0.333  0.203-  15 2.94  14 2.94   1 2.94  12 2.94   4 2.94   9 2.94   8 2.94   3 2.94
                             5 2.94
   7  0.000  0.667  0.203-  18 2.94   3 2.94  16 2.94   5 2.94   1 2.94  13 2.94   8 2.94   4 2.94
                             9 2.94
   8  0.333  0.667  0.203-   9 2.94  17 2.94   1 2.94   2 2.94  14 2.94  16 2.94   6 2.94   7 2.94
                             5 2.94
   9  0.667  0.667  0.203-   2 2.94   8 2.94  17 2.94   6 2.94  15 2.94   4 2.94   3 2.94  18 2.94
                             7 2.94
  10  0.111  0.111  0.295-  20 2.93  26 2.94  19 2.94  11 2.94  17 2.94   2 2.94   4 2.94   1 2.94
                            12 2.94  16 2.94  13 2.94  15 2.94
  11  0.444  0.111  0.295-  20 2.91  21 2.91  27 2.93  13 2.94   2 2.94  10 2.94  17 2.94   5 2.94
                             3 2.94  18 2.94  14 2.94  12 2.94
  12  0.778  0.111  0.295-  21 2.93  25 2.94  19 2.94  16 2.94  18 2.94   1 2.94  14 2.94  15 2.94
                             3 2.94   6 2.94  10 2.94  11 2.94
  13  0.111  0.444  0.295-  23 2.91  20 2.91  22 2.93   5 2.94  18 2.94  11 2.94   7 2.94   4 2.94
                            16 2.94  10 2.94  14 2.94  15 2.94
  14  0.444  0.444  0.295-  21 2.91  23 2.91  24 2.93  15 2.94   6 2.94  12 2.94   8 2.94  17 2.94
                             5 2.94  16 2.94  13 2.94  11 2.94
  15  0.778  0.444  0.295-  24 2.92  22 2.92  19 2.94  14 2.94   6 2.94  17 2.94  12 2.94   9 2.94
                             4 2.94  10 2.94  13 2.94  18 2.94
  16  0.111  0.778  0.295-  23 2.93  25 2.94  26 2.94  18 2.94  12 2.94   7 2.94   1 2.94   8 2.94
                            13 2.94  10 2.94  14 2.94  17 2.94
  17  0.444  0.778  0.295-  27 2.92  24 2.92  26 2.94   9 2.94  15 2.94   2 2.94  10 2.94  11 2.94
                             8 2.94  14 2.94  16 2.94  18 2.94
  18  0.778  0.778  0.295-  22 2.92  27 2.92  25 2.94  16 2.94   7 2.94  13 2.94  12 2.94   3 2.94
                            11 2.94   9 2.94  15 2.94  17 2.94
  19  0.889  0.222  0.387-  10 2.94  12 2.94  15 2.94  26 2.94  25 2.94  24 2.94  22 2.94  28 2.95
                            21 2.95  20 2.95  32 2.99  31 2.99
  20  0.223  0.223  0.386-  36 2.70  23 2.91  21 2.91  11 2.91  13 2.91  29 2.92  31 2.92  10 2.93
                            26 2.95  19 2.95  27 2.95  22 2.95
  21  0.553  0.223  0.386-  36 2.70  20 2.91  23 2.91  14 2.91  11 2.91  30 2.92  32 2.92  12 2.93
                            25 2.95  19 2.95  27 2.95  24 2.95
  22  0.886  0.557  0.387-  24 2.91  27 2.91  18 2.92  15 2.92  13 2.93  25 2.94  19 2.94  23 2.95
                            20 2.95  33 2.96  31 2.96  35 2.96
  23  0.223  0.553  0.386-  36 2.70  20 2.91  21 2.91  13 2.91  14 2.91  33 2.92  34 2.92  16 2.93
                            25 2.95  26 2.95  22 2.95  24 2.95
  24  0.557  0.557  0.387-  27 2.91  22 2.91  15 2.92  17 2.92  14 2.93  26 2.94  19 2.94  21 2.95
                            23 2.95  32 2.96  34 2.96  35 2.96
  25  0.889  0.889  0.387-  16 2.94  12 2.94  18 2.94  19 2.94  26 2.94  22 2.94  27 2.94  28 2.95
                            23 2.95  21 2.95  33 2.99  30 2.99
  26  0.222  0.889  0.387-  10 2.94  16 2.94  17 2.94  19 2.94  25 2.94  27 2.94  24 2.94  28 2.95
                            20 2.95  23 2.95  29 2.99  34 2.99
  27  0.557  0.886  0.387-  24 2.91  22 2.91  17 2.92  18 2.92  11 2.93  26 2.94  25 2.94  20 2.95
                            21 2.95  29 2.96  30 2.96  35 2.96
  28  0.000  0.000  0.480-  25 2.95  19 2.95  26 2.95  34 2.99  32 2.99  33 2.99  30 2.99  31 2.99
                            29 2.99
  29  0.334  0.010  0.480-  30 2.84  31 2.85  36 2.86  20 2.92  27 2.96  35 2.98  26 2.99  28 2.99
                            34 3.12
  30  0.656  0.010  0.480-  29 2.84  32 2.85  36 2.86  21 2.92  27 2.96  35 2.98  25 2.99  28 2.99
                            33 3.12
  31  0.010  0.334  0.480-  33 2.84  29 2.85  36 2.86  20 2.92  22 2.96  35 2.98  19 2.99  28 2.99
                            32 3.12
  32  0.656  0.334  0.480-  34 2.84  30 2.85  36 2.86  21 2.92  24 2.96  35 2.98  19 2.99  28 2.99
                            31 3.12
  33  0.010  0.656  0.480-  31 2.84  34 2.85  36 2.86  23 2.92  22 2.96  35 2.98  25 2.99  28 2.99
                            30 3.12
  34  0.334  0.656  0.480-  32 2.84  33 2.85  36 2.86  23 2.92  24 2.96  35 2.98  26 2.99  28 2.99
                            29 3.12
  35  0.667  0.667  0.480-  24 2.96  27 2.96  22 2.96  29 2.98  34 2.98  32 2.98  31 2.98  30 2.98
                            33 2.98
  36  0.333  0.333  0.468-  20 2.70  23 2.70  21 2.70  33 2.86  31 2.86  29 2.86  30 2.86  34 2.86
                            32 2.86
  37  0.298  0.279  0.626-  38 1.11
  38  0.424  0.279  0.626-  37 1.11

  LATTYP: Found a hexagonal cell.
 ALAT       =     8.8135128021
 C/A-ratio  =     2.9517751310

  Lattice vectors:

 A1 = (  -4.4067569092,  -7.6327256898,   0.0000000000)
 A2 = (   8.8135128021,   0.0000000000,   0.0000000000)
 A3 = (   0.0000000000,   0.0000000000,  26.0155079059)

Analysis of symmetry for initial positions (statically):
 Subroutine PRICEL returns:
 Original cell was already a primitive cell.

 Routine SETGRP: Setting up the symmetry group for a
 hexagonal supercell.

 Subroutine GETGRP returns: Found  2 space group operations
 (whereof  2 operations were pure point group operations)
 out of a pool of 24 trial point group operations.

The static configuration has the point symmetry C_1h.

Analysis of symmetry for dynamics (positions and initial velocities):
 Subroutine PRICEL returns:
 Original cell was already a primitive cell.

[...]

The dynamic configuration has the point symmetry C_1h.

Analysis of constrained symmetry for selective dynamics:
 Subroutine PRICEL returns:
 Original cell was already a primitive cell.

 Routine SETGRP: Setting up the symmetry group for a
 hexagonal supercell.

[...]
     33      -5.5709      2.00000
     34      -5.5610      2.00000
     35      -5.5425      2.00000
     36      -5.5361      2.00000
     37      -5.5234      2.00000
     38      -5.4845      2.00000
     39      -5.3857      2.00000
     40      -5.3551      2.00000
     41      -5.3357      2.00000
     42      -5.3246      2.00000
     43      -5.2689      2.00000
     44      -5.1928      2.00000
     45      -5.1627      2.00000
     46      -5.1404      2.00000
     47      -5.1065      2.00000
     48      -5.0860      2.00000
     49      -5.0838      2.00000
     50      -5.0698      2.00000
     51      -4.9636      2.00000
     52      -4.9588      2.00000
     53      -4.9248      2.00000
     54      -4.8988      2.00000
     55      -4.8965      2.00000
     56      -4.8902      2.00000
     57      -4.8670      2.00000
     58      -4.8391      2.00000
     59      -4.7919      2.00000
     60      -4.7813      2.00000
[...]
    242       5.6451      0.00000
    243       5.6783      0.00000
    244       5.6900      0.00000
    245       5.8474      0.00000
    246       5.9828      0.00000
    247       6.0152      0.00000
    248       6.0410      0.00000
    249       6.1269      0.00000
    250       6.2604      0.00000
    251       6.3145      0.00000
    252       6.3415      0.00000
    253       6.3831      0.00000
    254       6.4391      0.00000
    255       6.4689      0.00000
    256       6.6161      0.00000

 soft charge-density along one line, spin component           1
         0         1         2         3         4         5         6         7         8         9
 total charge-density along one line

------------------------ aborting loop because EDIFF is reached ----------------------------------------

 total charge

# of ion       s       p       d       tot
    1        0.547   0.239   8.764   9.550
    2        0.544   0.241   8.765   9.550
    3        0.544   0.241   8.765   9.550
    4        0.544   0.241   8.765   9.550
    5        0.543   0.241   8.761   9.546
    6        0.544   0.241   8.765   9.550
    7        0.544   0.241   8.765   9.550
    8        0.544   0.241   8.765   9.550
    9        0.544   0.239   8.768   9.551
   10        0.524   0.308   8.767   9.599
   11        0.521   0.308   8.781   9.609
   12        0.524   0.308   8.767   9.599
   13        0.521   0.308   8.781   9.609
   14        0.521   0.308   8.781   9.609
   15        0.517   0.309   8.775   9.601
   16        0.524   0.308   8.767   9.599
   17        0.517   0.309   8.775   9.601
   18        0.517   0.309   8.775   9.601
   19        0.516   0.300   8.775   9.590
   20        0.550   0.335   8.746   9.630
   21        0.550   0.335   8.746   9.630
   22        0.510   0.309   8.777   9.595
   23        0.550   0.335   8.746   9.630
   24        0.510   0.309   8.777   9.595
   25        0.516   0.300   8.775   9.590
   26        0.516   0.300   8.775   9.590
   27        0.510   0.309   8.777   9.595
   28        0.538   0.224   8.761   9.523
   29        0.565   0.242   8.745   9.551
   30        0.565   0.242   8.745   9.551
   31        0.564   0.242   8.745   9.551
   32        0.564   0.242   8.745   9.551
   33        0.565   0.242   8.744   9.551
   34        0.565   0.242   8.744   9.551
   35        0.534   0.224   8.763   9.520
   36        0.255   0.190   5.022   5.467
   37        1.373   2.468   0.000   3.841
   38        1.373   2.468   0.000   3.841
tot         21.772  14.792 311.754 348.318

  FORCE on cell =-STRESS in cart. coord.  units (eV):
  Direction    XX          YY          ZZ          XY          YZ          ZX
  Alpha Z   879.33089   879.33089   879.33089
  Ewald  171737.43073171416.38093************    -0.00032     9.51080    -0.00016
  Hartree179938.31440179824.18039************     0.00001     8.22403    -0.00004
  E(xc)   -1800.19862 -1801.43777 -1808.79791    -0.00001     0.00192    -0.00000
  Local  ************************363677.33225     0.00248   -17.77963     0.00006
  n-local  -105.70552   -93.16178   -67.53349     4.43542     0.00433     0.05047
  augment  2395.08893  2394.77602  2412.72443    -0.00138    -0.00041     0.00002
  Kinetic  5586.36754  5604.42047  5663.19875     1.92391     0.04711     0.39296
  Fock        0.00000     0.00000     0.00000     0.00000     0.00000     0.00000
  Total     -23.17545   -23.17673     3.05441    -0.00000     0.00815     0.00000
  in kB     -21.21670   -21.21786     2.79626    -0.00000     0.00746     0.00000

 VOLUME and BASIS-vectors are now :
  energy-cutoff  :      500.00
  volume of cell :     1750.09
      direct lattice vectors                 reciprocal lattice vectors
     8.813512802  0.000000000  0.000000000     0.113462137 -0.065507406  0.000000000
     4.406756909  7.632725690  0.000000000     0.000000000  0.131014796  0.000000000
     0.000000000  0.000000000 26.015507906     0.000000000  0.000000000  0.038438611

  length of vectors
     8.813512802  8.813512802 26.015507906     0.131014796  0.131014796  0.038438611

 FORCES acting on ions
    electron-ion (+dipol)            ewald-force                    non-local-force                 convergence-correction
   -.199E-04 0.115E-01 0.276E+04   0.519E-04 -.970E-02 -.276E+04   -.338E-10 -.507E-03 -.756E+00   -.296E-03 -.160E-02 0.636E-01
   0.504E+00 0.117E+00 0.276E+04   -.551E+00 -.179E+00 -.276E+04   0.380E-01 0.559E-01 -.301E+00   0.918E-03 0.619E-02 -.325E-01
   -.504E+00 0.117E+00 0.276E+04   0.551E+00 -.179E+00 -.276E+04   -.380E-01 0.559E-01 -.301E+00   -.539E-03 0.813E-02 -.318E-01
   0.343E+00 0.360E+00 0.276E+04   -.422E+00 -.375E+00 -.276E+04   0.680E-01 0.458E-02 -.303E+00   0.710E-02 0.271E-02 -.319E-01
   0.756E-05 -.267E-01 0.276E+04   0.951E-04 0.176E-01 -.276E+04   0.140E-11 0.211E-04 -.207E+00   0.432E-02 0.932E-02 -.670E-01
   -.343E+00 0.360E+00 0.276E+04   0.422E+00 -.375E+00 -.276E+04   -.680E-01 0.458E-02 -.303E+00   -.867E-02 0.358E-02 -.309E-01
   -.161E+00 -.477E+00 0.276E+04   0.129E+00 0.554E+00 -.276E+04   0.299E-01 -.606E-01 -.300E+00   0.784E-02 -.949E-02 -.294E-01
   0.161E+00 -.477E+00 0.276E+04   -.129E+00 0.554E+00 -.276E+04   -.299E-01 -.606E-01 -.300E+00   -.602E-02 -.106E-01 -.293E-01
   0.196E-04 0.145E-01 0.276E+04   0.166E-03 -.775E-02 -.276E+04   0.525E-10 0.789E-03 -.464E+00   -.456E-02 -.766E-02 -.406E-01
   0.393E+01 0.225E+01 0.938E+03   -.346E+01 -.198E+01 -.937E+03   -.285E+00 -.165E+00 -.729E+00   -.141E+00 -.812E-01 0.293E+00
   0.148E-04 0.374E+01 0.944E+03   0.147E-03 -.377E+01 -.944E+03   0.287E-08 0.431E-01 -.310E+00   0.436E-02 -.638E-01 0.316E+00
   -.393E+01 0.225E+01 0.938E+03   0.346E+01 -.198E+01 -.937E+03   0.285E+00 -.165E+00 -.729E+00   0.139E+00 -.800E-01 0.294E+00
   0.326E+01 -.199E+01 0.944E+03   -.328E+01 0.199E+01 -.944E+03   0.368E-01 -.214E-01 -.310E+00   -.550E-01 0.441E-01 0.315E+00
   -.326E+01 -.199E+01 0.944E+03   0.328E+01 0.199E+01 -.944E+03   -.368E-01 -.214E-01 -.310E+00   0.627E-01 0.429E-01 0.314E+00
   0.316E-04 0.395E+01 0.941E+03   0.236E-03 -.408E+01 -.941E+03   0.188E-08 0.282E-01 -.543E+00   -.249E-02 0.594E-01 0.391E+00
   -.213E-04 -.441E+01 0.937E+03   0.162E-03 0.388E+01 -.937E+03   0.219E-07 0.329E+00 -.727E+00   -.179E-03 0.154E+00 0.295E+00
   0.351E+01 -.191E+01 0.941E+03   -.362E+01 0.198E+01 -.941E+03   0.246E-01 -.143E-01 -.539E+00   0.444E-01 -.350E-01 0.393E+00
   -.351E+01 -.191E+01 0.941E+03   0.362E+01 0.198E+01 -.941E+03   -.246E-01 -.143E-01 -.539E+00   -.438E-01 -.326E-01 0.395E+00
   -.404E-04 0.619E+00 -.913E+03   0.549E-04 -.814E+00 0.912E+03   0.355E-08 0.534E-01 0.507E+00   -.461E-02 0.136E+00 0.752E+00
   0.121E+02 0.635E+01 -.886E+03   -.113E+02 -.589E+01 0.886E+03   -.908E+00 -.522E+00 -.795E+00   0.954E-01 0.576E-01 0.115E+01
   -.121E+02 0.635E+01 -.886E+03   0.113E+02 -.589E+01 0.886E+03   0.908E+00 -.522E+00 -.795E+00   -.931E-01 0.572E-01 0.115E+01
   -.342E+01 0.177E+01 -.899E+03   0.310E+01 -.159E+01 0.898E+03   0.354E+00 -.207E+00 0.558E+00   -.274E-01 0.212E-01 0.841E+00
   -.940E-05 -.142E+02 -.888E+03   0.140E-03 0.132E+02 0.888E+03   0.697E-07 0.105E+01 -.795E+00   0.412E-03 -.103E+00 0.115E+01
   0.342E+01 0.177E+01 -.899E+03   -.310E+01 -.159E+01 0.898E+03   -.354E+00 -.207E+00 0.558E+00   0.275E-01 0.194E-01 0.841E+00
   -.106E+01 0.216E+00 -.913E+03   0.123E+01 -.111E+00 0.912E+03   -.446E-01 -.246E-01 0.503E+00   -.121E+00 -.775E-01 0.751E+00
   0.106E+01 0.216E+00 -.913E+03   -.123E+01 -.111E+00 0.912E+03   0.446E-01 -.246E-01 0.503E+00   0.114E+00 -.789E-01 0.751E+00
   0.115E-04 -.309E+01 -.898E+03   0.197E-03 0.273E+01 0.897E+03   0.272E-07 0.408E+00 0.560E+00   0.105E-02 -.390E-01 0.842E+00
   -.114E-04 0.278E+01 -.269E+04   0.286E-04 -.278E+01 0.268E+04   0.683E-11 0.103E-03 0.510E+00   -.351E-03 -.273E-02 0.580E+00
   0.135E+02 0.181E+02 -.267E+04   -.128E+02 -.170E+02 0.267E+04   -.871E+00 -.132E+01 0.851E-01   0.222E+00 0.256E+00 0.519E+00
   -.135E+02 0.181E+02 -.267E+04   0.128E+02 -.170E+02 0.267E+04   0.871E+00 -.132E+01 0.851E-01   -.221E+00 0.257E+00 0.518E+00
   0.192E+02 -.161E+01 -.267E+04   -.180E+02 0.163E+01 0.267E+04   -.158E+01 -.896E-01 0.118E+00   0.334E+00 0.674E-01 0.520E+00
   -.192E+02 -.161E+01 -.267E+04   0.180E+02 0.163E+01 0.267E+04   0.158E+01 -.896E-01 0.118E+00   -.334E+00 0.678E-01 0.519E+00
   0.539E+01 -.157E+02 -.268E+04   -.478E+01 0.146E+02 0.268E+04   -.714E+00 0.141E+01 0.841E-01   0.114E+00 -.322E+00 0.516E+00
   -.539E+01 -.157E+02 -.268E+04   0.478E+01 0.146E+02 0.268E+04   0.714E+00 0.141E+01 0.841E-01   -.113E+00 -.323E+00 0.516E+00
   0.355E-04 0.215E+01 -.269E+04   0.142E-03 -.215E+01 0.269E+04   -.686E-11 -.103E-03 0.600E+00   -.424E-02 -.606E-02 0.476E+00
   -.283E-04 -.377E+01 -.161E+04   0.743E-04 0.378E+01 0.160E+04   -.458E-09 -.688E-02 0.291E+01   0.287E-02 0.497E-02 0.527E+00
   0.239E+03 -.143E+01 -.112E+04   -.285E+03 0.140E+01 0.112E+04   0.456E+02 0.184E-01 -.733E-01   0.165E-01 0.119E-01 -.158E+00
   -.239E+03 -.143E+01 -.112E+04   0.285E+03 0.140E+01 0.112E+04   -.456E+02 0.184E-01 -.733E-01   -.143E-01 0.120E-01 -.158E+00
   -.584E-03 -.552E-01 -.127E+02   -.568E-13 0.389E-12 0.637E-11   0.207E-08 0.311E-01 -.272E+01   0.278E-02 0.241E-01 0.154E+02

 POSITION                                       TOTAL-FORCE (eV/Angst)
      0.00000      0.00000      5.28038        -0.000000     -0.000273     -0.142241
      2.93784      0.00000      5.28038        -0.007972      0.001387     -0.077625
      5.87568      0.00000      5.28038         0.007972      0.001387     -0.077625
      1.46892      2.54424      5.28038        -0.002667     -0.007511     -0.077998
      4.40676      2.54424      5.28038         0.000000      0.000255     -0.112377
      7.34459      2.54424      5.28038         0.002667     -0.007511     -0.077998
      2.93784      5.08848      5.28038         0.005332      0.006253     -0.077896
      5.87568      5.08848      5.28038        -0.005332      0.006253     -0.077896
      8.81351      5.08848      5.28038        -0.000000     -0.000097     -0.102770
      1.46892      0.84808      7.67911         0.041018      0.023904      0.111179
      4.40676      0.84808      7.67911        -0.000000     -0.050478      0.001066
      7.34459      0.84808      7.67911        -0.041018      0.023904      0.111179
      2.93784      3.39232      7.67911        -0.043839      0.025643      0.000795
      5.87568      3.39232      7.67911         0.043839      0.025643      0.000795
      8.81351      3.39232      7.67911        -0.000000     -0.048194      0.067208
      4.40676      5.93656      7.67911        -0.000000     -0.047882      0.111278
      7.34459      5.93656      7.67911        -0.041698      0.023873      0.067612
     10.28243      5.93656      7.67911         0.041698      0.023873      0.067612
      8.81351      1.69603     10.07479        -0.000000     -0.005350      0.033994
      2.95306      1.70495     10.04990        -0.008072     -0.004575      0.009841
      5.86045      1.70495     10.04990         0.008072     -0.004575      0.009841
     10.26640      4.24966     10.05812         0.005441     -0.003043      0.021941
      4.40676      4.22282     10.04990         0.000000      0.009173      0.010044
      7.36062      4.24966     10.05812        -0.005441     -0.003043      0.021941
     11.75147      6.78471     10.07479         0.004565      0.002342      0.032219
      5.87556      6.78471     10.07479        -0.004565      0.002342      0.032219
      8.81351      6.76613     10.05812         0.000000      0.006194      0.020942
      0.00000      0.00000     12.48774        -0.000000     -0.000642     -0.088460
      2.98478      0.07843     12.47445        -0.008885      0.001497      0.031716
      5.82873      0.07843     12.47445         0.008885      0.001497      0.031716
      1.56032      2.54568     12.47445        -0.001178     -0.007860      0.034032
      7.25320      2.54568     12.47445         0.001178     -0.007860      0.034032
      2.98229      5.00861     12.47445         0.007050      0.005289      0.034386
      5.83122      5.00861     12.47445        -0.007050      0.005289      0.034386
      8.81351      5.08848     12.49541         0.000000      0.000173     -0.057141
      4.40676      2.54424     12.16834        -0.000000     -0.000141      0.023120
      3.84984      2.12604     16.29591        -0.006569      0.001430      0.007467
      4.96367      2.12604     16.29591         0.006569      0.001430      0.007467
    total drift:                                0.002197     -0.000083     -0.045837

  FREE ENERGIE OF THE ION-ELECTRON SYSTEM (eV)
  free  energy   TOTEN  =      -129.83856917 eV

  energy  without entropy=     -129.83856917  energy(sigma->0) =     -129.83856917

 stress matrix after NEB project (eV)
    -23.17545     -0.00000      0.00000
     -0.00000    -23.17673      0.00815
      0.00000      0.00815      3.05441
  FORCES: max atom, RMS     0.010048    0.002305
  FORCE total and by dimension    0.014210    0.007467
  Stress total and by dimension   32.917957   23.176726
|           W    W    AA    RRRRR   N    N  II  N    N   GGGG   !!!           |
|           W    W   A  A   R    R  NN   N  II  NN   N  G    G  !!!           |
|           W    W  A    A  R    R  N N  N  II  N N  N  G       !!!           |
|           W WW W  AAAAAA  RRRRR   N  N N  II  N  N N  G  GGG   !            |
|           WW  WW  A    A  R   R   N   NN  II  N   NN  G    G                |
|           W    W  A    A  R    R  N    N  II  N    N   GGGG   !!!           |
|     Tetrahedron method does not include variations of the Fermi             |
|     occupations, so forces and stress will be inaccurate. We suggest        |
|     using a different smearing scheme ISMEAR = 1 or 2 for metals in         |
|     relaxations.                                                            |

 total charge

# of ion       s       p       d       tot
    1        0.547   0.239   8.764   9.550
    2        0.544   0.241   8.765   9.550
    3        0.544   0.241   8.765   9.550
    4        0.544   0.241   8.765   9.550
    5        0.543   0.241   8.761   9.546
    6        0.544   0.241   8.765   9.550
    7        0.544   0.241   8.765   9.550
    8        0.544   0.241   8.765   9.550
    9        0.544   0.239   8.768   9.551
   10        0.524   0.308   8.767   9.599
   11        0.521   0.308   8.781   9.609
   12        0.524   0.308   8.767   9.599
   13        0.521   0.308   8.781   9.609
   14        0.521   0.308   8.781   9.609
   15        0.517   0.309   8.775   9.601
   16        0.524   0.308   8.767   9.599
   17        0.517   0.309   8.775   9.601
   18        0.517   0.309   8.775   9.601
   19        0.516   0.300   8.775   9.590
   20        0.550   0.335   8.746   9.630
   21        0.550   0.335   8.746   9.630
   22        0.510   0.309   8.777   9.595
   23        0.550   0.335   8.746   9.630
   24        0.510   0.309   8.777   9.595
   25        0.516   0.300   8.775   9.590
   26        0.516   0.300   8.775   9.590
   27        0.510   0.309   8.777   9.595
   28        0.538   0.224   8.761   9.523
   29        0.565   0.242   8.745   9.551
   30        0.565   0.242   8.745   9.551
   31        0.564   0.242   8.745   9.551
   32        0.564   0.242   8.745   9.551
   33        0.565   0.242   8.744   9.551
   34        0.565   0.242   8.744   9.551
   35        0.534   0.224   8.763   9.520
   36        0.255   0.190   5.022   5.467
   37        1.373   2.468   0.000   3.841
   38        1.373   2.468   0.000   3.841
tot         21.772  14.792 311.754 348.318

 BZINTS: Fermi energy:   -0.110237;  402.000000 electrons
         Band energy:-0.158561E+04;  BLOECHL correction:   -0.038483