 vasp.6.2.0 18Jan21 (build Jun 12 2021 23:27:24) complex

 executed on             LinuxIFC date 2022.05.30  18:48:41

 INCAR:
   ISMEAR = -5
   SIGMA = 0.1
   ISPIN = 1
   EDIFF = 1.d-5
   EDIFFG = -0.01
   NSW = 0
   NELM = 150
   ENCUT = 500
   ISIF = 2
   IBRION = 2
   LREAL = Auto
   ALGO = Fast
   ICHARG = 11
   LORBIT = 10
   LCHARG = .F.
   LWAVE = .F.

 POTCAR:    PAW_PBE Cu 22Jun2005
 POTCAR:    PAW_PBE Pt 04Feb2005
 POTCAR:    PAW_PBE C 08Apr2002
|           W    W    AA    RRRRR   N    N  II  N    N   GGGG   !!!           |
|           W    W   A  A   R    R  NN   N  II  NN   N  G    G  !!!           |
|           W    W  A    A  R    R  N N  N  II  N N  N  G       !!!           |
|           W WW W  AAAAAA  RRRRR   N  N N  II  N  N N  G  GGG   !            |
|           WW  WW  A    A  R   R   N   NN  II  N   NN  G    G                |
|           W    W  A    A  R    R  N    N  II  N    N   GGGG   !!!           |
|     For optimal performance we recommend to set                             |
|       NCORE = 2 up to number-of-cores-per-socket                            |
|     This setting can greatly improve the performance of VASP for DFT.       |
|     The default, NCORE=1 might be grossly inefficient on modern             |
|     multi-core architectures or massively parallel machines. Do your        |
|     Unfortunately you need to use the default for GW and RPA                |
|     calculations (for HF NCORE is supported but not extensively tested      |
|     yet).                                                                   |

 POTCAR:    PAW_PBE Cu 22Jun2005
   VRHFIN =Cu: d10 p1

   TITEL  = PAW_PBE Cu 22Jun2005
   POMASS =   63.546; ZVAL   =   11.000    mass and valenz
   ENMAX  =  295.446; ENMIN  =  221.585 eV

 POTCAR:    PAW_PBE Pt 04Feb2005
   VRHFIN =Pt: s1d9

   TITEL  = PAW_PBE Pt 04Feb2005
   POMASS =  195.080; ZVAL   =   10.000    mass and valenz
   ENMAX  =  230.283; ENMIN  =  172.712 eV

 POTCAR:    PAW_PBE C 08Apr2002
   VRHFIN =C: s2p2

   TITEL  = PAW_PBE C 08Apr2002
   POMASS =   12.011; ZVAL   =    4.000    mass and valenz
   ENMAX  =  400.000; ENMIN  =  300.000 eV

 Optimization of the real space projectors (new method)

 maximal supplied QI-value         = 16.25
 optimisation between [QCUT,QGAM] = [ 11.38, 22.75] = [ 36.24,144.96] Ry
 Optimized for a Real-space Cutoff    1.52 Angstroem

   l    n(q)    QCUT    max X(q) W(low)/X(q) W(high)/X(q)  e(spline)
   2      9    11.376     4.610    0.21E-03    0.10E-03    0.26E-06
   2      9    11.376     8.522    0.33E-03    0.16E-03    0.37E-06
   0     10    11.376    51.609    0.62E-04    0.20E-04    0.13E-06
   0     10    11.376    27.747    0.54E-04    0.20E-04    0.13E-06
   1     10    11.376    20.408    0.13E-04    0.99E-04    0.19E-06
   1     10    11.376    13.425    0.12E-04    0.87E-04    0.17E-06
 Optimization of the real space projectors (new method)

[...]

   l    n(q)    QCUT    max X(q) W(low)/X(q) W(high)/X(q)  e(spline)
   2      9    11.346    66.195    0.31E-03    0.12E-04    0.29E-06
   2      9    11.346    64.643    0.32E-03    0.12E-04    0.29E-06
   0     10    11.346    95.520    0.90E-04    0.16E-04    0.19E-06
   0     10    11.346    63.403    0.87E-04    0.15E-04    0.19E-06
   1     10    11.346    19.961    0.17E-03    0.21E-03    0.11E-06
   1     10    11.346    13.289    0.14E-03    0.18E-03    0.89E-07
 Optimization of the real space projectors (new method)

 maximal supplied QI-value         = 25.13
 optimisation between [QCUT,QGAM] = [ 11.31, 22.87] = [ 35.82,146.48] Ry
 Optimized for a Real-space Cutoff    1.00 Angstroem

   l    n(q)    QCUT    max X(q) W(low)/X(q) W(high)/X(q)  e(spline)
   0      7    11.310   115.676    0.43E-03    0.13E-02    0.19E-06
   0      7    11.310    87.132    0.43E-03    0.13E-02    0.18E-06
   1      6    11.310     4.429    0.42E-03    0.74E-03    0.11E-06
   1      6    11.310     2.733    0.34E-03    0.55E-03    0.92E-07
  PAW_PBE Cu 22Jun2005                  :
  PAW_PBE Pt 04Feb2005                  :
  PAW_PBE C 08Apr2002                   :

 POSCAR: Cu-Pt-C
  positions in direct lattice
  velocities in cartesian coordinates
 exchange correlation table for  LEXCH =        8
   RHO(1)=    0.500       N(1)  =     2000
   RHO(2)=  100.500       N(2)  =     4000

 VTST: version 3.2, (02/03/18)

 CHAIN: initializing optimizer

 OPT: Using VASP Conjugate-Gradient optimizer
 CHAIN: Read ICHAIN            0

 POSCAR: Cu-Pt-C
  positions in direct lattice
  velocities in cartesian coordinates

 ion  position               nearest neighbor table
   1  0.000  0.000  0.226-   7 2.57   3 2.57   4 2.57   2 2.57   6 2.57   8 2.57  12 2.57  10 2.57
                            16 2.57
   2  0.333  0.000  0.226-   8 2.57   9 2.57   5 2.57   1 2.57   3 2.57  11 2.57   4 2.57  10 2.57
                            17 2.57
   3  0.667  0.000  0.226-   1 2.57   7 2.57   6 2.57   9 2.57   2 2.57  12 2.57   5 2.57  18 2.57
                            11 2.57
   4  0.000  0.333  0.226-   5 2.57   6 2.57   1 2.57   7 2.57   2 2.57  13 2.57   9 2.57  10 2.57
                            15 2.57
   5  0.333  0.333  0.226-   4 2.57   2 2.57   7 2.57  13 2.57   8 2.57   6 2.57   3 2.57  11 2.57
                            14 2.57
   6  0.667  0.333  0.226-   4 2.57   9 2.57  15 2.57   3 2.57   1 2.57   8 2.57  14 2.57   5 2.57
                            12 2.57
   7  0.000  0.667  0.226-   1 2.57   3 2.57  16 2.57  18 2.57   4 2.57   5 2.57   8 2.57   9 2.57
                            13 2.57
   8  0.333  0.667  0.226-   9 2.57   2 2.57  17 2.57   6 2.57   1 2.57   7 2.57   5 2.57  14 2.57
                            16 2.57
   9  0.667  0.667  0.226-   8 2.57   6 2.57   2 2.57  17 2.57   3 2.57   7 2.57   4 2.57  15 2.57
                            18 2.57
  10  0.111  0.111  0.314-  20 2.53  26 2.56  19 2.56  11 2.57  12 2.57  13 2.57   1 2.57   2 2.57
                             4 2.57  15 2.57  16 2.57  17 2.57
  11  0.444  0.111  0.314-  20 2.55  21 2.55  27 2.56  10 2.57  13 2.57   2 2.57  17 2.57  14 2.57
                            12 2.57   5 2.57   3 2.57  18 2.57
  12  0.778  0.111  0.314-  21 2.53  19 2.56  25 2.56  15 2.57  10 2.57  14 2.57  18 2.57   3 2.57
                             1 2.57  16 2.57  11 2.57   6 2.57
  13  0.111  0.444  0.314-  23 2.55  20 2.55  22 2.56  16 2.57  18 2.57  10 2.57  11 2.57  14 2.57
                             5 2.57   4 2.57   7 2.57  15 2.57
  14  0.444  0.444  0.314-  21 2.55  23 2.55  24 2.56  15 2.57  17 2.57  12 2.57  16 2.57  13 2.57
                            11 2.57   6 2.57   8 2.57   5 2.57
  15  0.778  0.444  0.314-  19 2.56  24 2.56  22 2.56  14 2.57  17 2.57  12 2.57   6 2.57  18 2.57
                            10 2.57   9 2.57  13 2.57   4 2.57
  16  0.111  0.778  0.314-  23 2.53  25 2.56  26 2.56  18 2.57  13 2.57   7 2.57  14 2.57  17 2.57
                            12 2.57  10 2.57   8 2.57   1 2.57
  17  0.444  0.778  0.314-  26 2.56  27 2.56  24 2.56  14 2.57  15 2.57   8 2.57   9 2.57  11 2.57
                            16 2.57  18 2.57  10 2.57   2 2.57
  18  0.778  0.778  0.314-  25 2.56  22 2.56  27 2.56  16 2.57  13 2.57   7 2.57  15 2.57  12 2.57
                            17 2.57   9 2.57   3 2.57  11 2.57
  19  0.888  0.223  0.402-  28 2.54  32 2.55  31 2.55  21 2.55  20 2.55  15 2.56  12 2.56  10 2.56
                            22 2.56  24 2.56  25 2.58  26 2.58
  20  0.221  0.221  0.401-  10 2.53  11 2.55  13 2.55  26 2.55  19 2.55  27 2.57  22 2.57  29 2.59
                            31 2.59  36 2.60  23 2.60  21 2.60
  21  0.558  0.221  0.401-  12 2.53  14 2.55  11 2.55  19 2.55  25 2.55  24 2.57  27 2.57  32 2.59
                            30 2.59  36 2.60  20 2.60  23 2.60
  22  0.889  0.556  0.401-  35 2.54  18 2.56  15 2.56  13 2.56  19 2.56  25 2.56  24 2.56  27 2.56
                            31 2.57  33 2.57  23 2.57  20 2.57
  23  0.221  0.558  0.401-  16 2.53  13 2.55  14 2.55  25 2.55  26 2.55  22 2.57  24 2.57  33 2.59
                            34 2.59  36 2.60  20 2.60  21 2.60
  24  0.556  0.556  0.401-  35 2.54  15 2.56  17 2.56  14 2.56  19 2.56  26 2.56  22 2.56  27 2.56
                            32 2.57  34 2.57  21 2.57  23 2.57
  25  0.888  0.888  0.402-  28 2.54  33 2.55  30 2.55  21 2.55  23 2.55  18 2.56  16 2.56  12 2.56
                            22 2.56  27 2.56  19 2.58  26 2.58
  26  0.223  0.888  0.402-  28 2.54  29 2.55  34 2.55  20 2.55  23 2.55  17 2.56  10 2.56  16 2.56
                            27 2.56  24 2.56  25 2.58  19 2.58
  27  0.556  0.889  0.401-  35 2.54  17 2.56  18 2.56  11 2.56  26 2.56  25 2.56  24 2.56  22 2.56
                            29 2.57  30 2.57  20 2.57  21 2.57
  28  0.000  0.000  0.488-  25 2.54  19 2.54  26 2.54  33 2.55  30 2.55  31 2.55  29 2.55  32 2.55
                            34 2.55
  29  0.333  0.997  0.489-  34 2.52  26 2.55  28 2.55  35 2.56  27 2.57  31 2.59  20 2.59  36 2.59
                            30 2.59
  30  0.670  0.997  0.489-  33 2.52  25 2.55  28 2.55  35 2.56  27 2.57  32 2.59  21 2.59  36 2.59
                            29 2.59
  31  0.997  0.333  0.489-  32 2.52  19 2.55  28 2.55  35 2.56  22 2.57  29 2.59  20 2.59  36 2.59
                            33 2.59
  32  0.670  0.333  0.489-  31 2.52  19 2.55  28 2.55  35 2.56  24 2.57  30 2.59  21 2.59  36 2.59
                            34 2.59
  33  0.997  0.670  0.489-  30 2.52  25 2.55  28 2.55  35 2.56  22 2.57  34 2.59  23 2.59  36 2.59
                            31 2.59
  34  0.333  0.670  0.489-  29 2.52  26 2.55  28 2.55  35 2.56  24 2.57  33 2.59  23 2.59  36 2.59
                            32 2.59
  35  0.667  0.667  0.488-  24 2.54  27 2.54  22 2.54  34 2.56  32 2.56  29 2.56  30 2.56  33 2.56
                            31 2.56
  36  0.333  0.333  0.490-  37 1.78  31 2.59  29 2.59  33 2.59  34 2.59  32 2.59  30 2.59  23 2.60
                            20 2.60  21 2.60
  37  0.333  0.333  0.565-  36 1.78

  LATTYP: Found a hexagonal cell.
 ALAT       =     7.6967864036
 C/A-ratio  =     3.0908716217

  Lattice vectors:

 A1 = (  -3.8483927580,  -6.6656128093,   0.0000000000)
 A2 = (   7.6967864037,   0.0000000000,   0.0000000000)
 A3 = (   0.0000000000,   0.0000000000,  23.7897786731)

Analysis of symmetry for initial positions (statically):
 Subroutine PRICEL returns:
 Original cell was already a primitive cell.

 Routine SETGRP: Setting up the symmetry group for a
 hexagonal supercell.

 Subroutine GETGRP returns: Found  6 space group operations
 (whereof  6 operations were pure point group operations)
 out of a pool of 24 trial point group operations.

The static configuration has the point symmetry C_3v.

Analysis of symmetry for dynamics (positions and initial velocities):
 Subroutine PRICEL returns:
 Original cell was already a primitive cell.

[...]

The dynamic configuration has the point symmetry C_3v.

Analysis of constrained symmetry for selective dynamics:
 Subroutine PRICEL returns:
 Original cell was already a primitive cell.

 Routine SETGRP: Setting up the symmetry group for a
 hexagonal supercell.

 Subroutine GETGRP returns: Found  6 space group operations
[...]
     24      -4.8269      2.00000
     25      -4.8004      2.00000
     26      -4.7796      2.00000
     27      -4.7361      2.00000
     28      -4.6875      2.00000
     29      -4.6255      2.00000
     30      -4.5598      2.00000
     31      -4.5160      2.00000
     32      -4.5050      2.00000
     33      -4.4839      2.00000
     34      -4.4810      2.00000
     35      -4.4654      2.00000
     36      -4.4192      2.00000
     37      -4.3728      2.00000
     38      -4.3235      2.00000
     39      -4.3045      2.00000
     40      -4.2801      2.00000
     41      -4.1693      2.00000
     42      -4.1546      2.00000
     43      -4.1150      2.00000
     44      -4.0891      2.00000
     45      -4.0675      2.00000
     46      -4.0581      2.00000
     47      -4.0056      2.00000
     48      -3.9917      2.00000
     49      -3.9660      2.00000
     50      -3.9289      2.00000
     51      -3.8400      2.00000
     52      -3.8284      2.00000
     53      -3.7985      2.00000
     54      -3.7689      2.00000
     55      -3.7548      2.00000
     56      -3.7483      2.00000
     57      -3.7432      2.00000
     58      -3.7173      2.00000
     59      -3.7091      2.00000
     60      -3.6770      2.00000
[...]
    238       5.7617      0.00000
    239       5.9171      0.00000
    240       6.0151      0.00000
    241       6.0818      0.00000
    242       6.1335      0.00000
    243       6.3523      0.00000
    244       6.3608      0.00000
    245       6.5702      0.00000
    246       6.7425      0.00000
    247       6.8353      0.00000
    248       6.8943      0.00000
    249       7.0388      0.00000
    250       7.2453      0.00000
    251       7.3614      0.00000
    252       7.5547      0.00000

 soft charge-density along one line, spin component           1
         0         1         2         3         4         5         6         7         8         9
 total charge-density along one line

------------------------ aborting loop because EDIFF is reached ----------------------------------------

 total charge

# of ion       s       p       d       tot
    1        0.448   0.283   9.190   9.921
    2        0.449   0.284   9.187   9.921
    3        0.449   0.284   9.187   9.921
    4        0.449   0.284   9.187   9.921
    5        0.449   0.286   9.186   9.920
    6        0.449   0.284   9.187   9.921
    7        0.449   0.284   9.187   9.921
    8        0.449   0.284   9.187   9.921
    9        0.447   0.285   9.187   9.919
   10        0.443   0.371   9.179   9.993
   11        0.441   0.372   9.180   9.994
   12        0.443   0.371   9.179   9.993
   13        0.441   0.372   9.180   9.994
   14        0.441   0.372   9.180   9.994
   15        0.440   0.369   9.181   9.990
   16        0.443   0.371   9.179   9.993
   17        0.440   0.369   9.181   9.990
   18        0.440   0.369   9.181   9.990
   19        0.444   0.375   9.180   9.998
   20        0.450   0.384   9.180  10.014
   21        0.450   0.384   9.180  10.014
   22        0.438   0.372   9.182   9.991
   23        0.450   0.384   9.180  10.014
   24        0.438   0.372   9.182   9.991
   25        0.444   0.375   9.180   9.998
   26        0.444   0.375   9.180   9.998
   27        0.438   0.372   9.182   9.991
   28        0.457   0.290   9.195   9.942
   29        0.439   0.305   9.195   9.939
   30        0.439   0.305   9.195   9.939
   31        0.439   0.305   9.195   9.939
   32        0.439   0.305   9.195   9.939
   33        0.439   0.305   9.195   9.939
   34        0.439   0.305   9.195   9.939
   35        0.454   0.291   9.195   9.940
   36        0.854   0.847   8.061   9.761
   37        1.026   1.143   0.000   2.169
tot         17.426  13.685 329.552 360.663

  FORCE on cell =-STRESS in cart. coord.  units (eV):
  Direction    XX          YY          ZZ          XY          YZ          ZX
  Alpha Z   798.50207   798.50207   798.50207
  Ewald  225223.96079225223.96035************     0.00039     0.00011     0.00018
  Hartree237951.43172237951.43169************     0.00004     0.00005     0.00007
  E(xc)   -2305.90135 -2305.90086 -2310.24478    -0.00042    -0.00004    -0.00006
  Local  ************************476734.58176     0.01854    -0.00055    -0.00091
  n-local  -744.88078  -730.35483  -748.75594     8.00595    -0.07527     0.32340
  augment  3360.03167  3360.05185  3369.90582    -0.01748     0.00032     0.00058
  Kinetic  3332.02470  3332.68979  3341.05539     2.05168     2.03349    -1.33736
  Fock        0.00000     0.00000     0.00000     0.00000     0.00000     0.00000
  Total      -2.28521    -2.28521     0.92662     0.00000     0.00000    -0.00000
  in kB      -2.99983    -2.99983     1.21638     0.00000     0.00000    -0.00000

 VOLUME and BASIS-vectors are now :
  energy-cutoff  :      500.00
  volume of cell :     1220.51
      direct lattice vectors                 reciprocal lattice vectors
     7.696786404  0.000000000  0.000000000     0.129924354 -0.075011849  0.000000000
     3.848392758  6.665612809  0.000000000     0.000000000  0.150023716  0.000000000
     0.000000000  0.000000000 23.789778673     0.000000000  0.000000000  0.042034859

  length of vectors
     7.696786404  7.696786404 23.789778673     0.150023716  0.150023716  0.042034859

 FORCES acting on ions
    electron-ion (+dipol)            ewald-force                    non-local-force                 convergence-correction
   -.423E-04 -.197E-06 0.374E+04   0.580E-04 -.441E-05 -.374E+04   0.181E-17 -.154E-18 -.250E+01   -.327E-03 -.156E-03 -.114E+00
   -.137E+00 0.823E-02 0.374E+04   0.118E+00 0.711E-01 -.374E+04   0.389E-01 0.367E-01 -.196E+01   -.144E-01 -.965E-01 -.114E+00
   0.137E+00 0.826E-02 0.374E+04   -.118E+00 0.711E-01 -.374E+04   -.389E-01 0.367E-01 -.196E+01   0.153E-01 -.940E-01 -.113E+00
   -.613E-01 -.123E+00 0.374E+04   0.121E+00 0.668E-01 -.374E+04   0.512E-01 0.154E-01 -.196E+01   -.907E-01 0.357E-01 -.114E+00
   -.631E-04 -.419E-05 0.374E+04   0.116E-03 -.101E-04 -.374E+04   0.212E-17 0.206E-17 -.198E+01   0.121E-01 0.738E-02 -.836E-01
   0.613E-01 -.123E+00 0.374E+04   -.121E+00 0.666E-01 -.374E+04   -.512E-01 0.154E-01 -.196E+01   0.892E-01 0.368E-01 -.113E+00
   0.756E-01 0.114E+00 0.374E+04   0.244E-02 -.138E+00 -.374E+04   0.123E-01 -.521E-01 -.196E+01   -.738E-01 0.602E-01 -.113E+00
   -.755E-01 0.114E+00 0.374E+04   -.271E-02 -.138E+00 -.374E+04   -.123E-01 -.521E-01 -.196E+01   0.772E-01 0.588E-01 -.113E+00
   -.144E-03 -.333E-04 0.374E+04   0.263E-03 0.206E-04 -.374E+04   0.837E-18 0.183E-17 -.216E+01   -.131E-01 -.675E-02 -.706E-01
   0.198E+01 0.114E+01 0.128E+04   -.162E+01 -.933E+00 -.128E+04   -.269E+00 -.155E+00 -.988E+00   -.116E+00 -.667E-01 0.976E-01
   -.897E-04 -.155E+01 0.127E+04   0.191E-03 0.161E+01 -.127E+04   -.696E-08 0.105E+00 -.501E+00   0.118E-01 -.184E+00 0.127E+00
   -.198E+01 0.114E+01 0.128E+04   0.162E+01 -.933E+00 -.128E+04   0.269E+00 -.155E+00 -.988E+00   0.114E+00 -.661E-01 0.967E-01
   -.134E+01 0.774E+00 0.127E+04   0.139E+01 -.805E+00 -.127E+04   0.906E-01 -.523E-01 -.501E+00   -.153E+00 0.103E+00 0.127E+00
   0.134E+01 0.774E+00 0.127E+04   -.139E+01 -.805E+00 -.127E+04   -.906E-01 -.523E-01 -.501E+00   0.176E+00 0.101E+00 0.124E+00
   -.140E-03 -.149E+00 0.128E+04   0.298E-03 0.771E-01 -.128E+04   -.709E-09 0.107E-01 -.707E+00   -.298E-02 0.510E-01 0.111E+00
   -.890E-04 -.229E+01 0.128E+04   0.186E-03 0.187E+01 -.128E+04   -.207E-07 0.310E+00 -.988E+00   -.117E-02 0.131E+00 0.967E-01
   -.129E+00 0.744E-01 0.128E+04   0.668E-01 -.383E-01 -.128E+04   0.923E-02 -.533E-02 -.707E+00   0.434E-01 -.281E-01 0.111E+00
   0.129E+00 0.744E-01 0.128E+04   -.670E-01 -.383E-01 -.128E+04   -.923E-02 -.533E-02 -.707E+00   -.418E-01 -.258E-01 0.113E+00
   -.512E-04 0.733E+00 -.121E+04   0.684E-04 -.703E+00 0.121E+04   0.438E-08 -.658E-01 0.535E+00   0.106E-02 0.281E-02 0.448E-02
   -.244E+02 -.141E+02 -.121E+04   0.249E+02 0.144E+02 0.121E+04   -.301E+00 -.174E+00 0.826E+00   -.248E+00 -.143E+00 -.104E-01
   0.244E+02 -.141E+02 -.121E+04   -.249E+02 0.144E+02 0.121E+04   0.301E+00 -.174E+00 0.826E+00   0.227E+00 -.146E+00 -.109E-01
   -.135E+02 0.778E+01 -.121E+04   0.133E+02 -.765E+01 0.121E+04   0.337E+00 -.195E+00 0.110E+01   -.911E-01 0.658E-01 0.744E-01
   -.842E-04 0.281E+02 -.121E+04   0.147E-03 -.287E+02 0.121E+04   -.231E-07 0.347E+00 0.826E+00   -.139E-01 0.268E+00 -.110E-01
   0.135E+02 0.778E+01 -.121E+04   -.133E+02 -.765E+01 0.121E+04   -.337E+00 -.195E+00 0.110E+01   0.115E+00 0.654E-01 0.745E-01
   -.635E+00 -.366E+00 -.121E+04   0.609E+00 0.351E+00 0.121E+04   0.570E-01 0.329E-01 0.535E+00   -.418E-02 -.240E-02 0.406E-02
   0.635E+00 -.366E+00 -.121E+04   -.609E+00 0.351E+00 0.121E+04   -.570E-01 0.329E-01 0.535E+00   0.331E-02 -.281E-03 0.455E-02
   -.123E-03 -.156E+02 -.121E+04   0.245E-03 0.153E+02 0.121E+04   -.259E-07 0.390E+00 0.110E+01   0.113E-01 -.112E+00 0.745E-01
   -.369E-04 0.171E-04 -.367E+04   0.392E-04 -.333E-04 0.367E+04   0.350E-17 -.220E-17 0.214E+01   -.146E-03 -.325E-04 0.109E+00
   -.926E+01 -.130E+02 -.368E+04   0.851E+01 0.116E+02 0.367E+04   0.704E+00 0.139E+01 0.235E+01   -.948E-01 -.209E+00 0.138E+00
   0.926E+01 -.130E+02 -.368E+04   -.851E+01 0.116E+02 0.367E+04   -.704E+00 0.139E+01 0.235E+01   0.953E-01 -.207E+00 0.138E+00
   -.159E+02 -.151E+01 -.368E+04   0.143E+02 0.158E+01 0.367E+04   0.155E+01 -.847E-01 0.235E+01   -.228E+00 0.222E-01 0.138E+00
   0.159E+02 -.151E+01 -.368E+04   -.143E+02 0.158E+01 0.367E+04   -.155E+01 -.847E-01 0.235E+01   0.228E+00 0.229E-01 0.140E+00
   -.665E+01 0.145E+02 -.368E+04   0.578E+01 -.132E+02 0.367E+04   0.850E+00 -.130E+01 0.235E+01   -.132E+00 0.186E+00 0.138E+00
   0.665E+01 0.145E+02 -.368E+04   -.578E+01 -.132E+02 0.367E+04   -.850E+00 -.130E+01 0.235E+01   0.134E+00 0.186E+00 0.140E+00
   -.163E-03 -.317E-04 -.368E+04   0.257E-03 0.305E-05 0.367E+04   -.650E-17 0.697E-18 0.224E+01   -.124E-01 -.633E-02 0.863E-01
   -.313E-04 -.392E-04 -.318E+04   0.123E-03 0.248E-04 0.318E+04   -.283E-17 -.387E-17 -.335E+01   0.229E-02 0.140E-02 -.151E+00
   0.531E-04 -.232E-04 -.163E+04   0.109E-04 0.502E-05 0.164E+04   0.329E-18 0.699E-18 -.144E+02   0.643E-03 0.387E-03 -.566E-01
   -.122E-03 -.419E-05 0.157E+02   -.460E-13 -.204E-12 0.157E-10   -.900E-17 -.247E-17 -.168E+02   0.258E-01 0.119E-01 0.108E+01

 POSITION                                       TOTAL-FORCE (eV/Angst)
      0.00000      0.00000      5.37156        -0.000000      0.000000      0.014777
      2.56560      0.00000      5.37156         0.006038      0.020568      0.064065
      5.13119      0.00000      5.37156        -0.006038      0.020568      0.064065
      1.28280      2.22187      5.37156         0.020831     -0.005055      0.064065
      3.84839      2.22187      5.37156        -0.000000     -0.000000      0.063584
      6.41399      2.22187      5.37156        -0.020831     -0.005055      0.064065
      2.56560      4.44374      5.37156         0.014793     -0.015513      0.064065
      5.13119      4.44374      5.37156        -0.014793     -0.015513      0.064065
      7.69679      4.44374      5.37156        -0.000000     -0.000000      0.054461
      1.28280      0.74062      7.46636        -0.016798     -0.009698     -0.079966
      3.84839      0.74062      7.46636         0.000000     -0.024563     -0.074089
      6.41399      0.74062      7.46636         0.016798     -0.009698     -0.079966
      2.56560      2.96249      7.46636        -0.021272      0.012282     -0.074089
      5.13119      2.96249      7.46636         0.021272      0.012282     -0.074089
      7.69679      2.96249      7.46636         0.000000     -0.010719     -0.060757
      3.84839      5.18437      7.46636        -0.000000      0.019397     -0.079966
      6.41399      5.18437      7.46636        -0.009283      0.005359     -0.060757
      8.97958      5.18437      7.46636         0.009283      0.005359     -0.060757
      7.69679      1.48680      9.55287         0.000000     -0.032208     -0.018136
      2.54973      1.47208      9.52995        -0.016762     -0.009677     -0.235790
      5.14706      1.47208      9.52995         0.016762     -0.009677     -0.235790
      8.97744      3.70436      9.55084         0.012360     -0.007136      0.004636
      3.84839      3.72144      9.52995        -0.000000      0.019355     -0.235790
      6.41613      3.70436      9.55084        -0.012360     -0.007136      0.004636
     10.25757      5.92221      9.55287         0.027893      0.016104     -0.018136
      5.13600      5.92221      9.55287        -0.027893      0.016104     -0.018136
      7.69679      5.92251      9.55084        -0.000000      0.014272      0.004636
      0.00000      0.00000     11.61595        -0.000000      0.000000      0.001534
      6.40108      6.64688     11.64473        -0.140998     -0.260888     -0.071088
      8.99249      6.64688     11.64473         0.140998     -0.260888     -0.071088
      8.95691      2.22006     11.64473        -0.296435      0.008336     -0.071088
      6.43666      2.22006     11.64473         0.296435      0.008336     -0.071088
     10.25261      4.46428     11.64473        -0.155437      0.252552     -0.071088
      5.14096      4.46428     11.64473         0.155437      0.252552     -0.071088
      7.69679      4.44374     11.61500        -0.000000     -0.000000      0.016321
      3.84839      2.22187     11.65010        -0.000000      0.000000      1.268322
      3.84839      2.22187     13.43125        -0.000000     -0.000000      0.015444
    total drift:                                0.025676      0.011847     -0.011072

  FREE ENERGIE OF THE ION-ELECTRON SYSTEM (eV)
  free  energy   TOTEN  =      -134.50423721 eV

  energy  without entropy=     -134.50423721  energy(sigma->0) =     -134.50423721

 stress matrix after NEB project (eV)
     -2.28521      0.00000     -0.00000
      0.00000     -2.28521     -0.00000
     -0.00000      0.00000      0.92662
  FORCES: max atom, RMS     0.015444    0.002539
  FORCE total and by dimension    0.015444    0.015444
  Stress total and by dimension    3.361990    2.285209
|           W    W    AA    RRRRR   N    N  II  N    N   GGGG   !!!           |
|           W    W   A  A   R    R  NN   N  II  NN   N  G    G  !!!           |
|           W    W  A    A  R    R  N N  N  II  N N  N  G       !!!           |
|           W WW W  AAAAAA  RRRRR   N  N N  II  N  N N  G  GGG   !            |
|           WW  WW  A    A  R   R   N   NN  II  N   NN  G    G                |
|           W    W  A    A  R    R  N    N  II  N    N   GGGG   !!!           |
|     Tetrahedron method does not include variations of the Fermi             |
|     occupations, so forces and stress will be inaccurate. We suggest        |
|     using a different smearing scheme ISMEAR = 1 or 2 for metals in         |
|     relaxations.                                                            |

 total charge

# of ion       s       p       d       tot
    1        0.448   0.283   9.190   9.921
    2        0.449   0.284   9.187   9.921
    3        0.449   0.284   9.187   9.921
    4        0.449   0.284   9.187   9.921
    5        0.449   0.286   9.186   9.920
    6        0.449   0.284   9.187   9.921
    7        0.449   0.284   9.187   9.921
    8        0.449   0.284   9.187   9.921
    9        0.447   0.285   9.187   9.919
   10        0.443   0.371   9.179   9.993
   11        0.441   0.372   9.180   9.994
   12        0.443   0.371   9.179   9.993
   13        0.441   0.372   9.180   9.994
   14        0.441   0.372   9.180   9.994
   15        0.440   0.369   9.181   9.990
   16        0.443   0.371   9.179   9.993
   17        0.440   0.369   9.181   9.990
   18        0.440   0.369   9.181   9.990
   19        0.444   0.375   9.180   9.998
   20        0.450   0.384   9.180  10.014
   21        0.450   0.384   9.180  10.014
   22        0.438   0.372   9.182   9.991
   23        0.450   0.384   9.180  10.014
   24        0.438   0.372   9.182   9.991
   25        0.444   0.375   9.180   9.998
   26        0.444   0.375   9.180   9.998
   27        0.438   0.372   9.182   9.991
   28        0.457   0.290   9.195   9.942
   29        0.439   0.305   9.195   9.939
   30        0.439   0.305   9.195   9.939
   31        0.439   0.305   9.195   9.939
   32        0.439   0.305   9.195   9.939
   33        0.439   0.305   9.195   9.939
   34        0.439   0.305   9.195   9.939
   35        0.454   0.291   9.195   9.940
   36        0.854   0.847   8.061   9.761
   37        1.026   1.143   0.000   2.169
tot         17.426  13.685 329.552 360.663

 BZINTS: Fermi energy:   -0.372548;  399.000000 electrons
         Band energy:-0.130529E+04;  BLOECHL correction:   -0.076201