 vasp.6.2.0 18Jan21 (build Jun 12 2021 23:27:24) complex

 executed on             LinuxIFC date 2022.05.27  05:24:11

 INCAR:
   ISMEAR = -5
   SIGMA = 0.1
   ISPIN = 1
   EDIFF = 1.d-5
   EDIFFG = -0.01
   NSW = 0
   NELM = 150
   ENCUT = 500
   ISIF = 2
   IBRION = 2
   LREAL = Auto
   ALGO = Fast
   ICHARG = 11
   LORBIT = 10
   LCHARG = .F.
   LWAVE = .F.

 POTCAR:    PAW_PBE Au 04Oct2007
 POTCAR:    PAW_PBE Pt 04Feb2005
 POTCAR:    PAW_PBE C 08Apr2002
 POTCAR:    PAW_PBE O 08Apr2002
|           W    W    AA    RRRRR   N    N  II  N    N   GGGG   !!!           |
|           W    W   A  A   R    R  NN   N  II  NN   N  G    G  !!!           |
|           W    W  A    A  R    R  N N  N  II  N N  N  G       !!!           |
|           W WW W  AAAAAA  RRRRR   N  N N  II  N  N N  G  GGG   !            |
|           WW  WW  A    A  R   R   N   NN  II  N   NN  G    G                |
|           W    W  A    A  R    R  N    N  II  N    N   GGGG   !!!           |
|     For optimal performance we recommend to set                             |
|       NCORE = 2 up to number-of-cores-per-socket                            |
|     This setting can greatly improve the performance of VASP for DFT.       |
|     The default, NCORE=1 might be grossly inefficient on modern             |
|     multi-core architectures or massively parallel machines. Do your        |
|     Unfortunately you need to use the default for GW and RPA                |
|     calculations (for HF NCORE is supported but not extensively tested      |
|     yet).                                                                   |

 POTCAR:    PAW_PBE Au 04Oct2007
   VRHFIN =Au: s1d10

   TITEL  = PAW_PBE Au 04Oct2007
   POMASS =  196.966; ZVAL   =   11.000    mass and valenz
   ENMAX  =  229.943; ENMIN  =  172.457 eV

 POTCAR:    PAW_PBE Pt 04Feb2005
   VRHFIN =Pt: s1d9

   TITEL  = PAW_PBE Pt 04Feb2005
   POMASS =  195.080; ZVAL   =   10.000    mass and valenz
   ENMAX  =  230.283; ENMIN  =  172.712 eV

 POTCAR:    PAW_PBE C 08Apr2002
   VRHFIN =C: s2p2

   TITEL  = PAW_PBE C 08Apr2002
   POMASS =   12.011; ZVAL   =    4.000    mass and valenz
   ENMAX  =  400.000; ENMIN  =  300.000 eV

 POTCAR:    PAW_PBE O 08Apr2002
   VRHFIN =O: s2p4

   TITEL  = PAW_PBE O 08Apr2002
   POMASS =   16.000; ZVAL   =    6.000    mass and valenz
   ENMAX  =  400.000; ENMIN  =  300.000 eV

 Optimization of the real space projectors (new method)

 maximal supplied QI-value         = 15.12
 optimisation between [QCUT,QGAM] = [ 11.34, 22.83] = [ 36.00,145.93] Ry
 Optimized for a Real-space Cutoff    1.39 Angstroem

   l    n(q)    QCUT    max X(q) W(low)/X(q) W(high)/X(q)  e(spline)
   2      9    11.338    60.898    0.39E-03    0.42E-03    0.21E-06
   2      9    11.338    58.894    0.40E-03    0.42E-03    0.22E-06
   0      9    11.338   109.617    0.13E-03    0.20E-04    0.13E-06
   0      9    11.338    75.026    0.13E-03    0.20E-04    0.13E-06
   1      9    11.338    16.344    0.33E-04    0.24E-03    0.18E-06
   1      9    11.338    10.160    0.26E-04    0.19E-03    0.15E-06
 Optimization of the real space projectors (new method)

[...]

   l    n(q)    QCUT    max X(q) W(low)/X(q) W(high)/X(q)  e(spline)
   0      7    11.310   115.676    0.43E-03    0.13E-02    0.19E-06
   0      7    11.310    87.132    0.43E-03    0.13E-02    0.18E-06
   1      6    11.310     4.429    0.42E-03    0.74E-03    0.11E-06
   1      6    11.310     2.733    0.34E-03    0.55E-03    0.92E-07
 Optimization of the real space projectors (new method)

 maximal supplied QI-value         = 24.76
 optimisation between [QCUT,QGAM] = [ 11.39, 22.77] = [ 36.31,145.25] Ry
 Optimized for a Real-space Cutoff    1.00 Angstroem

   l    n(q)    QCUT    max X(q) W(low)/X(q) W(high)/X(q)  e(spline)
   0      7    11.387    20.381    0.39E-03    0.13E-02    0.15E-06
   0      7    11.387    15.268    0.42E-03    0.14E-02    0.17E-06
   1      6    11.387     5.964    0.41E-03    0.11E-02    0.17E-06
   1      6    11.387     5.382    0.39E-03    0.87E-03    0.15E-06
  PAW_PBE Au 04Oct2007                  :
  PAW_PBE Pt 04Feb2005                  :
  PAW_PBE C 08Apr2002                   :
  PAW_PBE O 08Apr2002                   :

 POSCAR: Au-Pt-CO
  positions in direct lattice
  velocities in cartesian coordinates
 exchange correlation table for  LEXCH =        8
   RHO(1)=    0.500       N(1)  =     2000
   RHO(2)=  100.500       N(2)  =     4000

 VTST: version 3.2, (02/03/18)

 CHAIN: initializing optimizer

 OPT: Using VASP Conjugate-Gradient optimizer
 CHAIN: Read ICHAIN            0

 POSCAR: Au-Pt-CO
  positions in direct lattice
  velocities in cartesian coordinates

 ion  position               nearest neighbor table
   1  0.000  0.000  0.238-  16 2.94  12 2.94   6 2.94   8 2.94   7 2.94   3 2.94  10 2.94   4 2.94
                             2 2.94
   2  0.333  0.000  0.238-   9 2.94  11 2.94  17 2.94  10 2.94   8 2.94   4 2.94   5 2.94   1 2.94
                             3 2.94
   3  0.667  0.000  0.238-   7 2.94  18 2.94  12 2.94   1 2.94  11 2.94   5 2.94   6 2.94   9 2.94
                             2 2.94
   4  0.000  0.333  0.238-  10 2.94   6 2.94   5 2.94  13 2.94   2 2.94  15 2.94   9 2.94   1 2.94
                             7 2.94
   5  0.333  0.333  0.238-  13 2.94   7 2.94  11 2.94   4 2.94   2 2.94  14 2.94   3 2.94   8 2.94
                             6 2.94
   6  0.667  0.333  0.238-  15 2.94  14 2.94   1 2.94  12 2.94   4 2.94   9 2.94   8 2.94   3 2.94
                             5 2.94
   7  0.000  0.667  0.238-  18 2.94   3 2.94  16 2.94   5 2.94   1 2.94  13 2.94   8 2.94   4 2.94
                             9 2.94
   8  0.333  0.667  0.238-   9 2.94  17 2.94   1 2.94   2 2.94  14 2.94  16 2.94   6 2.94   7 2.94
                             5 2.94
   9  0.667  0.667  0.238-   2 2.94   8 2.94  17 2.94   6 2.94  15 2.94   4 2.94   3 2.94  18 2.94
                             7 2.94
  10  0.111  0.111  0.346-  20 2.91  26 2.93  19 2.93  11 2.94  17 2.94   2 2.94   4 2.94   1 2.94
                            12 2.94  16 2.94  13 2.94  15 2.94
  11  0.444  0.111  0.346-  20 2.92  21 2.92  27 2.93  13 2.94   2 2.94  10 2.94  17 2.94   5 2.94
                             3 2.94  18 2.94  14 2.94  12 2.94
  12  0.778  0.111  0.346-  21 2.91  25 2.93  19 2.93  16 2.94  18 2.94   1 2.94  14 2.94  15 2.94
                             3 2.94   6 2.94  10 2.94  11 2.94
  13  0.111  0.444  0.346-  23 2.92  20 2.92  22 2.93   5 2.94  18 2.94  11 2.94   7 2.94   4 2.94
                            16 2.94  10 2.94  14 2.94  15 2.94
  14  0.444  0.444  0.346-  21 2.92  23 2.92  24 2.93  15 2.94   6 2.94  12 2.94   8 2.94  17 2.94
                             5 2.94  16 2.94  13 2.94  11 2.94
  15  0.778  0.444  0.346-  24 2.93  22 2.93  19 2.93  14 2.94   6 2.94  17 2.94  12 2.94   9 2.94
                             4 2.94  10 2.94  13 2.94  18 2.94
  16  0.111  0.778  0.346-  23 2.91  25 2.93  26 2.93  18 2.94  12 2.94   7 2.94   1 2.94   8 2.94
                            13 2.94  10 2.94  14 2.94  17 2.94
  17  0.444  0.778  0.346-  27 2.93  24 2.93  26 2.93   9 2.94  15 2.94   2 2.94  10 2.94  11 2.94
                             8 2.94  14 2.94  16 2.94  18 2.94
  18  0.778  0.778  0.346-  22 2.93  27 2.93  25 2.93  16 2.94   7 2.94  13 2.94  12 2.94   3 2.94
                            11 2.94   9 2.94  15 2.94  17 2.94
  19  0.889  0.222  0.454-  21 2.93  20 2.93  15 2.93  10 2.93  12 2.93  24 2.94  22 2.94  26 2.94
                            25 2.94  28 2.96  32 2.96  31 2.96
  20  0.221  0.221  0.453-  36 2.82  10 2.91  11 2.92  13 2.92  26 2.93  19 2.93  27 2.94  22 2.94
                            23 2.96  21 2.96  29 2.96  31 2.96
  21  0.557  0.221  0.453-  36 2.82  12 2.91  14 2.92  11 2.92  25 2.93  19 2.93  24 2.94  27 2.94
                            20 2.96  23 2.96  30 2.96  32 2.96
  22  0.888  0.556  0.454-  18 2.93  15 2.93  24 2.93  27 2.93  13 2.93  25 2.94  19 2.94  23 2.94
                            20 2.94  35 2.96  33 2.96  31 2.96
  23  0.221  0.557  0.453-  36 2.82  16 2.91  13 2.92  14 2.92  25 2.93  26 2.93  22 2.94  24 2.94
                            20 2.96  21 2.96  33 2.96  34 2.96
  24  0.556  0.556  0.454-  15 2.93  17 2.93  27 2.93  22 2.93  14 2.93  26 2.94  19 2.94  21 2.94
                            23 2.94  35 2.96  32 2.96  34 2.96
  25  0.889  0.889  0.454-  23 2.93  21 2.93  18 2.93  16 2.93  12 2.93  22 2.94  27 2.94  19 2.94
                            26 2.94  28 2.96  33 2.96  30 2.96
  26  0.222  0.889  0.454-  20 2.93  23 2.93  17 2.93  10 2.93  16 2.93  27 2.94  24 2.94  19 2.94
                            25 2.94  28 2.96  29 2.96  34 2.96
  27  0.556  0.888  0.454-  17 2.93  18 2.93  24 2.93  22 2.93  11 2.93  26 2.94  25 2.94  20 2.94
                            21 2.94  35 2.96  29 2.96  30 2.96
  28  0.000  0.000  0.563-  34 2.95  32 2.95  33 2.95  30 2.95  31 2.95  29 2.95  25 2.96  19 2.96
                            26 2.96
  29  0.333  0.002  0.563-  30 2.92  31 2.92  36 2.93  35 2.95  28 2.95  27 2.96  20 2.96  26 2.96
                            34 2.98
  30  0.664  0.002  0.563-  29 2.92  32 2.92  36 2.93  35 2.95  28 2.95  27 2.96  21 2.96  25 2.96
                            33 2.98
  31  0.002  0.333  0.563-  33 2.92  29 2.92  36 2.93  35 2.95  28 2.95  22 2.96  20 2.96  19 2.96
                            32 2.98
  32  0.664  0.333  0.563-  34 2.92  30 2.92  36 2.93  35 2.95  28 2.95  24 2.96  21 2.96  19 2.96
                            31 2.98
  33  0.002  0.664  0.563-  31 2.92  34 2.92  36 2.93  35 2.95  28 2.95  22 2.96  23 2.96  25 2.96
                            30 2.98
  34  0.333  0.664  0.563-  32 2.92  33 2.92  36 2.93  35 2.95  28 2.95  24 2.96  23 2.96  26 2.96
                            29 2.98
  35  0.667  0.667  0.563-  29 2.95  34 2.95  32 2.95  31 2.95  30 2.95  33 2.95  24 2.96  27 2.96
                            22 2.96
  36  0.333  0.333  0.554-  37 1.87  20 2.82  23 2.82  21 2.82  33 2.93  31 2.93  29 2.93  30 2.93
                            34 2.93  32 2.93
  37  0.333  0.333  0.638-  38 1.16  36 1.87
  38  0.333  0.333  0.690-  37 1.16

  LATTYP: Found a hexagonal cell.
 ALAT       =     8.8135128021
 C/A-ratio  =     2.5184286595

  Lattice vectors:

 A1 = (  -4.4067569092,  -7.6327256898,   0.0000000000)
 A2 = (   8.8135128021,   0.0000000000,   0.0000000000)
 A3 = (   0.0000000000,   0.0000000000,  22.1962032318)

Analysis of symmetry for initial positions (statically):
 Subroutine PRICEL returns:
 Original cell was already a primitive cell.

 Routine SETGRP: Setting up the symmetry group for a
 hexagonal supercell.

 Subroutine GETGRP returns: Found  6 space group operations
 (whereof  6 operations were pure point group operations)
 out of a pool of 24 trial point group operations.

The static configuration has the point symmetry C_3v.

Analysis of symmetry for dynamics (positions and initial velocities):
 Subroutine PRICEL returns:
 Original cell was already a primitive cell.

[...]

The dynamic configuration has the point symmetry C_3v.

Analysis of constrained symmetry for selective dynamics:
 Subroutine PRICEL returns:
[...]
     33      -4.7325      2.00000
     34      -4.6538      2.00000
     35      -4.6105      2.00000
     36      -4.6052      2.00000
     37      -4.5794      2.00000
     38      -4.5680      2.00000
     39      -4.5551      2.00000
     40      -4.4969      2.00000
     41      -4.4898      2.00000
     42      -4.3542      2.00000
     43      -4.3524      2.00000
     44      -4.2874      2.00000
     45      -4.2243      2.00000
     46      -4.2211      2.00000
     47      -4.1772      2.00000
     48      -4.1658      2.00000
     49      -4.1100      2.00000
     50      -4.1073      2.00000
     51      -4.0071      2.00000
     52      -3.9766      2.00000
     53      -3.9482      2.00000
     54      -3.9458      2.00000
     55      -3.9345      2.00000
     56      -3.9284      2.00000
     57      -3.9154      2.00000
     58      -3.8687      2.00000
     59      -3.8354      2.00000
     60      -3.7989      2.00000
[...]
    238       6.1949      0.00000
    239       6.4882      0.00000
    240       6.5364      0.00000
    241       6.5691      0.00000
    242       6.6062      0.00000
    243       6.6696      0.00000
    244       6.7824      0.00000
    245       6.8498      0.00000
    246       6.9364      0.00000
    247       6.9826      0.00000
    248       6.9949      0.00000
    249       7.3201      0.00000
    250       7.3567      0.00000
    251       7.4175      0.00000
    252       7.6163      0.00000

 soft charge-density along one line, spin component           1
         0         1         2         3         4         5         6         7         8         9
 total charge-density along one line

------------------------ aborting loop because EDIFF is reached ----------------------------------------

 total charge

# of ion       s       p       d       tot
    1        0.541   0.239   8.767   9.547
    2        0.545   0.240   8.766   9.551
    3        0.545   0.240   8.766   9.551
    4        0.545   0.240   8.766   9.551
    5        0.543   0.241   8.765   9.549
    6        0.545   0.240   8.766   9.551
    7        0.545   0.240   8.766   9.551
    8        0.545   0.240   8.766   9.551
    9        0.540   0.240   8.769   9.548
   10        0.520   0.309   8.772   9.601
   11        0.523   0.306   8.779   9.609
   12        0.520   0.309   8.772   9.601
   13        0.523   0.306   8.779   9.609
   14        0.523   0.306   8.779   9.609
   15        0.513   0.309   8.775   9.598
   16        0.520   0.309   8.772   9.601
   17        0.513   0.309   8.775   9.598
   18        0.513   0.309   8.775   9.598
   19        0.519   0.302   8.776   9.597
   20        0.532   0.324   8.760   9.616
   21        0.532   0.324   8.760   9.616
   22        0.512   0.307   8.774   9.592
   23        0.532   0.324   8.760   9.616
   24        0.512   0.307   8.774   9.592
   25        0.519   0.302   8.776   9.597
   26        0.519   0.302   8.776   9.597
   27        0.512   0.307   8.774   9.592
   28        0.542   0.232   8.768   9.542
   29        0.535   0.239   8.774   9.548
   30        0.535   0.239   8.774   9.548
   31        0.535   0.239   8.774   9.548
   32        0.535   0.239   8.774   9.548
   33        0.535   0.239   8.774   9.548
   34        0.535   0.239   8.774   9.548
   35        0.542   0.232   8.770   9.544
   36        0.650   0.637   8.082   9.369
   37        0.956   1.564   0.000   2.521
   38        1.618   3.525   0.000   5.143
tot         21.774  15.355 315.068 352.198

  FORCE on cell =-STRESS in cart. coord.  units (eV):
  Direction    XX          YY          ZZ          XY          YZ          ZX
  Alpha Z  1042.88234  1042.88234  1042.88234
  Ewald  118062.64558118062.64601************    -0.00033    -0.00008    -0.00012
  Hartree127093.73291127093.73292************     0.00001    -0.00002    -0.00003
  E(xc)   -1817.35239 -1817.35246 -1822.63093     0.00006    -0.00001    -0.00001
  Local  ************************257279.46467     0.00215     0.00001    -0.00003
  n-local   -95.55922   -47.84075   -56.82307    23.27465    -1.27441     1.27358
  augment  2428.66772  2428.66933  2435.15054    -0.00139     0.00002     0.00007
  Kinetic  5693.39158  5702.33137  5698.11827     5.26529     0.20871     0.34281
  Fock        0.00000     0.00000     0.00000     0.00000     0.00000     0.00000
  Total     -17.12652   -17.12652     2.39203    -0.00000     0.00000     0.00000
  in kB     -18.37691   -18.37691     2.56667    -0.00000     0.00000     0.00000

 VOLUME and BASIS-vectors are now :
  energy-cutoff  :      500.00
  volume of cell :     1493.16
      direct lattice vectors                 reciprocal lattice vectors
     8.813512802  0.000000000  0.000000000     0.113462137 -0.065507406  0.000000000
     4.406756909  7.632725690  0.000000000     0.000000000  0.131014796  0.000000000
     0.000000000  0.000000000 22.196203232     0.000000000  0.000000000  0.045052750

  length of vectors
     8.813512802  8.813512802 22.196203232     0.131014796  0.131014796  0.045052750

 FORCES acting on ions
    electron-ion (+dipol)            ewald-force                    non-local-force                 convergence-correction
   -.196E-04 -.162E-04 0.250E+04   0.519E-04 0.433E-04 -.250E+04   0.303E-17 0.230E-17 -.109E+01   -.202E-03 -.131E-03 -.540E+00
   0.205E+00 0.407E+00 0.250E+04   -.247E+00 -.380E+00 -.250E+04   0.379E-01 0.472E-01 -.355E+00   0.355E-02 -.598E-01 -.588E+00
   -.205E+00 0.407E+00 0.250E+04   0.247E+00 -.380E+00 -.250E+04   -.379E-01 0.472E-01 -.355E+00   -.326E-02 -.579E-01 -.587E+00
   0.455E+00 -.261E-01 0.250E+04   -.452E+00 -.239E-01 -.250E+04   0.598E-01 0.917E-02 -.355E+00   -.500E-01 0.329E-01 -.588E+00
   0.844E-05 -.233E-04 0.250E+04   0.952E-04 0.171E-05 -.250E+04   0.235E-17 -.942E-19 -.272E+00   0.430E-02 0.262E-02 -.565E+00
   -.455E+00 -.261E-01 0.250E+04   0.452E+00 -.239E-01 -.250E+04   -.598E-01 0.917E-02 -.355E+00   0.484E-01 0.339E-01 -.587E+00
   0.250E+00 -.381E+00 0.250E+04   -.206E+00 0.404E+00 -.250E+04   0.220E-01 -.564E-01 -.355E+00   -.517E-01 0.261E-01 -.587E+00
   -.250E+00 -.381E+00 0.250E+04   0.205E+00 0.404E+00 -.250E+04   -.220E-01 -.564E-01 -.355E+00   0.536E-01 0.250E-01 -.587E+00
   0.192E-04 -.416E-04 0.250E+04   0.166E-03 -.201E-04 -.250E+04   -.871E-17 0.236E-17 -.654E+00   -.464E-02 -.240E-02 -.609E+00
   0.402E+01 0.232E+01 0.878E+03   -.358E+01 -.207E+01 -.876E+03   -.305E+00 -.176E+00 -.673E+00   -.892E-01 -.516E-01 -.289E+00
   0.140E-04 0.340E+01 0.880E+03   0.149E-03 -.337E+01 -.880E+03   0.191E-08 0.287E-01 -.365E+00   0.381E-02 -.108E+00 -.287E+00
   -.402E+01 0.232E+01 0.878E+03   0.358E+01 -.207E+01 -.876E+03   0.305E+00 -.176E+00 -.673E+00   0.879E-01 -.501E-01 -.290E+00
   0.295E+01 -.170E+01 0.880E+03   -.292E+01 0.168E+01 -.880E+03   0.248E-01 -.143E-01 -.365E+00   -.915E-01 0.577E-01 -.287E+00
   -.295E+01 -.170E+01 0.880E+03   0.292E+01 0.168E+01 -.880E+03   -.248E-01 -.143E-01 -.365E+00   0.994E-01 0.572E-01 -.287E+00
   0.305E-04 0.383E+00 0.876E+03   0.236E-03 -.377E+00 -.875E+03   -.308E-08 -.463E-01 -.443E+00   -.240E-02 0.319E-01 -.285E+00
   -.215E-04 -.464E+01 0.878E+03   0.163E-03 0.413E+01 -.876E+03   0.235E-07 0.353E+00 -.673E+00   0.300E-03 0.101E+00 -.290E+00
   0.332E+00 -.192E+00 0.876E+03   -.326E+00 0.188E+00 -.875E+03   -.401E-01 0.231E-01 -.443E+00   0.267E-01 -.176E-01 -.285E+00
   -.332E+00 -.192E+00 0.876E+03   0.326E+00 0.188E+00 -.875E+03   0.401E-01 0.231E-01 -.443E+00   -.268E-01 -.157E-01 -.285E+00
   -.410E-04 0.192E+01 -.780E+03   0.527E-04 -.195E+01 0.779E+03   0.104E-08 0.156E-01 0.692E+00   -.361E-03 -.451E-02 0.259E+00
   0.135E+02 0.779E+01 -.743E+03   -.128E+02 -.742E+01 0.743E+03   -.532E+00 -.307E+00 -.589E+00   -.375E-01 -.218E-01 0.363E+00
   -.135E+02 0.779E+01 -.743E+03   0.128E+02 -.742E+01 0.743E+03   0.532E+00 -.307E+00 -.589E+00   0.384E-01 -.196E-01 0.363E+00
   0.554E+01 -.320E+01 -.772E+03   -.565E+01 0.326E+01 0.771E+03   0.218E+00 -.126E+00 0.643E+00   -.677E-01 0.349E-01 0.285E+00
   -.147E-04 -.156E+02 -.743E+03   0.145E-03 0.148E+02 0.743E+03   0.409E-07 0.614E+00 -.589E+00   0.195E-02 0.431E-01 0.363E+00
   -.554E+01 -.320E+01 -.772E+03   0.565E+01 0.326E+01 0.771E+03   -.218E+00 -.126E+00 0.643E+00   0.607E-01 0.351E-01 0.284E+00
   -.167E+01 -.962E+00 -.780E+03   0.169E+01 0.975E+00 0.779E+03   -.135E-01 -.782E-02 0.692E+00   0.558E-02 0.316E-02 0.259E+00
   0.167E+01 -.962E+00 -.780E+03   -.169E+01 0.975E+00 0.779E+03   0.135E-01 -.782E-02 0.692E+00   -.377E-02 0.197E-02 0.259E+00
   0.716E-05 0.639E+01 -.772E+03   0.200E-03 -.653E+01 0.771E+03   0.168E-07 0.252E+00 0.643E+00   -.421E-02 -.762E-01 0.285E+00
   -.122E-04 -.129E-04 -.242E+04   0.283E-04 0.349E-04 0.242E+04   0.413E-19 -.785E-19 0.320E+00   0.127E-02 0.714E-03 0.503E+00
   0.262E+02 0.441E+02 -.239E+04   -.264E+02 -.445E+02 0.239E+04   0.484E-01 0.116E+00 0.599E+00   0.155E-01 0.326E-02 0.488E+00
   -.262E+02 0.441E+02 -.239E+04   0.264E+02 -.445E+02 0.239E+04   -.484E-01 0.116E+00 0.599E+00   -.216E-01 0.543E-02 0.489E+00
   0.512E+02 0.620E+00 -.239E+04   -.517E+02 -.595E+00 0.239E+04   0.125E+00 -.161E-01 0.599E+00   0.107E-01 0.117E-01 0.489E+00
   -.512E+02 0.620E+00 -.239E+04   0.517E+02 -.595E+00 0.239E+04   -.125E+00 -.161E-01 0.599E+00   -.185E-01 0.128E-01 0.488E+00
   0.251E+02 -.447E+02 -.239E+04   -.253E+02 0.451E+02 0.239E+04   0.763E-01 -.100E+00 0.599E+00   -.604E-02 -.214E-01 0.489E+00
   -.251E+02 -.447E+02 -.239E+04   0.253E+02 0.451E+02 0.239E+04   -.763E-01 -.100E+00 0.599E+00   0.188E-02 -.224E-01 0.488E+00
   0.283E-04 -.271E-04 -.242E+04   0.147E-03 -.502E-04 0.242E+04   0.101E-16 -.730E-18 0.396E+00   -.360E-02 -.179E-02 0.499E+00
   0.266E-04 -.186E-04 -.191E+04   0.101E-03 0.891E-05 0.191E+04   -.502E-17 -.353E-17 -.365E+01   0.450E-02 0.270E-02 0.519E+00
   -.479E-05 -.876E-04 -.865E+03   0.134E-04 0.874E-06 0.850E+03   0.948E-20 -.234E-19 0.144E+02   0.146E-02 0.886E-03 0.400E-01
   0.244E-03 -.917E-04 -.152E+04   0.536E-05 0.497E-06 0.158E+04   0.188E-18 0.476E-18 -.611E+02   0.384E-02 0.235E-02 -.134E-01
   -.444E-03 -.926E-03 0.537E+02   0.523E-14 0.125E-12 0.682E-12   0.158E-15 0.101E-16 -.523E+02   -.942E-02 -.465E-02 -.623E+00

 POSITION                                       TOTAL-FORCE (eV/Angst)
      0.00000      0.00000      5.28038        -0.000000      0.000000     -0.032655
      2.93784      0.00000      5.28038        -0.000087      0.015693     -0.038962
      5.87568      0.00000      5.28038         0.000087      0.015693     -0.038962
      1.46892      2.54424      5.28038         0.013547     -0.007922     -0.038962
      4.40676      2.54424      5.28038        -0.000000      0.000000     -0.052070
      7.34459      2.54424      5.28038        -0.013547     -0.007922     -0.038962
      2.93784      5.08848      5.28038         0.013634     -0.007771     -0.038962
      5.87568      5.08848      5.28038        -0.013634     -0.007771     -0.038962
      8.81351      5.08848      5.28038        -0.000000      0.000000     -0.033343
      1.46892      0.84808      7.67911         0.046652      0.026934      0.100092
      4.40676      0.84808      7.67911        -0.000000     -0.049004      0.010002
      7.34459      0.84808      7.67911        -0.046652      0.026934      0.100092
      2.93784      3.39232      7.67911        -0.042439      0.024502      0.010002
      5.87568      3.39232      7.67911         0.042439      0.024502      0.010002
      8.81351      3.39232      7.67911        -0.000000     -0.008032      0.099462
      4.40676      5.93656      7.67911        -0.000000     -0.053869      0.100092
      7.34459      5.93656      7.67911        -0.006956      0.004016      0.099462
     10.28243      5.93656      7.67911         0.006956      0.004016      0.099462
      8.81351      1.69709     10.07334        -0.000000     -0.016084     -0.024276
      2.92757      1.69024     10.04824         0.080994      0.046762     -0.126782
      5.88594      1.69024     10.04824        -0.080994      0.046762     -0.126782
     10.27700      4.24354     10.06671         0.036618     -0.021141     -0.004208
      4.40676      4.25225     10.04824        -0.000000     -0.093524     -0.126782
      7.35003      4.24354     10.06671        -0.036618     -0.021141     -0.004208
     11.75055      6.78418     10.07334         0.013929      0.008042     -0.024276
      5.87648      6.78418     10.07334        -0.013929      0.008042     -0.024276
      8.81351      6.77837     10.06671         0.000000      0.042283     -0.004208
      0.00000      0.00000     12.49905        -0.000000      0.000000     -0.042798
      2.94801      0.01573     12.49317        -0.147142     -0.300806     -0.104440
      5.86551      0.01573     12.49317         0.147142     -0.300806     -0.104440
      1.48763      2.54518     12.49317        -0.334077      0.022974     -0.104440
      7.32589      2.54518     12.49317         0.334077      0.022974     -0.104440
      2.94638      5.07181     12.49317        -0.186934      0.277832     -0.104440
      5.86714      5.07181     12.49317         0.186934      0.277832     -0.104440
      8.81351      5.08848     12.49660        -0.000000      0.000000     -0.004771
      4.40676      2.54424     12.29817        -0.000000      0.000000      0.822816
      4.40676      2.54424     14.16589        -0.000000      0.000000      0.032544
      4.40676      2.54424     15.32533        -0.000000      0.000000      0.007821
    total drift:                               -0.009861     -0.005577      0.762601

  FREE ENERGIE OF THE ION-ELECTRON SYSTEM (eV)
  free  energy   TOTEN  =      -128.72454373 eV

  energy  without entropy=     -128.72454373  energy(sigma->0) =     -128.72454373

 stress matrix after NEB project (eV)
    -17.12652     -0.00000      0.00000
     -0.00000    -17.12652      0.00000
      0.00000      0.00000      2.39203
  FORCES: max atom, RMS     0.032544    0.005430
  FORCE total and by dimension    0.033471    0.032544
  Stress total and by dimension   24.338393   17.126523
|           W    W    AA    RRRRR   N    N  II  N    N   GGGG   !!!           |
|           W    W   A  A   R    R  NN   N  II  NN   N  G    G  !!!           |
|           W    W  A    A  R    R  N N  N  II  N N  N  G       !!!           |
|           W WW W  AAAAAA  RRRRR   N  N N  II  N  N N  G  GGG   !            |
|           WW  WW  A    A  R   R   N   NN  II  N   NN  G    G                |
|           W    W  A    A  R    R  N    N  II  N    N   GGGG   !!!           |
|     Tetrahedron method does not include variations of the Fermi             |
|     occupations, so forces and stress will be inaccurate. We suggest        |
|     using a different smearing scheme ISMEAR = 1 or 2 for metals in         |
|     relaxations.                                                            |

 total charge

# of ion       s       p       d       tot
    1        0.541   0.239   8.767   9.547
    2        0.545   0.240   8.766   9.551
    3        0.545   0.240   8.766   9.551
    4        0.545   0.240   8.766   9.551
    5        0.543   0.241   8.765   9.549
    6        0.545   0.240   8.766   9.551
    7        0.545   0.240   8.766   9.551
    8        0.545   0.240   8.766   9.551
    9        0.540   0.240   8.769   9.548
   10        0.520   0.309   8.772   9.601
   11        0.523   0.306   8.779   9.609
   12        0.520   0.309   8.772   9.601
   13        0.523   0.306   8.779   9.609
   14        0.523   0.306   8.779   9.609
   15        0.513   0.309   8.775   9.598
   16        0.520   0.309   8.772   9.601
   17        0.513   0.309   8.775   9.598
   18        0.513   0.309   8.775   9.598
   19        0.519   0.302   8.776   9.597
   20        0.532   0.324   8.760   9.616
   21        0.532   0.324   8.760   9.616
   22        0.512   0.307   8.774   9.592
   23        0.532   0.324   8.760   9.616
   24        0.512   0.307   8.774   9.592
   25        0.519   0.302   8.776   9.597
   26        0.519   0.302   8.776   9.597
   27        0.512   0.307   8.774   9.592
   28        0.542   0.232   8.768   9.542
   29        0.535   0.239   8.774   9.548
   30        0.535   0.239   8.774   9.548
   31        0.535   0.239   8.774   9.548
   32        0.535   0.239   8.774   9.548
   33        0.535   0.239   8.774   9.548
   34        0.535   0.239   8.774   9.548
   35        0.542   0.232   8.770   9.544
   36        0.650   0.637   8.082   9.369
   37        0.956   1.564   0.000   2.521
   38        1.618   3.525   0.000   5.143
tot         21.774  15.355 315.068 352.198

 BZINTS: Fermi energy:    0.841690;  405.000000 electrons
         Band energy:-0.122658E+04;  BLOECHL correction:   -0.080267