 vasp.6.2.0 18Jan21 (build Jun 12 2021 23:27:24) complex

 executed on             LinuxIFC date 2022.05.26  20:20:42

 INCAR:
   ISMEAR = -5
   SIGMA = 0.1
   ISPIN = 1
   EDIFF = 1.d-5
   EDIFFG = -0.01
   NSW = 0
   NELM = 150
   ENCUT = 500
   ISIF = 2
   IBRION = 2
   LREAL = Auto
   ALGO = Fast
   ICHARG = 11
   LORBIT = 10
   LCHARG = .F.
   LWAVE = .F.

 POTCAR:    PAW_PBE Ag 02Apr2005
 POTCAR:    PAW_PBE Zr_sv 04Jan2005
|           W    W    AA    RRRRR   N    N  II  N    N   GGGG   !!!           |
|           W    W   A  A   R    R  NN   N  II  NN   N  G    G  !!!           |
|           W    W  A    A  R    R  N N  N  II  N N  N  G       !!!           |
|           W WW W  AAAAAA  RRRRR   N  N N  II  N  N N  G  GGG   !            |
|           WW  WW  A    A  R   R   N   NN  II  N   NN  G    G                |
|           W    W  A    A  R    R  N    N  II  N    N   GGGG   !!!           |
|     For optimal performance we recommend to set                             |
|       NCORE = 2 up to number-of-cores-per-socket                            |
|     This setting can greatly improve the performance of VASP for DFT.       |
|     The default, NCORE=1 might be grossly inefficient on modern             |
|     multi-core architectures or massively parallel machines. Do your        |
|     Unfortunately you need to use the default for GW and RPA                |
|     calculations (for HF NCORE is supported but not extensively tested      |
|     yet).                                                                   |

 POTCAR:    PAW_PBE Ag 02Apr2005
   VRHFIN =Ag : s1 d10

   TITEL  = PAW_PBE Ag 02Apr2005
   POMASS =  107.868; ZVAL   =   11.000    mass and valenz
   ENMAX  =  249.844; ENMIN  =  187.383 eV

 POTCAR:    PAW_PBE Zr_sv 04Jan2005
   VRHFIN =Zr: 4s4p5s4d

   TITEL  = PAW_PBE Zr_sv 04Jan2005
   POMASS =   91.224; ZVAL   =   12.000    mass and valenz
   ENMAX  =  229.898; ENMIN  =  172.424 eV

 Optimization of the real space projectors (new method)

 maximal supplied QI-value         = 15.12
 optimisation between [QCUT,QGAM] = [ 11.34, 22.83] = [ 36.00,145.93] Ry
 Optimized for a Real-space Cutoff    1.43 Angstroem

   l    n(q)    QCUT    max X(q) W(low)/X(q) W(high)/X(q)  e(spline)
   2      9    11.338    53.897    0.16E-03    0.20E-03    0.28E-06
   2      9    11.338    52.416    0.16E-03    0.20E-03    0.29E-06
   0     10    11.338   122.045    0.31E-04    0.76E-04    0.15E-06
   0     10    11.338    73.629    0.30E-04    0.72E-04    0.15E-06
   1      9    11.338    15.255    0.20E-03    0.19E-04    0.17E-06
   1      9    11.338     9.562    0.16E-03    0.15E-04    0.14E-06
 Optimization of the real space projectors (new method)

 maximal supplied QI-value         = 15.12
 optimisation between [QCUT,QGAM] = [ 11.34, 22.83] = [ 36.00,145.93] Ry
 Optimized for a Real-space Cutoff    1.47 Angstroem

   l    n(q)    QCUT    max X(q) W(low)/X(q) W(high)/X(q)  e(spline)
   0     10    11.338    12.107    0.38E-04    0.13E-04    0.27E-07
   0     10    11.338     9.948    0.69E-04    0.30E-04    0.38E-07
   1     10    11.338     3.563    0.26E-04    0.18E-04    0.40E-07
   1     10    11.338     4.524    0.25E-03    0.39E-04    0.44E-06
   2      9    11.338    87.261    0.26E-03    0.91E-05    0.26E-06
   2      9    11.338    70.950    0.25E-03    0.91E-05    0.25E-06
  PAW_PBE Ag 02Apr2005                  :
  PAW_PBE Zr_sv 04Jan2005               :

 POSCAR: Ag-Zr
  positions in direct lattice
  velocities in cartesian coordinates
 exchange correlation table for  LEXCH =        8
   RHO(1)=    0.500       N(1)  =     2000
   RHO(2)=  100.500       N(2)  =     4000

 VTST: version 3.2, (02/03/18)

 CHAIN: initializing optimizer

 OPT: Using VASP Conjugate-Gradient optimizer
 CHAIN: Read ICHAIN            0

 POSCAR: Ag-Zr
  positions in direct lattice
  velocities in cartesian coordinates

 ion  position               nearest neighbor table
   1  0.000  0.000  0.238-   2 2.93   8 2.93   7 2.93   6 2.93   4 2.93  12 2.93  16 2.93  10 2.93
                             3 2.93
   2  0.333  0.000  0.238-   1 2.93   8 2.93   9 2.93   3 2.93   4 2.93   5 2.93  10 2.93  17 2.93
                            11 2.93
   3  0.667  0.000  0.238-   9 2.93   2 2.93   5 2.93  11 2.93   7 2.93  18 2.93   1 2.93   6 2.93
                            12 2.93
   4  0.000  0.333  0.238-   5 2.93   6 2.93   2 2.93   1 2.93   7 2.93  13 2.93  15 2.93   9 2.93
                            10 2.93
   5  0.333  0.333  0.238-   4 2.93   3 2.93   7 2.93   2 2.93   8 2.93  14 2.93  13 2.93  11 2.93
                             6 2.93
   6  0.667  0.333  0.238-   4 2.93   9 2.93   1 2.93  15 2.93   8 2.93  12 2.93   3 2.93   5 2.93
                            14 2.93
   7  0.000  0.667  0.238-   8 2.93   1 2.93   5 2.93   3 2.93   4 2.93  16 2.93  18 2.93  13 2.93
                             9 2.93
   8  0.333  0.667  0.238-   7 2.93   1 2.93   2 2.93   9 2.93   5 2.93  16 2.93   6 2.93  17 2.93
                            14 2.93
   9  0.667  0.667  0.238-   3 2.93   2 2.93   8 2.93   6 2.93  17 2.93   4 2.93  15 2.93   7 2.93
                            18 2.93
  10  0.111  0.111  0.346-  20 2.91  19 2.92  26 2.92  12 2.93  16 2.93  15 2.93  17 2.93  13 2.93
                            11 2.93   2 2.93   1 2.93   4 2.93
  11  0.444  0.111  0.346-  21 2.91  20 2.91  14 2.93  17 2.93  18 2.93   3 2.93  12 2.93  13 2.93
                            10 2.93   5 2.93   2 2.93  27 2.93
  12  0.778  0.111  0.346-  21 2.91  25 2.92  19 2.92  10 2.93  16 2.93  18 2.93  15 2.93  11 2.93
                             1 2.93  14 2.93   6 2.93   3 2.93
  13  0.111  0.444  0.346-  20 2.91  23 2.91  15 2.93  14 2.93  18 2.93  10 2.93  11 2.93  16 2.93
                             4 2.93   5 2.93   7 2.93  22 2.93
  14  0.444  0.444  0.346-  23 2.91  21 2.91  13 2.93  11 2.93  16 2.93   5 2.93  12 2.93  17 2.93
                             8 2.93  15 2.93   6 2.93  24 2.93
  15  0.778  0.444  0.346-  19 2.92  13 2.93  10 2.93  12 2.93  17 2.93  18 2.93   4 2.93   6 2.93
                             9 2.93  14 2.93  24 2.93  22 2.93
  16  0.111  0.778  0.346-  23 2.91  26 2.92  25 2.92  18 2.93  12 2.93  10 2.93  14 2.93  17 2.93
                            13 2.93   7 2.93   8 2.93   1 2.93
  17  0.444  0.778  0.346-  26 2.92  11 2.93  10 2.93   9 2.93  18 2.93  15 2.93  16 2.93   2 2.93
                            14 2.93   8 2.93  27 2.93  24 2.93
  18  0.778  0.778  0.346-  25 2.92  16 2.93  12 2.93  13 2.93  11 2.93  17 2.93  15 2.93   7 2.93
                             3 2.93   9 2.93  22 2.93  27 2.93
  19  0.889  0.222  0.453-  10 2.92  12 2.92  15 2.92  26 2.93  25 2.93  20 2.93  21 2.93  24 2.93
                            22 2.93  28 2.93  32 2.97  31 2.97
  20  0.222  0.222  0.453-  13 2.91  11 2.91  10 2.91  36 2.92  21 2.93  23 2.93  27 2.93  22 2.93
                            19 2.93  26 2.93  31 2.97  29 2.97
  21  0.555  0.222  0.453-  11 2.91  14 2.91  12 2.91  36 2.92  20 2.93  23 2.93  27 2.93  24 2.93
                            25 2.93  19 2.93  30 2.97  32 2.97
  22  0.889  0.556  0.454-  24 2.93  27 2.93  23 2.93  20 2.93  18 2.93  15 2.93  13 2.93  25 2.93
                            19 2.93  35 2.94  33 2.95  31 2.95
  23  0.222  0.555  0.453-  14 2.91  13 2.91  16 2.91  36 2.92  21 2.93  20 2.93  22 2.93  24 2.93
                            26 2.93  25 2.93  34 2.97  33 2.97
  24  0.556  0.556  0.454-  27 2.93  22 2.93  23 2.93  21 2.93  15 2.93  17 2.93  14 2.93  19 2.93
                            26 2.93  35 2.94  32 2.95  34 2.95
  25  0.889  0.889  0.453-  16 2.92  12 2.92  18 2.92  26 2.93  19 2.93  23 2.93  21 2.93  22 2.93
                            27 2.93  28 2.93  33 2.97  30 2.97
  26  0.222  0.889  0.453-  16 2.92  10 2.92  17 2.92  25 2.93  19 2.93  23 2.93  20 2.93  27 2.93
                            24 2.93  28 2.93  34 2.97  29 2.97
  27  0.556  0.889  0.454-  24 2.93  22 2.93  20 2.93  21 2.93  17 2.93  18 2.93  11 2.93  26 2.93
                            25 2.93  35 2.94  29 2.95  30 2.95
  28  0.000  0.000  0.561-  29 2.93  34 2.93  33 2.93  32 2.93  31 2.93  30 2.93  26 2.93  25 2.93
                            19 2.93
  29  0.334  0.000  0.563-  30 2.93  36 2.93  35 2.93  31 2.93  28 2.93  34 2.94  27 2.95  26 2.97
                            20 2.97
  30  0.666  0.000  0.563-  29 2.93  36 2.93  35 2.93  32 2.93  28 2.93  33 2.94  27 2.95  25 2.97
                            21 2.97
  31  0.000  0.334  0.563-  33 2.93  36 2.93  35 2.93  29 2.93  28 2.93  32 2.94  22 2.95  19 2.97
                            20 2.97
  32  0.666  0.334  0.563-  34 2.93  36 2.93  35 2.93  30 2.93  28 2.93  31 2.94  24 2.95  19 2.97
                            21 2.97
  33  0.000  0.666  0.563-  31 2.93  36 2.93  35 2.93  34 2.93  28 2.93  30 2.94  22 2.95  25 2.97
                            23 2.97
  34  0.334  0.666  0.563-  32 2.93  36 2.93  35 2.93  33 2.93  28 2.93  29 2.94  24 2.95  26 2.97
                            23 2.97
  35  0.667  0.667  0.563-  30 2.93  29 2.93  32 2.93  34 2.93  31 2.93  33 2.93  24 2.94  27 2.94
                            22 2.94
  36  0.333  0.333  0.560-  21 2.92  20 2.92  23 2.92  31 2.93  33 2.93  30 2.93  29 2.93  34 2.93
                            32 2.93

  LATTYP: Found a hexagonal cell.
 ALAT       =     8.7913665772
 C/A-ratio  =     2.5227160501

  Lattice vectors:

 A1 = (  -4.3956832886,  -7.6135467898,   0.0000000000)
 A2 = (   8.7913665771,   0.0000000000,   0.0000000000)
 A3 = (   0.0000000000,   0.0000000000,  22.1781215668)

Analysis of symmetry for initial positions (statically):
 Subroutine PRICEL returns:
 Original cell was already a primitive cell.

 Routine SETGRP: Setting up the symmetry group for a
 hexagonal supercell.

 Subroutine GETGRP returns: Found  6 space group operations
 (whereof  6 operations were pure point group operations)
 out of a pool of 24 trial point group operations.

The static configuration has the point symmetry C_3v.

Analysis of symmetry for dynamics (positions and initial velocities):
 Subroutine PRICEL returns:
 Original cell was already a primitive cell.

[...]

The dynamic configuration has the point symmetry C_3v.

Analysis of constrained symmetry for selective dynamics:
 Subroutine PRICEL returns:
 Original cell was already a primitive cell.

 Routine SETGRP: Setting up the symmetry group for a
 hexagonal supercell.

 Subroutine GETGRP returns: Found  6 space group operations
 (whereof  6 operations were pure point group operations)
 out of a pool of 24 trial point group operations.

The constrained configuration has the point symmetry C_3v.

 Subroutine INISYM returns: Found  6 space group operations
 (whereof  6 operations are pure point group operations),
 and found     1 'primitive' translations

                                     Primitive cell

  volume of cell :    1484.4589

  direct lattice vectors                    reciprocal lattice vectors
     8.791366577  0.000000000  0.000000000     0.113747958 -0.065672414  0.000000000
     4.395683289  7.613546790  0.000000000     0.000000000  0.131344829  0.000000000
[...]
     15      -4.7926      2.00000
     16      -4.7904      2.00000
     17      -4.6989      2.00000
     18      -4.6716      2.00000
     19      -4.6160      2.00000
     20      -4.6076      2.00000
     21      -4.6047      2.00000
     22      -4.5780      2.00000
     23      -4.5666      2.00000
     24      -4.5557      2.00000
     25      -4.5483      2.00000
     26      -4.5287      2.00000
     27      -4.5208      2.00000
     28      -4.5036      2.00000
     29      -4.5005      2.00000
     30      -4.4996      2.00000
     31      -4.4658      2.00000
     32      -4.4333      2.00000
     33      -4.4292      2.00000
     34      -4.4152      2.00000
     35      -4.3926      2.00000
     36      -4.3807      2.00000
     37      -4.3709      2.00000
     38      -4.3491      2.00000
     39      -4.3394      2.00000
     40      -4.2878      2.00000
     41      -4.2593      2.00000
     42      -4.2277      2.00000
     43      -4.2222      2.00000
     44      -4.2071      2.00000
     45      -4.2044      2.00000
     46      -4.1858      2.00000
     47      -4.0896      2.00000
     48      -4.0850      2.00000
     49      -4.0668      2.00000
     50      -4.0511      2.00000
     51      -4.0431      2.00000
     52      -4.0391      2.00000
     53      -4.0357      2.00000
     54      -4.0215      2.00000
     55      -4.0185      2.00000
     56      -4.0110      2.00000
     57      -3.9457      2.00000
     58      -3.9375      2.00000
     59      -3.9336      2.00000
     60      -3.9172      2.00000
[...]
    238       6.3672      0.00000
    239       6.4407      0.00000
    240       6.4648      0.00000
    241       6.5282      0.00000
    242       7.3073      0.00000
    243       7.3311      0.00000
    244       7.3589      0.00000
    245       7.3742      0.00000
    246       7.4209      0.00000
    247       7.4414      0.00000
    248       7.4962      0.00000
    249       7.5935      0.00000
    250       7.6432      0.00000
    251       7.7223      0.00000
    252       7.7555      0.00000

 soft charge-density along one line, spin component           1
         0         1         2         3         4         5         6         7         8         9
 total charge-density along one line

------------------------ aborting loop because EDIFF is reached ----------------------------------------

 total charge

# of ion       s       p       d       tot
    1        0.423   0.200   9.178   9.801
    2        0.415   0.204   9.178   9.796
    3        0.415   0.204   9.178   9.796
    4        0.415   0.204   9.178   9.796
    5        0.418   0.203   9.176   9.796
    6        0.415   0.204   9.178   9.796
    7        0.415   0.204   9.178   9.796
    8        0.415   0.204   9.178   9.796
    9        0.419   0.202   9.177   9.797
   10        0.412   0.270   9.162   9.843
   11        0.405   0.267   9.169   9.841
   12        0.412   0.270   9.162   9.843
   13        0.405   0.267   9.169   9.841
   14        0.405   0.267   9.169   9.841
   15        0.404   0.268   9.165   9.837
   16        0.412   0.270   9.162   9.843
   17        0.404   0.268   9.165   9.837
   18        0.404   0.268   9.165   9.837
   19        0.404   0.267   9.165   9.835
   20        0.440   0.296   9.132   9.868
   21        0.440   0.296   9.132   9.868
   22        0.395   0.271   9.165   9.831
   23        0.440   0.296   9.132   9.868
   24        0.395   0.271   9.165   9.831
   25        0.404   0.267   9.165   9.835
   26        0.404   0.267   9.165   9.835
   27        0.395   0.271   9.165   9.831
   28        0.410   0.208   9.171   9.788
   29        0.455   0.224   9.142   9.821
   30        0.455   0.224   9.142   9.821
   31        0.455   0.224   9.142   9.821
   32        0.455   0.224   9.142   9.821
   33        0.455   0.224   9.142   9.821
   34        0.455   0.224   9.142   9.821
   35        0.404   0.210   9.172   9.787
   36        2.207   5.946   1.502   9.656
tot         16.877  14.447 322.166 353.490

  FORCE on cell =-STRESS in cart. coord.  units (eV):
  Direction    XX          YY          ZZ          XY          YZ          ZX
  Alpha Z   753.40006   753.40006   753.40006
  Ewald  121203.65336121203.65339************     0.00001     0.00000     0.00000
  Hartree131480.51493131480.51494************     0.00000    -0.00000     0.00000
  E(xc)   -2079.44345 -2079.44344 -2085.70530    -0.00001     0.00000     0.00000
  Local  ************************264392.67926     0.00026    -0.00004    -0.00007
  n-local  -329.44796  -316.11597  -322.85974     9.38417    -0.57694     0.51999
  augment  3220.69240  3220.69262  3233.28635    -0.00019    -0.00000    -0.00002
  Kinetic  4989.34792  4989.85713  5017.50925     2.31229     0.74421    -0.38363
  Fock        0.00000     0.00000     0.00000     0.00000     0.00000     0.00000
  Total      -7.87685    -7.87685    -0.50086    -0.00000    -0.00000     0.00000
  in kB      -8.50149    -8.50149    -0.54058    -0.00000    -0.00000     0.00000

 VOLUME and BASIS-vectors are now :
  energy-cutoff  :      500.00
  volume of cell :     1484.46
      direct lattice vectors                 reciprocal lattice vectors
     8.791366577  0.000000000  0.000000000     0.113747958 -0.065672414  0.000000000
     4.395683289  7.613546790  0.000000000     0.000000000  0.131344829  0.000000000
     0.000000000  0.000000000 22.178121567     0.000000000  0.000000000  0.045089481

  length of vectors
     8.791366577  8.791366577 22.178121567     0.131344829  0.131344829  0.045089481

 FORCES acting on ions
    electron-ion (+dipol)            ewald-force                    non-local-force                 convergence-correction
   0.461E-04 -.281E-04 0.251E+04   -.953E-04 0.593E-04 -.250E+04   0.761E-17 -.792E-17 -.180E+01   -.911E-04 -.161E-03 -.403E-01
   -.166E+00 0.366E+00 0.251E+04   0.915E-01 -.456E+00 -.250E+04   0.181E-01 0.120E+00 -.163E+01   0.588E-01 -.310E-01 0.699E-01
   0.166E+00 0.366E+00 0.251E+04   -.913E-01 -.456E+00 -.250E+04   -.181E-01 0.120E+00 -.163E+01   -.594E-01 -.292E-01 0.706E-01
   0.234E+00 -.327E+00 0.251E+04   -.349E+00 0.307E+00 -.250E+04   0.113E+00 -.444E-01 -.163E+01   0.276E-02 0.666E-01 0.698E-01
   -.755E-05 -.198E-04 0.251E+04   0.981E-04 -.201E-05 -.251E+04   0.197E-19 0.618E-18 -.132E+01   0.616E-02 0.374E-02 0.203E+00
   -.234E+00 -.327E+00 0.251E+04   0.349E+00 0.307E+00 -.250E+04   -.113E+00 -.444E-01 -.163E+01   -.407E-02 0.675E-01 0.705E-01
   0.400E+00 -.393E-01 0.251E+04   -.441E+00 0.149E+00 -.250E+04   0.951E-01 -.758E-01 -.163E+01   -.545E-01 -.363E-01 0.705E-01
   -.400E+00 -.393E-01 0.251E+04   0.441E+00 0.149E+00 -.250E+04   -.951E-01 -.758E-01 -.163E+01   0.561E-01 -.372E-01 0.705E-01
   0.365E-04 -.130E-04 0.251E+04   0.792E-04 -.642E-04 -.250E+04   0.315E-18 -.172E-17 -.160E+01   -.660E-02 -.336E-02 0.116E+00
   0.995E+00 0.575E+00 0.847E+03   -.756E+00 -.436E+00 -.846E+03   -.295E+00 -.170E+00 -.734E+00   0.520E-01 0.297E-01 0.110E+00
   -.283E-04 0.418E+01 0.847E+03   0.409E-04 -.438E+01 -.847E+03   0.832E-12 0.127E+00 -.188E+00   0.618E-02 0.126E-01 0.815E-03
   -.995E+00 0.574E+00 0.847E+03   0.756E+00 -.436E+00 -.846E+03   0.295E+00 -.170E+00 -.734E+00   -.531E-01 0.302E-01 0.109E+00
   0.362E+01 -.209E+01 0.847E+03   -.380E+01 0.219E+01 -.847E+03   0.110E+00 -.633E-01 -.188E+00   0.141E-01 -.984E-03 0.574E-03
   -.362E+01 -.209E+01 0.847E+03   0.380E+01 0.219E+01 -.847E+03   -.110E+00 -.633E-01 -.188E+00   -.403E-02 -.213E-02 -.173E-02
   0.156E-04 -.299E+01 0.843E+03   -.108E-03 0.283E+01 -.842E+03   0.390E-12 0.593E-01 -.696E+00   -.122E-02 0.102E+00 0.560E-01
   -.811E-05 -.115E+01 0.847E+03   0.208E-04 0.873E+00 -.846E+03   0.224E-11 0.341E+00 -.734E+00   -.387E-03 -.612E-01 0.109E+00
   -.259E+01 0.150E+01 0.843E+03   0.245E+01 -.142E+01 -.842E+03   0.514E-01 -.297E-01 -.696E+00   0.874E-01 -.515E-01 0.566E-01
   0.259E+01 0.150E+01 0.843E+03   -.245E+01 -.141E+01 -.842E+03   -.514E-01 -.297E-01 -.696E+00   -.871E-01 -.501E-01 0.576E-01
   0.399E-04 -.310E+01 -.835E+03   -.129E-03 0.313E+01 0.834E+03   0.309E-13 0.470E-02 0.739E+00   0.949E-03 -.302E-01 0.154E+00
   0.135E+02 0.782E+01 -.818E+03   -.122E+02 -.705E+01 0.819E+03   -.109E+01 -.627E+00 -.781E+00   -.244E+00 -.141E+00 -.116E+00
   -.135E+02 0.782E+01 -.818E+03   0.122E+02 -.705E+01 0.819E+03   0.109E+01 -.627E+00 -.781E+00   0.232E+00 -.143E+00 -.116E+00
   0.463E+01 -.267E+01 -.841E+03   -.457E+01 0.264E+01 0.840E+03   0.851E-01 -.491E-01 0.405E+00   -.133E+00 0.841E-01 -.322E-02
   -.539E-04 -.156E+02 -.818E+03   0.445E-04 0.141E+02 0.819E+03   0.823E-11 0.125E+01 -.781E+00   -.679E-02 0.272E+00 -.116E+00
   -.463E+01 -.267E+01 -.841E+03   0.457E+01 0.264E+01 0.840E+03   -.851E-01 -.491E-01 0.405E+00   0.145E+00 0.847E-01 -.306E-02
   0.269E+01 0.155E+01 -.835E+03   -.271E+01 -.156E+01 0.834E+03   -.407E-02 -.235E-02 0.739E+00   0.240E-01 0.144E-01 0.154E+00
   -.269E+01 0.155E+01 -.835E+03   0.271E+01 -.156E+01 0.834E+03   0.407E-02 -.235E-02 0.739E+00   -.146E-01 0.161E-01 0.154E+00
   0.205E-04 0.534E+01 -.841E+03   0.109E-03 -.527E+01 0.840E+03   0.645E-12 0.983E-01 0.405E+00   0.449E-02 -.157E+00 -.317E-02
   0.553E-04 -.353E-04 -.248E+04   -.118E-03 0.779E-04 0.248E+04   0.455E-17 -.958E-18 0.150E+01   0.934E-04 0.123E-03 -.997E-01
   0.115E+02 0.126E+02 -.250E+04   -.104E+02 -.111E+02 0.250E+04   -.936E+00 -.128E+01 0.653E+00   -.152E+00 -.176E+00 0.253E-01
   -.115E+02 0.126E+02 -.250E+04   0.104E+02 -.111E+02 0.250E+04   0.936E+00 -.128E+01 0.653E+00   0.151E+00 -.175E+00 0.254E-01
   0.167E+02 0.366E+01 -.250E+04   -.148E+02 -.345E+01 0.250E+04   -.158E+01 -.168E+00 0.653E+00   -.228E+00 -.440E-01 0.259E-01
   -.167E+02 0.366E+01 -.250E+04   0.148E+02 -.345E+01 0.250E+04   0.158E+01 -.168E+00 0.653E+00   0.228E+00 -.433E-01 0.269E-01
   0.515E+01 -.163E+02 -.250E+04   -.444E+01 0.146E+02 0.250E+04   -.645E+00 0.145E+01 0.653E+00   -.752E-01 0.219E+00 0.255E-01
   -.515E+01 -.163E+02 -.250E+04   0.444E+01 0.146E+02 0.250E+04   0.645E+00 0.145E+01 0.653E+00   0.763E-01 0.219E+00 0.268E-01
   0.216E-04 -.109E-04 -.250E+04   0.104E-03 -.666E-04 0.249E+04   -.146E-16 0.104E-17 0.176E+01   -.626E-02 -.291E-02 -.398E-01
   0.202E-03 -.145E-03 -.270E+04   0.112E-03 0.106E-04 0.270E+04   0.810E-18 -.600E-18 0.318E+01   0.472E-02 0.276E-02 0.212E+00
   0.540E-03 -.827E-03 0.648E+01   -.542E-13 0.763E-13 -.318E-11   -.125E-15 0.445E-15 -.795E+01   0.202E-01 0.985E-02 0.153E+01

 POSITION                                       TOTAL-FORCE (eV/Angst)
      0.00000      0.00000      5.28219        -0.000000     -0.000000     -0.016688
      2.93046      0.00000      5.28219         0.003016      0.000198      0.033289
      5.86091      0.00000      5.28219        -0.003016      0.000198      0.033289
      1.46523      2.53785      5.28219         0.001680      0.002513      0.033289
      4.39568      2.53785      5.28219        -0.000000     -0.000000      0.030259
      7.32614      2.53785      5.28219        -0.001680      0.002513      0.033289
      2.93046      5.07570      5.28219        -0.001336     -0.002711      0.033289
      5.86091      5.07570      5.28219         0.001336     -0.002711      0.033289
      8.79137      5.07570      5.28219        -0.000000      0.000000     -0.001309
      1.46523      0.84595      7.67490        -0.003464     -0.002000     -0.065144
      4.39568      0.84595      7.67490        -0.000000     -0.062758     -0.061148
      7.32614      0.84595      7.67490         0.003464     -0.002000     -0.065144
      2.93046      3.38380      7.67490        -0.054350      0.031379     -0.061148
      5.86091      3.38380      7.67490         0.054350      0.031379     -0.061148
      8.79137      3.38380      7.67490        -0.000000     -0.001863      0.021278
      4.39568      5.92165      7.67490         0.000000      0.004000     -0.065144
      7.32614      5.92165      7.67490        -0.001613      0.000931      0.021278
     10.25659      5.92165      7.67490         0.001613      0.000931      0.021278
      8.79137      1.69022     10.04930         0.000000      0.000115      0.006250
      2.93117      1.69231     10.04246         0.010990      0.006345      0.010076
      5.86019      1.69231     10.04246        -0.010990      0.006345      0.010076
     10.25641      4.22985     10.06824         0.006220     -0.003591      0.002665
      4.39568      4.22892     10.04246        -0.000000     -0.012690      0.010076
      7.32632      4.22985     10.06824        -0.006220     -0.003591      0.002665
     11.72328      6.76844     10.04930        -0.000099     -0.000057      0.006250
      5.85946      6.76844     10.04930         0.000099     -0.000057      0.006250
      8.79137      6.76739     10.06824         0.000000      0.007182      0.002665
      0.00000      0.00000     12.44689        -0.000000     -0.000000      0.026849
      2.93311      0.00118     12.48352        -0.001840     -0.004057     -0.002429
      5.85826      0.00118     12.48352         0.001840     -0.004057     -0.002429
      1.46758      2.53956     12.48352        -0.004433      0.000435     -0.002429
      7.32379      2.53956     12.48352         0.004433      0.000435     -0.002429
      2.93015      5.07281     12.48352        -0.002593      0.003621     -0.002429
      5.86121      5.07281     12.48352         0.002593      0.003621     -0.002429
      8.79137      5.07570     12.47551        -0.000000     -0.000000      0.002872
      4.39568      2.53785     12.42634        -0.000000     -0.000000      0.030923
    total drift:                                0.020755      0.009020      0.059044

  FREE ENERGIE OF THE ION-ELECTRON SYSTEM (eV)
  free  energy   TOTEN  =       -96.51979130 eV

  energy  without entropy=      -96.51979130  energy(sigma->0) =      -96.51979130

 stress matrix after NEB project (eV)
     -7.87685     -0.00000      0.00000
     -0.00000     -7.87685      0.00000
      0.00000     -0.00000     -0.50086
  FORCES: max atom, RMS     0.030923    0.009007
  FORCE total and by dimension    0.054044    0.030923
  Stress total and by dimension   11.150799    7.876848
|           W    W    AA    RRRRR   N    N  II  N    N   GGGG   !!!           |
|           W    W   A  A   R    R  NN   N  II  NN   N  G    G  !!!           |
|           W    W  A    A  R    R  N N  N  II  N N  N  G       !!!           |
|           W WW W  AAAAAA  RRRRR   N  N N  II  N  N N  G  GGG   !            |
|           WW  WW  A    A  R   R   N   NN  II  N   NN  G    G                |
|           W    W  A    A  R    R  N    N  II  N    N   GGGG   !!!           |
|     Tetrahedron method does not include variations of the Fermi             |
|     occupations, so forces and stress will be inaccurate. We suggest        |
|     using a different smearing scheme ISMEAR = 1 or 2 for metals in         |
|     relaxations.                                                            |

 total charge

# of ion       s       p       d       tot
    1        0.423   0.200   9.178   9.801
    2        0.415   0.204   9.178   9.796
    3        0.415   0.204   9.178   9.796
    4        0.415   0.204   9.178   9.796
    5        0.418   0.203   9.176   9.796
    6        0.415   0.204   9.178   9.796
    7        0.415   0.204   9.178   9.796
    8        0.415   0.204   9.178   9.796
    9        0.419   0.202   9.177   9.797
   10        0.412   0.270   9.162   9.843
   11        0.405   0.267   9.169   9.841
   12        0.412   0.270   9.162   9.843
   13        0.405   0.267   9.169   9.841
   14        0.405   0.267   9.169   9.841
   15        0.404   0.268   9.165   9.837
   16        0.412   0.270   9.162   9.843
   17        0.404   0.268   9.165   9.837
   18        0.404   0.268   9.165   9.837
   19        0.404   0.267   9.165   9.835
   20        0.440   0.296   9.132   9.868
   21        0.440   0.296   9.132   9.868
   22        0.395   0.271   9.165   9.831
   23        0.440   0.296   9.132   9.868
   24        0.395   0.271   9.165   9.831
   25        0.404   0.267   9.165   9.835
   26        0.404   0.267   9.165   9.835
   27        0.395   0.271   9.165   9.831
   28        0.410   0.208   9.171   9.788
   29        0.455   0.224   9.142   9.821
   30        0.455   0.224   9.142   9.821
   31        0.455   0.224   9.142   9.821
   32        0.455   0.224   9.142   9.821
   33        0.455   0.224   9.142   9.821
   34        0.455   0.224   9.142   9.821
   35        0.404   0.210   9.172   9.787
   36        2.207   5.946   1.502   9.656
tot         16.877  14.447 322.166 353.490

 BZINTS: Fermi energy:    1.003074;  397.000000 electrons
         Band energy:-0.148291E+04;  BLOECHL correction:   -0.020918