 vasp.6.2.0 18Jan21 (build Jun 12 2021 23:27:24) complex

 executed on             LinuxIFC date 2022.05.27  05:52:51

 INCAR:
   ISMEAR = -5
   SIGMA = 0.1
   ISPIN = 1
   EDIFF = 1.d-5
   EDIFFG = -0.01
   NSW = 0
   NELM = 150
   ENCUT = 500
   ISIF = 2
   IBRION = 2
   LREAL = Auto
   ALGO = Fast
   ICHARG = 11
   LORBIT = 10
   LCHARG = .F.
   LWAVE = .F.

 POTCAR:    PAW_PBE Ag 02Apr2005
 POTCAR:    PAW_PBE Os 17Jan2003
 POTCAR:    PAW_PBE H 15Jun2001
|           W    W    AA    RRRRR   N    N  II  N    N   GGGG   !!!           |
|           W    W   A  A   R    R  NN   N  II  NN   N  G    G  !!!           |
|           W    W  A    A  R    R  N N  N  II  N N  N  G       !!!           |
|           W WW W  AAAAAA  RRRRR   N  N N  II  N  N N  G  GGG   !            |
|           WW  WW  A    A  R   R   N   NN  II  N   NN  G    G                |
|           W    W  A    A  R    R  N    N  II  N    N   GGGG   !!!           |
|     For optimal performance we recommend to set                             |
|       NCORE = 2 up to number-of-cores-per-socket                            |
|     This setting can greatly improve the performance of VASP for DFT.       |
|     The default, NCORE=1 might be grossly inefficient on modern             |
|     multi-core architectures or massively parallel machines. Do your        |
|     Unfortunately you need to use the default for GW and RPA                |
|     calculations (for HF NCORE is supported but not extensively tested      |
|     yet).                                                                   |

 POTCAR:    PAW_PBE Ag 02Apr2005
   VRHFIN =Ag : s1 d10

   TITEL  = PAW_PBE Ag 02Apr2005
   POMASS =  107.868; ZVAL   =   11.000    mass and valenz
   ENMAX  =  249.844; ENMIN  =  187.383 eV

 POTCAR:    PAW_PBE Os 17Jan2003
   VRHFIN =Os: 6s5d

   TITEL  = PAW_PBE Os 17Jan2003
   POMASS =  190.200; ZVAL   =    8.000    mass and valenz
   ENMAX  =  228.022; ENMIN  =  171.017 eV

 POTCAR:    PAW_PBE H 15Jun2001
   VRHFIN =H: ultrasoft test

   TITEL  = PAW_PBE H 15Jun2001
   POMASS =    1.000; ZVAL   =    1.000    mass and valenz
   ENMAX  =  250.000; ENMIN  =  200.000 eV

 Optimization of the real space projectors (new method)

 maximal supplied QI-value         = 15.12
 optimisation between [QCUT,QGAM] = [ 11.34, 22.83] = [ 36.00,145.93] Ry
 Optimized for a Real-space Cutoff    1.43 Angstroem

   l    n(q)    QCUT    max X(q) W(low)/X(q) W(high)/X(q)  e(spline)
   2      9    11.338    53.897    0.16E-03    0.20E-03    0.28E-06
   2      9    11.338    52.416    0.16E-03    0.20E-03    0.29E-06
   0     10    11.338   122.045    0.31E-04    0.76E-04    0.15E-06
   0     10    11.338    73.629    0.30E-04    0.72E-04    0.15E-06
   1      9    11.338    15.255    0.20E-03    0.19E-04    0.17E-06
   1      9    11.338     9.562    0.16E-03    0.15E-04    0.14E-06
 Optimization of the real space projectors (new method)

[...]

   l    n(q)    QCUT    max X(q) W(low)/X(q) W(high)/X(q)  e(spline)
   2     10    11.327   152.873    0.32E-03    0.72E-03    0.11E-05
   2     10    11.327   151.010    0.32E-03    0.72E-03    0.11E-05
   0     11    11.327    72.114    0.43E-04    0.61E-04    0.13E-06
   0     11    11.327    44.596    0.40E-04    0.57E-04    0.12E-06
   1     10    11.327    13.742    0.16E-03    0.10E-03    0.19E-06
   1     10    11.327     8.461    0.12E-03    0.78E-04    0.15E-06
 Optimization of the real space projectors (new method)

 maximal supplied QI-value         = 34.20
 optimisation between [QCUT,QGAM] = [ 11.29, 22.57] = [ 35.68,142.71] Ry
 Optimized for a Real-space Cutoff    1.16 Angstroem

   l    n(q)    QCUT    max X(q) W(low)/X(q) W(high)/X(q)  e(spline)
   0      8    11.287    19.460    0.40E-03    0.73E-03    0.16E-06
   0      8    11.287    12.209    0.38E-03    0.70E-03    0.15E-06
   1      7    11.287     4.655    0.22E-03    0.25E-04    0.22E-06
  PAW_PBE Ag 02Apr2005                  :
  PAW_PBE Os 17Jan2003                  :
  PAW_PBE H 15Jun2001                   :

 POSCAR: Ag-Os-H2
  positions in direct lattice
  velocities in cartesian coordinates
 exchange correlation table for  LEXCH =        8
   RHO(1)=    0.500       N(1)  =     2000
   RHO(2)=  100.500       N(2)  =     4000

 VTST: version 3.2, (02/03/18)

 CHAIN: initializing optimizer

 OPT: Using VASP Conjugate-Gradient optimizer
 CHAIN: Read ICHAIN            0

 POSCAR: Ag-Os-H2
  positions in direct lattice
  velocities in cartesian coordinates

 ion  position               nearest neighbor table
   1  0.000  0.000  0.227-   2 2.93   8 2.93   7 2.93   6 2.93   4 2.93  12 2.93  16 2.93  10 2.93
                             3 2.93
   2  0.333  0.000  0.227-   1 2.93   8 2.93   9 2.93   3 2.93   4 2.93   5 2.93  10 2.93  17 2.93
                            11 2.93
   3  0.667  0.000  0.227-   9 2.93   2 2.93   5 2.93  11 2.93   7 2.93  18 2.93   1 2.93   6 2.93
                            12 2.93
   4  0.000  0.333  0.227-   5 2.93   6 2.93   2 2.93   1 2.93   7 2.93  13 2.93  15 2.93   9 2.93
                            10 2.93
   5  0.333  0.333  0.227-   4 2.93   3 2.93   7 2.93   2 2.93   8 2.93  14 2.93  13 2.93  11 2.93
                             6 2.93
   6  0.667  0.333  0.227-   4 2.93   9 2.93   1 2.93  15 2.93   8 2.93  12 2.93   3 2.93   5 2.93
                            14 2.93
   7  0.000  0.667  0.227-   8 2.93   1 2.93   5 2.93   3 2.93   4 2.93  16 2.93  18 2.93  13 2.93
                             9 2.93
   8  0.333  0.667  0.227-   7 2.93   1 2.93   2 2.93   9 2.93   5 2.93  16 2.93   6 2.93  17 2.93
                            14 2.93
   9  0.667  0.667  0.227-   3 2.93   2 2.93   8 2.93   6 2.93  17 2.93   4 2.93  15 2.93   7 2.93
                            18 2.93
  10  0.111  0.111  0.329-  20 2.89  12 2.93  16 2.93  15 2.93  17 2.93  13 2.93  11 2.93   2 2.93
                             1 2.93   4 2.93  19 2.93  26 2.93
  11  0.444  0.111  0.329-  21 2.89  20 2.89  27 2.92  14 2.93  17 2.93  18 2.93   3 2.93  12 2.93
                            13 2.93  10 2.93   5 2.93   2 2.93
  12  0.778  0.111  0.329-  21 2.89  10 2.93  16 2.93  18 2.93  15 2.93  11 2.93   1 2.93  14 2.93
                             6 2.93   3 2.93  25 2.93  19 2.93
  13  0.111  0.444  0.329-  20 2.89  23 2.89  22 2.92  15 2.93  14 2.93  18 2.93  10 2.93  11 2.93
                            16 2.93   4 2.93   5 2.93   7 2.93
  14  0.444  0.444  0.329-  23 2.89  21 2.89  24 2.92  13 2.93  11 2.93  16 2.93   5 2.93  12 2.93
                            17 2.93   8 2.93  15 2.93   6 2.93
  15  0.778  0.444  0.329-  24 2.92  22 2.92  19 2.93  13 2.93  10 2.93  12 2.93  17 2.93  18 2.93
                             4 2.93   6 2.93   9 2.93  14 2.93
  16  0.111  0.778  0.329-  23 2.89  18 2.93  12 2.93  10 2.93  14 2.93  17 2.93  13 2.93   7 2.93
                             8 2.93   1 2.93  26 2.93  25 2.93
  17  0.444  0.778  0.329-  27 2.92  24 2.92  26 2.93  11 2.93  10 2.93   9 2.93  18 2.93  15 2.93
                            16 2.93   2 2.93  14 2.93   8 2.93
  18  0.778  0.778  0.329-  22 2.92  27 2.92  25 2.93  16 2.93  12 2.93  13 2.93  11 2.93  17 2.93
                            15 2.93   7 2.93   3 2.93   9 2.93
  19  0.888  0.223  0.432-  28 2.90  24 2.93  22 2.93  15 2.93  20 2.93  21 2.93  10 2.93  12 2.93
                            26 2.94  25 2.94  32 2.95  31 2.95
  20  0.222  0.222  0.430-  36 2.76  13 2.89  11 2.89  10 2.89  31 2.93  29 2.93  21 2.93  23 2.93
                            19 2.93  26 2.93  27 2.94  22 2.94
  21  0.556  0.222  0.430-  36 2.76  11 2.89  14 2.89  12 2.89  30 2.93  32 2.93  20 2.93  23 2.93
                            25 2.93  19 2.93  27 2.94  24 2.94
  22  0.888  0.556  0.432-  35 2.90  18 2.92  15 2.92  24 2.92  27 2.92  13 2.92  25 2.93  19 2.93
                            33 2.94  31 2.94  23 2.94  20 2.94
  23  0.222  0.556  0.430-  36 2.76  14 2.89  13 2.89  16 2.89  34 2.93  33 2.93  21 2.93  20 2.93
                            26 2.93  25 2.93  22 2.94  24 2.94
  24  0.556  0.556  0.432-  35 2.90  15 2.92  17 2.92  27 2.92  22 2.92  14 2.92  19 2.93  26 2.93
                            32 2.94  34 2.94  23 2.94  21 2.94
  25  0.888  0.888  0.432-  28 2.90  22 2.93  27 2.93  18 2.93  23 2.93  21 2.93  16 2.93  12 2.93
                            26 2.94  19 2.94  33 2.95  30 2.95
  26  0.223  0.888  0.432-  28 2.90  27 2.93  24 2.93  17 2.93  23 2.93  20 2.93  16 2.93  10 2.93
                            25 2.94  19 2.94  34 2.95  29 2.95
  27  0.556  0.888  0.432-  35 2.90  17 2.92  18 2.92  24 2.92  22 2.92  11 2.92  26 2.93  25 2.93
                            29 2.94  30 2.94  20 2.94  21 2.94
  28  0.000  0.000  0.533-  26 2.90  25 2.90  19 2.90  29 2.96  34 2.96  33 2.96  32 2.96  31 2.96
                            30 2.96
  29  0.333  0.008  0.534-  31 2.86  30 2.87  36 2.88  20 2.93  27 2.94  26 2.95  28 2.96  35 2.97
                            34 3.06
  30  0.659  0.008  0.534-  32 2.86  29 2.87  36 2.88  21 2.93  27 2.94  25 2.95  28 2.96  35 2.97
                            33 3.06
  31  0.008  0.333  0.534-  29 2.86  33 2.87  36 2.88  20 2.93  22 2.94  19 2.95  28 2.96  35 2.97
                            32 3.06
  32  0.659  0.333  0.534-  30 2.86  34 2.87  36 2.88  21 2.93  24 2.94  19 2.95  28 2.96  35 2.97
                            31 3.06
  33  0.008  0.659  0.534-  34 2.86  31 2.87  36 2.88  23 2.93  22 2.94  25 2.95  28 2.96  35 2.97
                            30 3.06
  34  0.333  0.659  0.534-  33 2.86  32 2.87  36 2.88  23 2.93  24 2.94  26 2.95  28 2.96  35 2.97
                            29 3.06
  35  0.667  0.667  0.533-  24 2.90  27 2.90  22 2.90  30 2.97  32 2.97  29 2.97  34 2.97  31 2.97
                            33 2.97
  36  0.333  0.333  0.524-  38 1.64  37 1.64  21 2.76  20 2.76  23 2.76  31 2.88  30 2.88  33 2.88
                            29 2.88  34 2.88  32 2.88
  37  0.245  0.310  0.583-  36 1.64
  38  0.445  0.310  0.583-  36 1.64

  LATTYP: Found a hexagonal cell.
 ALAT       =     8.7913665772
 C/A-ratio  =     2.6496718497

  Lattice vectors:

 A1 = (  -4.3956832886,  -7.6135467898,   0.0000000000)
 A2 = (   8.7913665771,   0.0000000000,   0.0000000000)
 A3 = (   0.0000000000,   0.0000000000,  23.2942365398)

Analysis of symmetry for initial positions (statically):
 Subroutine PRICEL returns:
 Original cell was already a primitive cell.

 Routine SETGRP: Setting up the symmetry group for a
 hexagonal supercell.

 Subroutine GETGRP returns: Found  2 space group operations
 (whereof  2 operations were pure point group operations)
 out of a pool of 24 trial point group operations.

The static configuration has the point symmetry C_1h.

Analysis of symmetry for dynamics (positions and initial velocities):
 Subroutine PRICEL returns:
 Original cell was already a primitive cell.

[...]

The dynamic configuration has the point symmetry C_1h.

Analysis of constrained symmetry for selective dynamics:
 Subroutine PRICEL returns:
 Original cell was already a primitive cell.

 Routine SETGRP: Setting up the symmetry group for a
 hexagonal supercell.

 Subroutine GETGRP returns: Found  2 space group operations
[...]
     33      -4.7148      2.00000
     34      -4.6914      2.00000
     35      -4.6686      2.00000
     36      -4.6410      2.00000
     37      -4.6108      2.00000
     38      -4.5947      2.00000
     39      -4.5790      2.00000
     40      -4.5711      2.00000
     41      -4.5474      2.00000
     42      -4.5421      2.00000
     43      -4.5030      2.00000
     44      -4.4516      2.00000
     45      -4.4405      2.00000
     46      -4.4162      2.00000
     47      -4.4087      2.00000
     48      -4.4020      2.00000
     49      -4.3964      2.00000
     50      -4.3864      2.00000
     51      -4.3824      2.00000
     52      -4.3706      2.00000
     53      -4.3502      2.00000
     54      -4.3381      2.00000
     55      -4.2924      2.00000
     56      -4.2866      2.00000
     57      -4.2779      2.00000
     58      -4.2586      2.00000
     59      -4.2488      2.00000
     60      -4.2257      2.00000
[...]
    226       5.3321      0.00000
    227       5.3691      0.00000
    228       5.4107      0.00000
    229       5.5639      0.00000
    230       5.5957      0.00000
    231       5.6389      0.00000
    232       5.6598      0.00000
    233       5.8735      0.00000
    234       5.9403      0.00000
    235       5.9641      0.00000
    236       6.0094      0.00000
    237       6.1083      0.00000
    238       6.6625      0.00000
    239       6.7319      0.00000
    240       6.7794      0.00000

 soft charge-density along one line, spin component           1
         0         1         2         3         4         5         6         7         8         9
 total charge-density along one line

------------------------ aborting loop because EDIFF is reached ----------------------------------------

 total charge

# of ion       s       p       d       tot
    1        0.418   0.201   9.179   9.798
    2        0.418   0.202   9.178   9.798
    3        0.418   0.202   9.178   9.798
    4        0.418   0.203   9.177   9.798
    5        0.419   0.203   9.175   9.798
    6        0.418   0.203   9.177   9.798
    7        0.418   0.203   9.177   9.798
    8        0.418   0.203   9.177   9.798
    9        0.413   0.202   9.180   9.795
   10        0.407   0.269   9.163   9.839
   11        0.411   0.267   9.168   9.846
   12        0.407   0.269   9.163   9.839
   13        0.410   0.268   9.168   9.847
   14        0.410   0.268   9.168   9.847
   15        0.403   0.269   9.166   9.837
   16        0.409   0.268   9.164   9.841
   17        0.402   0.270   9.165   9.838
   18        0.402   0.270   9.165   9.838
   19        0.399   0.266   9.167   9.832
   20        0.433   0.296   9.150   9.879
   21        0.433   0.296   9.150   9.879
   22        0.393   0.276   9.166   9.835
   23        0.434   0.303   9.143   9.880
   24        0.393   0.276   9.166   9.835
   25        0.403   0.264   9.167   9.834
   26        0.403   0.264   9.167   9.834
   27        0.392   0.274   9.168   9.834
   28        0.414   0.193   9.183   9.790
   29        0.411   0.217   9.174   9.802
   30        0.411   0.217   9.174   9.802
   31        0.403   0.233   9.167   9.803
   32        0.403   0.233   9.167   9.803
   33        0.415   0.217   9.170   9.802
   34        0.415   0.217   9.170   9.802
   35        0.406   0.195   9.184   9.786
   36        0.585   0.490   6.129   7.204
   37        0.514   0.023   0.000   0.537
   38        0.514   0.023   0.000   0.537
tot         15.992   9.016 327.053 352.061

  FORCE on cell =-STRESS in cart. coord.  units (eV):
  Direction    XX          YY          ZZ          XY          YZ          ZX
  Alpha Z   721.15015   721.15015   721.15015
  Ewald  137318.06299137283.25275************     0.00001    -3.38245     0.00000
  Hartree147280.17253147270.97597************     0.00000     0.99406     0.00000
  E(xc)   -2071.60387 -2071.81499 -2077.66080    -0.00003    -0.02493     0.00000
  Local  ************************296094.94779     0.00030     0.84067    -0.00005
  n-local  -350.78386  -351.74844  -353.87721     2.61484     0.01136     0.21203
  augment  3236.70848  3237.12706  3246.28805    -0.00011     0.09577     0.00008
  Kinetic  4900.62393  4906.26311  4925.25157     1.57973     1.77109    -0.06141
  Fock        0.00000     0.00000     0.00000     0.00000     0.00000     0.00000
  Total      -8.11504    -8.00131     0.87635    -0.00000     0.30558     0.00000
  in kB      -8.33891    -8.22205     0.90052    -0.00000     0.31401     0.00000

 VOLUME and BASIS-vectors are now :
  energy-cutoff  :      500.00
  volume of cell :     1559.16
      direct lattice vectors                 reciprocal lattice vectors
     8.791366577  0.000000000  0.000000000     0.113747958 -0.065672414  0.000000000
     4.395683289  7.613546790  0.000000000     0.000000000  0.131344829  0.000000000
     0.000000000  0.000000000 23.294236540     0.000000000  0.000000000  0.042929074

  length of vectors
     8.791366577  8.791366577 23.294236540     0.131344829  0.131344829  0.042929074

 FORCES acting on ions
    electron-ion (+dipol)            ewald-force                    non-local-force                 convergence-correction
   0.460E-04 -.372E-01 0.259E+04   -.954E-04 -.164E-01 -.259E+04   0.280E-12 0.426E-01 -.230E+01   -.125E-03 0.795E-02 -.150E+00
   0.415E+00 0.381E+00 0.259E+04   -.516E+00 -.482E+00 -.259E+04   0.682E-01 0.106E+00 -.158E+01   0.386E-01 0.848E-02 -.162E+00
   -.415E+00 0.381E+00 0.259E+04   0.516E+00 -.482E+00 -.259E+04   -.682E-01 0.106E+00 -.158E+01   -.391E-01 0.105E-01 -.162E+00
   0.525E+00 0.145E+00 0.259E+04   -.661E+00 -.201E+00 -.259E+04   0.135E+00 0.166E-01 -.161E+01   0.233E-01 0.369E-01 -.140E+00
   -.788E-05 0.559E-01 0.259E+04   0.980E-04 0.132E-01 -.259E+04   -.918E-13 -.140E-01 -.124E+01   0.630E-02 -.512E-01 -.107E+00
   -.525E+00 0.145E+00 0.259E+04   0.661E+00 -.201E+00 -.259E+04   -.135E+00 0.166E-01 -.161E+01   -.247E-01 0.378E-01 -.139E+00
   0.165E+00 -.547E+00 0.259E+04   -.145E+00 0.683E+00 -.259E+04   0.508E-01 -.129E+00 -.152E+01   -.531E-01 -.220E-01 -.134E+00
   -.165E+00 -.547E+00 0.259E+04   0.145E+00 0.683E+00 -.259E+04   -.508E-01 -.129E+00 -.152E+01   0.547E-01 -.230E-01 -.134E+00
   0.363E-04 0.524E-01 0.259E+04   0.792E-04 0.360E-02 -.259E+04   -.216E-12 -.329E-01 -.206E+01   -.670E-02 -.205E-01 -.184E+00
   0.613E+01 0.353E+01 0.860E+03   -.571E+01 -.336E+01 -.859E+03   -.449E+00 -.204E+00 -.850E+00   0.119E-01 0.180E-01 0.222E+00
   -.288E-04 0.481E+01 0.866E+03   0.409E-04 -.506E+01 -.866E+03   0.127E-11 0.193E+00 -.379E+00   0.644E-02 -.355E-02 0.245E+00
   -.613E+01 0.353E+01 0.860E+03   0.571E+01 -.336E+01 -.859E+03   0.449E+00 -.204E+00 -.850E+00   -.136E-01 0.194E-01 0.222E+00
   0.423E+01 -.246E+01 0.866E+03   -.431E+01 0.262E+01 -.866E+03   0.660E-01 -.138E+00 -.355E+00   -.190E-01 0.687E-02 0.204E+00
   -.423E+01 -.246E+01 0.866E+03   0.431E+01 0.262E+01 -.866E+03   -.660E-01 -.138E+00 -.355E+00   0.301E-01 0.614E-02 0.204E+00
   0.160E-04 0.172E+01 0.861E+03   -.108E-03 -.183E+01 -.861E+03   0.357E-12 0.543E-01 -.870E+00   -.195E-02 0.293E-01 0.157E+00
   -.769E-05 -.705E+01 0.860E+03   0.205E-04 0.652E+01 -.859E+03   0.369E-11 0.562E+00 -.869E+00   0.386E-03 -.328E-01 0.218E+00
   0.156E+01 -.844E+00 0.861E+03   -.169E+01 0.919E+00 -.860E+03   0.661E-01 -.367E-01 -.828E+00   0.284E-01 -.196E-01 0.170E+00
   -.156E+01 -.844E+00 0.861E+03   0.169E+01 0.919E+00 -.860E+03   -.661E-01 -.367E-01 -.828E+00   -.285E-01 -.174E-01 0.170E+00
   0.403E-04 0.145E+01 -.899E+03   -.128E-03 -.146E+01 0.898E+03   0.965E-13 0.147E-01 0.685E+00   -.613E-02 -.537E-02 0.389E+00
   0.628E+01 0.389E+01 -.866E+03   -.528E+01 -.308E+01 0.866E+03   -.121E+01 -.905E+00 -.137E+01   0.116E+00 -.788E-02 0.462E+00
   -.628E+01 0.389E+01 -.866E+03   0.528E+01 -.308E+01 0.866E+03   0.121E+01 -.905E+00 -.137E+01   -.114E+00 -.652E-02 0.462E+00
   -.152E+01 0.281E+00 -.888E+03   0.133E+01 -.112E+00 0.887E+03   0.271E+00 -.192E+00 0.487E+00   -.172E-01 -.120E-01 0.423E+00
   -.531E-04 -.837E+01 -.868E+03   0.419E-04 0.678E+01 0.868E+03   0.116E-10 0.177E+01 -.158E+01   0.228E-02 -.960E-01 0.490E+00
   0.152E+01 0.281E+00 -.888E+03   -.133E+01 -.112E+00 0.887E+03   -.271E+00 -.192E+00 0.487E+00   0.657E-02 -.131E-01 0.422E+00
   -.139E+01 -.855E-01 -.900E+03   0.137E+01 0.263E-01 0.899E+03   0.219E-01 0.390E-01 0.654E+00   -.264E-01 0.225E-01 0.439E+00
   0.139E+01 -.855E-01 -.900E+03   -.137E+01 0.262E-01 0.899E+03   -.219E-01 0.390E-01 0.654E+00   0.170E-01 0.207E-01 0.440E+00
   0.195E-04 -.149E+01 -.888E+03   0.110E-03 0.877E+00 0.887E+03   0.372E-11 0.567E+00 0.525E+00   -.489E-02 0.755E-01 0.432E+00
   0.536E-04 0.256E+01 -.259E+04   -.114E-03 -.245E+01 0.259E+04   -.780E-12 -.119E+00 0.214E+01   0.119E-02 -.238E-01 0.328E+00
   0.791E+01 0.201E+02 -.260E+04   -.694E+01 -.193E+02 0.259E+04   -.102E+01 -.963E+00 0.195E+01   0.197E-01 0.536E-01 0.278E+00
   -.791E+01 0.201E+02 -.260E+04   0.694E+01 -.193E+02 0.259E+04   0.102E+01 -.963E+00 0.195E+01   -.303E-01 0.554E-01 0.278E+00
   0.242E+02 -.302E+01 -.259E+04   -.233E+02 0.334E+01 0.259E+04   -.110E+01 -.236E+00 0.212E+01   0.101E+00 -.453E-01 0.265E+00
   -.242E+02 -.302E+01 -.259E+04   0.233E+02 0.334E+01 0.259E+04   0.110E+01 -.236E+00 0.212E+01   -.112E+00 -.445E-01 0.264E+00
   0.609E+01 -.143E+02 -.260E+04   -.532E+01 0.131E+02 0.260E+04   -.833E+00 0.131E+01 0.167E+01   0.425E-01 -.271E-01 0.283E+00
   -.609E+01 -.143E+02 -.260E+04   0.532E+01 0.131E+02 0.260E+04   0.833E+00 0.131E+01 0.167E+01   -.511E-01 -.280E-01 0.282E+00
   0.240E-04 -.979E+00 -.259E+04   0.105E-03 0.769E+00 0.259E+04   0.106E-11 0.162E+00 0.227E+01   -.547E-02 0.483E-01 0.324E+00
   -.210E-04 -.916E+01 -.175E+04   0.774E-04 0.894E+01 0.175E+04   0.290E-11 0.442E+00 -.260E+01   0.246E-02 -.887E-02 0.159E+00
   0.523E+01 0.419E+00 -.296E+03   -.634E+01 -.655E+00 0.298E+03   0.109E+01 0.231E+00 -.215E+01   0.112E-01 0.307E-02 -.191E-01
   -.523E+01 0.419E+00 -.296E+03   0.634E+01 -.655E+00 0.298E+03   -.109E+01 0.231E+00 -.215E+01   -.110E-01 0.312E-02 -.193E-01
   0.327E-03 -.139E+01 0.616E+01   -.480E-13 -.266E-14 0.125E-11   0.944E-11 0.144E+01 -.130E+02   -.460E-01 -.451E-01 0.688E+01

 POSITION                                       TOTAL-FORCE (eV/Angst)
      0.00000      0.00000      5.28219        -0.000000     -0.003050     -0.008282
      2.93046      0.00000      5.28219         0.006439      0.014941      0.037446
      5.86091      0.00000      5.28219        -0.006439      0.014941      0.037446
      1.46523      2.53785      5.28219         0.022661     -0.002209      0.040897
      4.39568      2.53785      5.28219         0.000000      0.003969      0.005969
      7.32614      2.53785      5.28219        -0.022661     -0.002209      0.040897
      2.93046      5.07570      5.28219         0.017189     -0.015322      0.036070
      5.86091      5.07570      5.28219        -0.017189     -0.015322      0.036070
      8.79137      5.07570      5.28219         0.000000      0.002640      0.027677
      1.46523      0.84595      7.67490        -0.009540     -0.011761     -0.017778
      4.39568      0.84595      7.67490        -0.000000     -0.059030     -0.110716
      7.32614      0.84595      7.67490         0.009540     -0.011761     -0.017778
      2.93046      3.38380      7.67490        -0.037630      0.031660     -0.079787
      5.86091      3.38380      7.67490         0.037630      0.031660     -0.079787
      8.79137      3.38380      7.67490        -0.000000     -0.021426     -0.017550
      4.39568      5.92165      7.67490        -0.000000     -0.000647     -0.005703
      7.32614      5.92165      7.67490        -0.027741      0.019998      0.002523
     10.25659      5.92165      7.67490         0.027741      0.019998      0.002523
      8.79137      1.69824     10.07044         0.000000      0.005121      0.061330
      2.93075      1.69207     10.02201        -0.093193     -0.094703     -0.217358
      5.86061      1.69207     10.02201         0.093193     -0.094703     -0.217358
     10.25044      4.23330     10.05478         0.065606     -0.034387      0.007861
      4.39568      4.22940     10.02201         0.000000      0.082791     -0.175962
      7.33230      4.23330     10.05478        -0.065606     -0.034387      0.007861
     11.71633      6.76443     10.07044        -0.018046      0.001422      0.009476
      5.86640      6.76443     10.07044         0.018046      0.001422      0.009476
      8.79137      6.76048     10.05478         0.000000      0.029676     -0.003501
      0.00000      0.00000     12.42728        -0.000000     -0.036738      0.005781
      2.96092      0.05748     12.44843        -0.022035     -0.135711     -0.042702
      5.83045      0.05748     12.44843         0.022035     -0.135711     -0.042702
      1.53024      2.53549     12.44843        -0.143318      0.039727     -0.043446
      7.26113      2.53549     12.44843         0.143318      0.039727     -0.043446
      2.96500      5.02058     12.44843        -0.011523      0.081344     -0.019150
      5.82636      5.02058     12.44843         0.011523      0.081344     -0.019150
      8.79137      5.07570     12.42122         0.000000      0.000992      0.011352
      4.39568      2.53785     12.20312         0.000000      0.208993      0.766482
      3.51358      2.36017     13.57642        -0.005303     -0.001643      0.007506
      5.27779      2.36017     13.57642         0.005303     -0.001643      0.007506
    total drift:                               -0.045693     -0.002388     -0.005944

  FREE ENERGIE OF THE ION-ELECTRON SYSTEM (eV)
  free  energy   TOTEN  =      -105.07767756 eV

  energy  without entropy=     -105.07767756  energy(sigma->0) =     -105.07767756

 stress matrix after NEB project (eV)
     -8.11504     -0.00000      0.00000
     -0.00000     -8.00131      0.30558
      0.00000      0.30558      0.87635
  FORCES: max atom, RMS     0.009336    0.002142
  FORCE total and by dimension    0.013203    0.007506
  Stress total and by dimension   11.438079    8.115043
|           W    W    AA    RRRRR   N    N  II  N    N   GGGG   !!!           |
|           W    W   A  A   R    R  NN   N  II  NN   N  G    G  !!!           |
|           W    W  A    A  R    R  N N  N  II  N N  N  G       !!!           |
|           W WW W  AAAAAA  RRRRR   N  N N  II  N  N N  G  GGG   !            |
|           WW  WW  A    A  R   R   N   NN  II  N   NN  G    G                |
|           W    W  A    A  R    R  N    N  II  N    N   GGGG   !!!           |
|     Tetrahedron method does not include variations of the Fermi             |
|     occupations, so forces and stress will be inaccurate. We suggest        |
|     using a different smearing scheme ISMEAR = 1 or 2 for metals in         |
|     relaxations.                                                            |

 total charge

# of ion       s       p       d       tot
    1        0.418   0.201   9.179   9.798
    2        0.418   0.202   9.178   9.798
    3        0.418   0.202   9.178   9.798
    4        0.418   0.203   9.177   9.798
    5        0.419   0.203   9.175   9.798
    6        0.418   0.203   9.177   9.798
    7        0.418   0.203   9.177   9.798
    8        0.418   0.203   9.177   9.798
    9        0.413   0.202   9.180   9.795
   10        0.407   0.269   9.163   9.839
   11        0.411   0.267   9.168   9.846
   12        0.407   0.269   9.163   9.839
   13        0.410   0.268   9.168   9.847
   14        0.410   0.268   9.168   9.847
   15        0.403   0.269   9.166   9.837
   16        0.409   0.268   9.164   9.841
   17        0.402   0.270   9.165   9.838
   18        0.402   0.270   9.165   9.838
   19        0.399   0.266   9.167   9.832
   20        0.433   0.296   9.150   9.879
   21        0.433   0.296   9.150   9.879
   22        0.393   0.276   9.166   9.835
   23        0.434   0.303   9.143   9.880
   24        0.393   0.276   9.166   9.835
   25        0.403   0.264   9.167   9.834
   26        0.403   0.264   9.167   9.834
   27        0.392   0.274   9.168   9.834
   28        0.414   0.193   9.183   9.790
   29        0.411   0.217   9.174   9.802
   30        0.411   0.217   9.174   9.802
   31        0.403   0.233   9.167   9.803
   32        0.403   0.233   9.167   9.803
   33        0.415   0.217   9.170   9.802
   34        0.415   0.217   9.170   9.802
   35        0.406   0.195   9.184   9.786
   36        0.585   0.490   6.129   7.204
   37        0.514   0.023   0.000   0.537
   38        0.514   0.023   0.000   0.537
tot         15.992   9.016 327.053 352.061

 BZINTS: Fermi energy:    0.538808;  395.000000 electrons
         Band energy:-0.137348E+04;  BLOECHL correction:   -0.042728