 vasp.6.2.0 18Jan21 (build Jun 12 2021 23:27:24) complex

 executed on             LinuxIFC date 2022.05.26  19:17:31

 INCAR:
   ISMEAR = -5
   SIGMA = 0.1
   ISPIN = 1
   EDIFF = 1.d-5
   EDIFFG = -0.01
   NSW = 0
   NELM = 150
   ENCUT = 500
   ISIF = 2
   IBRION = 2
   LREAL = Auto
   ALGO = Fast
   ICHARG = 11
   LORBIT = 10
   LCHARG = .F.
   LWAVE = .F.

 POTCAR:    PAW_PBE Au 04Oct2007
 POTCAR:    PAW_PBE V 08Apr2002
 POTCAR:    PAW_PBE N 08Apr2002
|           W    W    AA    RRRRR   N    N  II  N    N   GGGG   !!!           |
|           W    W   A  A   R    R  NN   N  II  NN   N  G    G  !!!           |
|           W    W  A    A  R    R  N N  N  II  N N  N  G       !!!           |
|           W WW W  AAAAAA  RRRRR   N  N N  II  N  N N  G  GGG   !            |
|           WW  WW  A    A  R   R   N   NN  II  N   NN  G    G                |
|           W    W  A    A  R    R  N    N  II  N    N   GGGG   !!!           |
|     For optimal performance we recommend to set                             |
|       NCORE = 2 up to number-of-cores-per-socket                            |
|     This setting can greatly improve the performance of VASP for DFT.       |
|     The default, NCORE=1 might be grossly inefficient on modern             |
|     multi-core architectures or massively parallel machines. Do your        |
|     Unfortunately you need to use the default for GW and RPA                |
|     calculations (for HF NCORE is supported but not extensively tested      |
|     yet).                                                                   |

 POTCAR:    PAW_PBE Au 04Oct2007
   VRHFIN =Au: s1d10

   TITEL  = PAW_PBE Au 04Oct2007
   POMASS =  196.966; ZVAL   =   11.000    mass and valenz
   ENMAX  =  229.943; ENMIN  =  172.457 eV

 POTCAR:    PAW_PBE V 08Apr2002
   VRHFIN =V: p6 d4 s1

   TITEL  = PAW_PBE V 08Apr2002
   POMASS =   50.941; ZVAL   =    5.000    mass and valenz
   ENMAX  =  192.543; ENMIN  =  144.408 eV

 POTCAR:    PAW_PBE N 08Apr2002
   VRHFIN =N: s2p3

   TITEL  = PAW_PBE N 08Apr2002
   POMASS =   14.001; ZVAL   =    5.000    mass and valenz
   ENMAX  =  400.000; ENMIN  =  300.000 eV

 Optimization of the real space projectors (new method)

 maximal supplied QI-value         = 15.12
 optimisation between [QCUT,QGAM] = [ 11.34, 22.83] = [ 36.00,145.93] Ry
 Optimized for a Real-space Cutoff    1.39 Angstroem

   l    n(q)    QCUT    max X(q) W(low)/X(q) W(high)/X(q)  e(spline)
   2      9    11.338    60.898    0.39E-03    0.42E-03    0.21E-06
   2      9    11.338    58.894    0.40E-03    0.42E-03    0.22E-06
   0      9    11.338   109.617    0.13E-03    0.20E-04    0.13E-06
   0      9    11.338    75.026    0.13E-03    0.20E-04    0.13E-06
   1      9    11.338    16.344    0.33E-04    0.24E-03    0.18E-06
   1      9    11.338    10.160    0.26E-04    0.19E-03    0.15E-06
 Optimization of the real space projectors (new method)

[...]

   l    n(q)    QCUT    max X(q) W(low)/X(q) W(high)/X(q)  e(spline)
   2     10    11.327    96.114    0.36E-03    0.35E-03    0.42E-06
   2     10    11.327    88.986    0.37E-03    0.35E-03    0.42E-06
   0     11    11.327    20.919    0.40E-04    0.56E-04    0.79E-06
   0     11    11.327     9.593    0.30E-04    0.41E-04    0.60E-06
   1     10    11.327    11.615    0.15E-03    0.10E-03    0.19E-06
   1     10    11.327     7.031    0.11E-03    0.73E-04    0.14E-06
 Optimization of the real space projectors (new method)

 maximal supplied QI-value         = 25.13
 optimisation between [QCUT,QGAM] = [ 11.31, 22.87] = [ 35.82,146.48] Ry
 Optimized for a Real-space Cutoff    1.27 Angstroem

   l    n(q)    QCUT    max X(q) W(low)/X(q) W(high)/X(q)  e(spline)
   0      9    11.310    79.467    0.75E-04    0.16E-03    0.36E-06
   0      9    11.310    66.151    0.74E-04    0.16E-03    0.36E-06
   1      8    11.310    17.416    0.35E-03    0.12E-03    0.95E-06
   1      8    11.310    12.382    0.37E-03    0.13E-03    0.98E-06
  PAW_PBE Au 04Oct2007                  :
  PAW_PBE V 08Apr2002                   :
  PAW_PBE N 08Apr2002                   :

 POSCAR: Au-V-N
  positions in direct lattice
  velocities in cartesian coordinates
 exchange correlation table for  LEXCH =        8
   RHO(1)=    0.500       N(1)  =     2000
   RHO(2)=  100.500       N(2)  =     4000

 VTST: version 3.2, (02/03/18)

 CHAIN: initializing optimizer

 OPT: Using VASP Conjugate-Gradient optimizer
 CHAIN: Read ICHAIN            0

 POSCAR: Au-V-N
  positions in direct lattice
  velocities in cartesian coordinates

 ion  position               nearest neighbor table
   1  0.000  0.000  0.238-  16 2.94  12 2.94   6 2.94   8 2.94   7 2.94   3 2.94  10 2.94   4 2.94
                             2 2.94
   2  0.333  0.000  0.238-   9 2.94  11 2.94  17 2.94  10 2.94   8 2.94   4 2.94   5 2.94   1 2.94
                             3 2.94
   3  0.667  0.000  0.238-   7 2.94  18 2.94  12 2.94   1 2.94  11 2.94   5 2.94   6 2.94   9 2.94
                             2 2.94
   4  0.000  0.333  0.238-  10 2.94   6 2.94   5 2.94  13 2.94   2 2.94  15 2.94   9 2.94   1 2.94
                             7 2.94
   5  0.333  0.333  0.238-  13 2.94   7 2.94  11 2.94   4 2.94   2 2.94  14 2.94   3 2.94   8 2.94
                             6 2.94
   6  0.667  0.333  0.238-  15 2.94  14 2.94   1 2.94  12 2.94   4 2.94   9 2.94   8 2.94   3 2.94
                             5 2.94
   7  0.000  0.667  0.238-  18 2.94   3 2.94  16 2.94   5 2.94   1 2.94  13 2.94   8 2.94   4 2.94
                             9 2.94
   8  0.333  0.667  0.238-   9 2.94  17 2.94   1 2.94   2 2.94  14 2.94  16 2.94   6 2.94   7 2.94
                             5 2.94
   9  0.667  0.667  0.238-   2 2.94   8 2.94  17 2.94   6 2.94  15 2.94   4 2.94   3 2.94  18 2.94
                             7 2.94
  10  0.111  0.111  0.346-  20 2.93  26 2.94  19 2.94  11 2.94  17 2.94   2 2.94   4 2.94   1 2.94
                            12 2.94  16 2.94  13 2.94  15 2.94
  11  0.444  0.111  0.346-  20 2.92  21 2.92  27 2.94  13 2.94   2 2.94  10 2.94  17 2.94   5 2.94
                             3 2.94  18 2.94  14 2.94  12 2.94
  12  0.778  0.111  0.346-  21 2.93  25 2.94  19 2.94  16 2.94  18 2.94   1 2.94  14 2.94  15 2.94
                             3 2.94   6 2.94  10 2.94  11 2.94
  13  0.111  0.444  0.346-  23 2.92  20 2.92  22 2.94   5 2.94  18 2.94  11 2.94   7 2.94   4 2.94
                            16 2.94  10 2.94  14 2.94  15 2.94
  14  0.444  0.444  0.346-  21 2.92  23 2.92  24 2.94  15 2.94   6 2.94  12 2.94   8 2.94  17 2.94
                             5 2.94  16 2.94  13 2.94  11 2.94
  15  0.778  0.444  0.346-  24 2.92  22 2.92  19 2.93  14 2.94   6 2.94  17 2.94  12 2.94   9 2.94
                             4 2.94  10 2.94  13 2.94  18 2.94
  16  0.111  0.778  0.346-  23 2.93  25 2.94  26 2.94  18 2.94  12 2.94   7 2.94   1 2.94   8 2.94
                            13 2.94  10 2.94  14 2.94  17 2.94
  17  0.444  0.778  0.346-  27 2.92  24 2.92  26 2.93   9 2.94  15 2.94   2 2.94  10 2.94  11 2.94
                             8 2.94  14 2.94  16 2.94  18 2.94
  18  0.778  0.778  0.346-  22 2.92  27 2.92  25 2.93  16 2.94   7 2.94  13 2.94  12 2.94   3 2.94
                            11 2.94   9 2.94  15 2.94  17 2.94
  19  0.889  0.222  0.454-  15 2.93  10 2.94  12 2.94  24 2.94  22 2.94  28 2.94  26 2.94  25 2.94
                            21 2.95  20 2.95  32 3.03  31 3.03
  20  0.223  0.223  0.453-  36 2.72  23 2.92  21 2.92  11 2.92  13 2.92  10 2.93  29 2.95  31 2.95
                            26 2.95  19 2.95  27 2.95  22 2.95
  21  0.554  0.223  0.453-  36 2.72  20 2.92  23 2.92  14 2.92  11 2.92  12 2.93  30 2.95  32 2.95
                            25 2.95  19 2.95  27 2.95  24 2.95
  22  0.887  0.557  0.453-  24 2.91  27 2.91  18 2.92  15 2.92  25 2.94  19 2.94  13 2.94  23 2.95
                            20 2.95  35 2.96  33 2.99  31 2.99
  23  0.223  0.554  0.453-  36 2.72  20 2.92  21 2.92  13 2.92  14 2.92  16 2.93  33 2.95  34 2.95
                            25 2.95  26 2.95  22 2.95  24 2.95
  24  0.557  0.557  0.453-  27 2.91  22 2.91  15 2.92  17 2.92  26 2.94  19 2.94  14 2.94  21 2.95
                            23 2.95  35 2.96  32 2.99  34 2.99
  25  0.889  0.889  0.454-  18 2.93  16 2.94  12 2.94  22 2.94  27 2.94  28 2.94  19 2.94  26 2.94
                            23 2.95  21 2.95  33 3.03  30 3.03
  26  0.222  0.889  0.454-  17 2.93  10 2.94  16 2.94  27 2.94  24 2.94  28 2.94  19 2.94  25 2.94
                            20 2.95  23 2.95  29 3.03  34 3.03
  27  0.557  0.887  0.453-  24 2.91  22 2.91  17 2.92  18 2.92  26 2.94  25 2.94  11 2.94  20 2.95
                            21 2.95  35 2.96  29 2.99  30 2.99
  28  0.000  0.000  0.562-  25 2.94  19 2.94  26 2.94  34 2.99  32 2.99  33 2.99  30 2.99  31 2.99
                            29 2.99
  29  0.334  0.011  0.564-  30 2.83  31 2.85  36 2.86  20 2.95  35 2.98  27 2.99  28 2.99  26 3.03
                            34 3.13
  30  0.655  0.011  0.564-  29 2.83  32 2.85  36 2.86  21 2.95  35 2.98  27 2.99  28 2.99  25 3.03
                            33 3.13
  31  0.011  0.334  0.564-  33 2.83  29 2.85  36 2.86  20 2.95  35 2.98  22 2.99  28 2.99  19 3.03
                            32 3.13
  32  0.655  0.334  0.564-  34 2.83  30 2.85  36 2.86  21 2.95  35 2.98  24 2.99  28 2.99  19 3.03
                            31 3.13
  33  0.011  0.655  0.564-  31 2.83  34 2.85  36 2.86  23 2.95  35 2.98  22 2.99  28 2.99  25 3.03
                            30 3.13
  34  0.334  0.655  0.564-  32 2.83  33 2.85  36 2.86  23 2.95  35 2.98  24 2.99  28 2.99  26 3.03
                            29 3.13
  35  0.667  0.667  0.563-  24 2.96  27 2.96  22 2.96  29 2.98  34 2.98  32 2.98  31 2.98  30 2.98
                            33 2.98
  36  0.333  0.333  0.550-  37 1.63  20 2.72  23 2.72  21 2.72  33 2.86  31 2.86  29 2.86  30 2.86
                            34 2.86  32 2.86
  37  0.333  0.333  0.623-  36 1.63

  LATTYP: Found a hexagonal cell.
 ALAT       =     8.8135128021
 C/A-ratio  =     2.5184286595

  Lattice vectors:

 A1 = (  -4.4067569092,  -7.6327256898,   0.0000000000)
 A2 = (   8.8135128021,   0.0000000000,   0.0000000000)
 A3 = (   0.0000000000,   0.0000000000,  22.1962032318)

Analysis of symmetry for initial positions (statically):
 Subroutine PRICEL returns:
 Original cell was already a primitive cell.

 Routine SETGRP: Setting up the symmetry group for a
 hexagonal supercell.

 Subroutine GETGRP returns: Found  6 space group operations
 (whereof  6 operations were pure point group operations)
 out of a pool of 24 trial point group operations.

The static configuration has the point symmetry C_3v.

Analysis of symmetry for dynamics (positions and initial velocities):
 Subroutine PRICEL returns:
 Original cell was already a primitive cell.

[...]

The dynamic configuration has the point symmetry C_3v.

Analysis of constrained symmetry for selective dynamics:
 Subroutine PRICEL returns:
 Original cell was already a primitive cell.

 Routine SETGRP: Setting up the symmetry group for a
 hexagonal supercell.

 Subroutine GETGRP returns: Found  6 space group operations
[...]
     24      -5.1421      2.00000
     25      -5.1031      2.00000
     26      -5.0817      2.00000
     27      -5.0536      2.00000
     28      -4.9843      2.00000
     29      -4.9605      2.00000
     30      -4.8445      2.00000
     31      -4.8394      2.00000
     32      -4.8132      2.00000
     33      -4.7971      2.00000
     34      -4.7835      2.00000
     35      -4.7643      2.00000
     36      -4.6700      2.00000
     37      -4.6590      2.00000
     38      -4.6034      2.00000
     39      -4.5857      2.00000
     40      -4.5275      2.00000
     41      -4.4676      2.00000
     42      -4.4368      2.00000
     43      -4.3986      2.00000
     44      -4.3721      2.00000
     45      -4.3614      2.00000
     46      -4.3309      2.00000
     47      -4.2409      2.00000
     48      -4.2248      2.00000
     49      -4.2011      2.00000
     50      -4.1691      2.00000
     51      -4.1643      2.00000
     52      -4.1601      2.00000
     53      -4.1333      2.00000
     54      -4.1203      2.00000
     55      -4.0767      2.00000
     56      -4.0498      2.00000
     57      -4.0305      2.00000
     58      -4.0228      2.00000
     59      -4.0024      2.00000
     60      -3.9968      2.00000
[...]
    238       6.4489      0.00000
    239       6.5194      0.00000
    240       6.5277      0.00000
    241       6.6863      0.00000
    242       6.7024      0.00000
    243       6.7605      0.00000
    244       6.7858      0.00000
    245       6.9285      0.00000
    246       7.1455      0.00000
    247       7.1905      0.00000
    248       7.3041      0.00000
    249       7.5605      0.00000
    250       7.6481      0.00000
    251       7.7677      0.00000
    252       7.8359      0.00000

 soft charge-density along one line, spin component           1
         0         1         2         3         4         5         6         7         8         9
 total charge-density along one line

------------------------ aborting loop because EDIFF is reached ----------------------------------------

 total charge

# of ion       s       p       d       tot
    1        0.544   0.240   8.765   9.549
    2        0.544   0.241   8.764   9.549
    3        0.544   0.241   8.764   9.549
    4        0.544   0.241   8.764   9.549
    5        0.541   0.241   8.764   9.546
    6        0.544   0.241   8.764   9.549
    7        0.544   0.241   8.764   9.549
    8        0.544   0.241   8.764   9.549
    9        0.542   0.241   8.767   9.550
   10        0.519   0.307   8.771   9.598
   11        0.520   0.307   8.776   9.603
   12        0.519   0.307   8.771   9.598
   13        0.520   0.307   8.776   9.603
   14        0.520   0.307   8.776   9.603
   15        0.515   0.310   8.773   9.598
   16        0.519   0.307   8.771   9.598
   17        0.515   0.310   8.773   9.598
   18        0.515   0.310   8.773   9.598
   19        0.517   0.296   8.775   9.587
   20        0.548   0.329   8.751   9.627
   21        0.548   0.329   8.751   9.627
   22        0.511   0.308   8.773   9.592
   23        0.548   0.329   8.751   9.627
   24        0.511   0.308   8.773   9.592
   25        0.517   0.296   8.775   9.587
   26        0.517   0.296   8.775   9.587
   27        0.511   0.308   8.773   9.592
   28        0.540   0.226   8.760   9.526
   29        0.561   0.234   8.756   9.551
   30        0.561   0.234   8.756   9.551
   31        0.561   0.234   8.756   9.551
   32        0.561   0.234   8.756   9.551
   33        0.561   0.234   8.756   9.551
   34        0.561   0.234   8.756   9.551
   35        0.540   0.227   8.757   9.524
   36        0.514   0.729   3.859   5.102
   37        1.350   2.190   0.000   3.540
tot         20.588  12.515 310.647 343.750

  FORCE on cell =-STRESS in cart. coord.  units (eV):
  Direction    XX          YY          ZZ          XY          YZ          ZX
  Alpha Z  1002.52673  1002.52673  1002.52673
  Ewald  117594.41955117594.41995************    -0.00032    -0.00009    -0.00014
  Hartree126169.00179126169.00179************     0.00001    -0.00002    -0.00004
  E(xc)   -1769.61182 -1769.61181 -1779.65431    -0.00001     0.00000     0.00000
  Local  ************************256117.71158     0.00191     0.00003     0.00002
  n-local   -84.05977   -39.45851   -38.57981    22.54597    -1.68544     1.60042
  augment  2384.58237  2384.58389  2404.03461    -0.00132     0.00001     0.00004
  Kinetic  5469.52781  5477.89007  5527.57931     5.45845     0.20960     0.35548
  Fock        0.00000     0.00000     0.00000     0.00000     0.00000     0.00000
  Total     -20.28797   -20.28797     1.50672    -0.00000     0.00000     0.00000
  in kB     -21.76916   -21.76916     1.61672    -0.00000     0.00000     0.00000

 VOLUME and BASIS-vectors are now :
  energy-cutoff  :      500.00
  volume of cell :     1493.16
      direct lattice vectors                 reciprocal lattice vectors
     8.813512802  0.000000000  0.000000000     0.113462137 -0.065507406  0.000000000
     4.406756909  7.632725690  0.000000000     0.000000000  0.131014796  0.000000000
     0.000000000  0.000000000 22.196203232     0.000000000  0.000000000  0.045052750

  length of vectors
     8.813512802  8.813512802 22.196203232     0.131014796  0.131014796  0.045052750

 FORCES acting on ions
    electron-ion (+dipol)            ewald-force                    non-local-force                 convergence-correction
   -.194E-04 -.161E-04 0.247E+04   0.518E-04 0.433E-04 -.247E+04   -.497E-18 -.150E-17 -.597E+00   -.238E-03 -.151E-03 -.174E-01
   0.333E+00 -.174E+00 0.247E+04   -.296E+00 0.888E-01 -.247E+04   -.143E-01 0.164E-01 -.311E+00   -.217E-01 0.670E-01 -.152E-01
   -.333E+00 -.174E+00 0.247E+04   0.296E+00 0.888E-01 -.247E+04   0.143E-01 0.164E-01 -.311E+00   0.220E-01 0.689E-01 -.145E-01
   0.157E-01 0.376E+00 0.247E+04   -.713E-01 -.301E+00 -.247E+04   0.708E-02 -.206E-01 -.311E+00   0.472E-01 -.523E-01 -.152E-01
   0.872E-05 -.231E-04 0.247E+04   0.951E-04 0.173E-05 -.247E+04   0.545E-18 -.367E-19 -.395E+00   0.428E-02 0.260E-02 -.167E-01
   -.157E-01 0.376E+00 0.247E+04   0.712E-01 -.301E+00 -.247E+04   -.708E-02 -.206E-01 -.311E+00   -.488E-01 -.514E-01 -.143E-01
   -.318E+00 -.201E+00 0.247E+04   0.225E+00 0.212E+00 -.247E+04   0.214E-01 0.417E-02 -.311E+00   0.707E-01 -.154E-01 -.145E-01
   0.317E+00 -.201E+00 0.247E+04   -.225E+00 0.212E+00 -.247E+04   -.214E-01 0.417E-02 -.311E+00   -.689E-01 -.165E-01 -.143E-01
   0.194E-04 -.417E-04 0.247E+04   0.166E-03 -.200E-04 -.247E+04   -.170E-17 -.184E-17 -.485E+00   -.458E-02 -.237E-02 -.643E-01
   0.150E+01 0.869E+00 0.811E+03   -.136E+01 -.785E+00 -.811E+03   -.180E+00 -.104E+00 -.433E+00   0.278E-01 0.159E-01 0.706E-01
   0.143E-04 0.654E+00 0.814E+03   0.148E-03 -.866E+00 -.813E+03   0.357E-08 0.536E-01 -.410E+00   0.400E-02 0.113E+00 0.901E-01
   -.150E+01 0.869E+00 0.811E+03   0.136E+01 -.785E+00 -.811E+03   0.180E+00 -.104E+00 -.433E+00   -.293E-01 0.171E-01 0.705E-01
   0.567E+00 -.327E+00 0.814E+03   -.750E+00 0.433E+00 -.813E+03   0.465E-01 -.268E-01 -.410E+00   0.100E+00 -.529E-01 0.901E-01
   -.567E+00 -.327E+00 0.814E+03   0.749E+00 0.433E+00 -.813E+03   -.465E-01 -.268E-01 -.410E+00   -.928E-01 -.537E-01 0.893E-01
   0.318E-04 0.350E+01 0.815E+03   0.235E-03 -.347E+01 -.815E+03   0.151E-08 0.227E-01 -.396E+00   -.228E-02 -.867E-01 0.853E-01
   -.210E-04 -.174E+01 0.811E+03   0.162E-03 0.157E+01 -.811E+03   0.139E-07 0.208E+00 -.433E+00   -.714E-04 -.339E-01 0.705E-01
   0.303E+01 -.175E+01 0.815E+03   -.300E+01 0.173E+01 -.815E+03   0.197E-01 -.114E-01 -.396E+00   -.760E-01 0.418E-01 0.853E-01
   -.303E+01 -.175E+01 0.815E+03   0.300E+01 0.173E+01 -.815E+03   -.197E-01 -.114E-01 -.396E+00   0.763E-01 0.438E-01 0.859E-01
   -.424E-04 -.293E+01 -.864E+03   0.556E-04 0.275E+01 0.863E+03   0.680E-08 0.102E+00 0.798E+00   -.558E-03 0.411E-01 -.162E-02
   -.229E+01 -.132E+01 -.855E+03   0.286E+01 0.165E+01 0.856E+03   -.902E+00 -.521E+00 -.644E+00   0.925E-01 0.533E-01 0.518E-01
   0.229E+01 -.132E+01 -.855E+03   -.286E+01 0.165E+01 0.856E+03   0.902E+00 -.521E+00 -.644E+00   -.917E-01 0.536E-01 0.513E-01
   -.818E+01 0.472E+01 -.853E+03   0.769E+01 -.444E+01 0.853E+03   0.426E+00 -.246E+00 0.723E+00   0.115E+00 -.663E-01 0.555E-01
   -.887E-05 0.265E+01 -.855E+03   0.139E-03 -.330E+01 0.856E+03   0.693E-07 0.104E+01 -.644E+00   0.285E-03 -.106E+00 0.513E-01
   0.818E+01 0.472E+01 -.853E+03   -.769E+01 -.444E+01 0.853E+03   -.426E+00 -.246E+00 0.723E+00   -.115E+00 -.666E-01 0.554E-01
   0.254E+01 0.147E+01 -.864E+03   -.238E+01 -.138E+01 0.863E+03   -.885E-01 -.511E-01 0.798E+00   -.352E-01 -.204E-01 -.198E-02
   -.254E+01 0.147E+01 -.864E+03   0.238E+01 -.138E+01 0.863E+03   0.885E-01 -.511E-01 0.798E+00   0.356E-01 -.210E-01 -.160E-02
   0.102E-04 -.944E+01 -.853E+03   0.197E-03 0.887E+01 0.853E+03   0.327E-07 0.492E+00 0.723E+00   -.355E-03 0.133E+00 0.555E-01
   -.121E-04 -.122E-04 -.244E+04   0.289E-04 0.324E-04 0.244E+04   0.372E-18 -.127E-17 0.494E+00   -.341E-04 -.362E-04 0.918E-01
   0.188E+02 0.236E+02 -.244E+04   -.181E+02 -.228E+02 0.244E+04   -.780E+00 -.112E+01 0.811E+00   0.134E-01 0.717E-01 -.380E-01
   -.188E+02 0.236E+02 -.244E+04   0.181E+02 -.228E+02 0.244E+04   0.780E+00 -.112E+01 0.811E+00   -.132E-01 0.730E-01 -.379E-01
   0.298E+02 0.446E+01 -.244E+04   -.288E+02 -.431E+01 0.244E+04   -.136E+01 -.116E+00 0.811E+00   0.688E-01 -.243E-01 -.379E-01
   -.298E+02 0.446E+01 -.244E+04   0.288E+02 -.431E+01 0.244E+04   0.136E+01 -.116E+00 0.811E+00   -.696E-01 -.235E-01 -.379E-01
   0.110E+02 -.280E+02 -.244E+04   -.107E+02 0.271E+02 0.244E+04   -.579E+00 0.123E+01 0.811E+00   0.567E-01 -.479E-01 -.379E-01
   -.110E+02 -.280E+02 -.244E+04   0.107E+02 0.271E+02 0.244E+04   0.579E+00 0.123E+01 0.811E+00   -.551E-01 -.484E-01 -.379E-01
   0.342E-04 -.307E-04 -.245E+04   0.142E-03 -.480E-04 0.245E+04   -.207E-16 -.105E-16 0.423E+00   -.441E-02 -.225E-02 0.463E-01
   -.161E-04 -.231E-05 -.941E+03   0.527E-04 0.489E-05 0.941E+03   -.638E-17 0.114E-17 0.115E+01   0.954E-03 0.580E-03 -.493E-01
   0.102E-03 -.574E-04 -.133E+04   0.237E-04 0.153E-05 0.134E+04   -.133E-17 0.883E-19 -.170E+02   0.158E-02 0.966E-03 -.103E+00
   -.692E-03 -.830E-03 0.143E+02   -.111E-13 0.279E-12 0.546E-11   -.694E-15 -.931E-17 -.144E+02   0.771E-02 0.507E-02 0.625E+00

 POSITION                                       TOTAL-FORCE (eV/Angst)
      0.00000      0.00000      5.28038         0.000000      0.000000     -0.100126
      2.93784      0.00000      5.28038         0.001433     -0.001112     -0.061055
      5.87568      0.00000      5.28038        -0.001433     -0.001112     -0.061055
      1.46892      2.54424      5.28038        -0.000246      0.001797     -0.061055
      4.40676      2.54424      5.28038         0.000000      0.000000     -0.099558
      7.34459      2.54424      5.28038         0.000246      0.001797     -0.061055
      2.93784      5.08848      5.28038        -0.001679     -0.000686     -0.061055
      5.87568      5.08848      5.28038         0.001679     -0.000686     -0.061055
      8.81351      5.08848      5.28038         0.000000      0.000000     -0.063025
      1.46892      0.84808      7.67911        -0.007299     -0.004214      0.101669
      4.40676      0.84808      7.67911        -0.000000     -0.046061      0.064029
      7.34459      0.84808      7.67911         0.007299     -0.004214      0.101669
      2.93784      3.39232      7.67911        -0.039890      0.023031      0.064029
      5.87568      3.39232      7.67911         0.039890      0.023031      0.064029
      8.81351      3.39232      7.67911        -0.000000     -0.030629      0.126822
      4.40676      5.93656      7.67911         0.000000      0.008428      0.101669
      7.34459      5.93656      7.67911        -0.026525      0.015314      0.126822
     10.28243      5.93656      7.67911         0.026525      0.015314      0.126822
      8.81351      1.69782     10.07545        -0.000000     -0.037034      0.023439
      2.94790      1.70197     10.06171        -0.241970     -0.139702     -0.199705
      5.86562      1.70197     10.06171         0.241970     -0.139702     -0.199705
     10.26824      4.24860     10.06503         0.049562     -0.028614      0.022624
      4.40676      4.22879     10.06171         0.000000      0.279403     -0.199705
      7.35878      4.24860     10.06503        -0.049562     -0.028614      0.022624
     11.74991      6.78381     10.07545         0.032072      0.018517      0.023439
      5.87712      6.78381     10.07545        -0.032072      0.018517      0.023439
      8.81351      6.76826     10.06503         0.000000      0.057229      0.022624
      0.00000      0.00000     12.47281         0.000000      0.000000     -0.039830
      2.99055      0.08121     12.52138        -0.133753     -0.255008     -0.192550
      5.82296      0.08121     12.52138         0.133753     -0.255008     -0.192550
      1.56560      2.54929     12.52138        -0.287720      0.011671     -0.192550
      7.24791      2.54929     12.52138         0.287720      0.011671     -0.192550
      2.98181      5.00223     12.52138        -0.153967      0.243337     -0.192550
      5.83171      5.00223     12.52138         0.153967      0.243337     -0.192550
      8.81351      5.08848     12.50032         0.000000      0.000000      0.011987
      4.40676      2.54424     12.20130         0.000000      0.000000      1.404350
      4.40676      2.54424     13.82829         0.000000      0.000000     -0.008803
    total drift:                                0.007021      0.004242      0.431357

  FREE ENERGIE OF THE ION-ELECTRON SYSTEM (eV)
  free  energy   TOTEN  =      -122.61818322 eV

  energy  without entropy=     -122.61818322  energy(sigma->0) =     -122.61818322

 stress matrix after NEB project (eV)
    -20.28797     -0.00000      0.00000
     -0.00000    -20.28797      0.00000
     -0.00000      0.00000      1.50672
  FORCES: max atom, RMS     0.008803    0.001447
  FORCE total and by dimension    0.008803    0.008803
  Stress total and by dimension   28.731053   20.287968
|           W    W    AA    RRRRR   N    N  II  N    N   GGGG   !!!           |
|           W    W   A  A   R    R  NN   N  II  NN   N  G    G  !!!           |
|           W    W  A    A  R    R  N N  N  II  N N  N  G       !!!           |
|           W WW W  AAAAAA  RRRRR   N  N N  II  N  N N  G  GGG   !            |
|           WW  WW  A    A  R   R   N   NN  II  N   NN  G    G                |
|           W    W  A    A  R    R  N    N  II  N    N   GGGG   !!!           |
|     Tetrahedron method does not include variations of the Fermi             |
|     occupations, so forces and stress will be inaccurate. We suggest        |
|     using a different smearing scheme ISMEAR = 1 or 2 for metals in         |
|     relaxations.                                                            |

 total charge

# of ion       s       p       d       tot
    1        0.544   0.240   8.765   9.549
    2        0.544   0.241   8.764   9.549
    3        0.544   0.241   8.764   9.549
    4        0.544   0.241   8.764   9.549
    5        0.541   0.241   8.764   9.546
    6        0.544   0.241   8.764   9.549
    7        0.544   0.241   8.764   9.549
    8        0.544   0.241   8.764   9.549
    9        0.542   0.241   8.767   9.550
   10        0.519   0.307   8.771   9.598
   11        0.520   0.307   8.776   9.603
   12        0.519   0.307   8.771   9.598
   13        0.520   0.307   8.776   9.603
   14        0.520   0.307   8.776   9.603
   15        0.515   0.310   8.773   9.598
   16        0.519   0.307   8.771   9.598
   17        0.515   0.310   8.773   9.598
   18        0.515   0.310   8.773   9.598
   19        0.517   0.296   8.775   9.587
   20        0.548   0.329   8.751   9.627
   21        0.548   0.329   8.751   9.627
   22        0.511   0.308   8.773   9.592
   23        0.548   0.329   8.751   9.627
   24        0.511   0.308   8.773   9.592
   25        0.517   0.296   8.775   9.587
   26        0.517   0.296   8.775   9.587
   27        0.511   0.308   8.773   9.592
   28        0.540   0.226   8.760   9.526
   29        0.561   0.234   8.756   9.551
   30        0.561   0.234   8.756   9.551
   31        0.561   0.234   8.756   9.551
   32        0.561   0.234   8.756   9.551
   33        0.561   0.234   8.756   9.551
   34        0.561   0.234   8.756   9.551
   35        0.540   0.227   8.757   9.524
   36        0.514   0.729   3.859   5.102
   37        1.350   2.190   0.000   3.540
tot         20.588  12.515 310.647 343.750

 BZINTS: Fermi energy:    0.633625;  395.000000 electrons
         Band energy:-0.123681E+04;  BLOECHL correction:   -0.071453