 vasp.6.2.0 18Jan21 (build Jun 12 2021 23:27:24) complex

 executed on             LinuxIFC date 2022.05.27  05:56:04

 INCAR:
   ISMEAR = -5
   SIGMA = 0.1
   ISPIN = 1
   EDIFF = 1.d-5
   EDIFFG = -0.01
   NSW = 0
   NELM = 150
   ENCUT = 500
   ISIF = 2
   IBRION = 2
   LREAL = Auto
   ALGO = Fast
   ICHARG = 11
   LORBIT = 10
   LCHARG = .F.
   LWAVE = .F.

 POTCAR:    PAW_PBE Ag 02Apr2005
 POTCAR:    PAW_PBE Pt 04Feb2005
 POTCAR:    PAW_PBE N 08Apr2002
|           W    W    AA    RRRRR   N    N  II  N    N   GGGG   !!!           |
|           W    W   A  A   R    R  NN   N  II  NN   N  G    G  !!!           |
|           W    W  A    A  R    R  N N  N  II  N N  N  G       !!!           |
|           W WW W  AAAAAA  RRRRR   N  N N  II  N  N N  G  GGG   !            |
|           WW  WW  A    A  R   R   N   NN  II  N   NN  G    G                |
|           W    W  A    A  R    R  N    N  II  N    N   GGGG   !!!           |
|     For optimal performance we recommend to set                             |
|       NCORE = 2 up to number-of-cores-per-socket                            |
|     This setting can greatly improve the performance of VASP for DFT.       |
|     The default, NCORE=1 might be grossly inefficient on modern             |
|     multi-core architectures or massively parallel machines. Do your        |
|     Unfortunately you need to use the default for GW and RPA                |
|     calculations (for HF NCORE is supported but not extensively tested      |
|     yet).                                                                   |

 POTCAR:    PAW_PBE Ag 02Apr2005
   VRHFIN =Ag : s1 d10

   TITEL  = PAW_PBE Ag 02Apr2005
   POMASS =  107.868; ZVAL   =   11.000    mass and valenz
   ENMAX  =  249.844; ENMIN  =  187.383 eV

 POTCAR:    PAW_PBE Pt 04Feb2005
   VRHFIN =Pt: s1d9

   TITEL  = PAW_PBE Pt 04Feb2005
   POMASS =  195.080; ZVAL   =   10.000    mass and valenz
   ENMAX  =  230.283; ENMIN  =  172.712 eV

 POTCAR:    PAW_PBE N 08Apr2002
   VRHFIN =N: s2p3

   TITEL  = PAW_PBE N 08Apr2002
   POMASS =   14.001; ZVAL   =    5.000    mass and valenz
   ENMAX  =  400.000; ENMIN  =  300.000 eV

 Optimization of the real space projectors (new method)

 maximal supplied QI-value         = 15.12
 optimisation between [QCUT,QGAM] = [ 11.34, 22.83] = [ 36.00,145.93] Ry
 Optimized for a Real-space Cutoff    1.43 Angstroem

   l    n(q)    QCUT    max X(q) W(low)/X(q) W(high)/X(q)  e(spline)
   2      9    11.338    53.897    0.16E-03    0.20E-03    0.28E-06
   2      9    11.338    52.416    0.16E-03    0.20E-03    0.29E-06
   0     10    11.338   122.045    0.31E-04    0.76E-04    0.15E-06
   0     10    11.338    73.629    0.30E-04    0.72E-04    0.15E-06
   1      9    11.338    15.255    0.20E-03    0.19E-04    0.17E-06
   1      9    11.338     9.562    0.16E-03    0.15E-04    0.14E-06
 Optimization of the real space projectors (new method)

[...]

   l    n(q)    QCUT    max X(q) W(low)/X(q) W(high)/X(q)  e(spline)
   2      9    11.346    66.195    0.31E-03    0.12E-04    0.29E-06
   2      9    11.346    64.643    0.32E-03    0.12E-04    0.29E-06
   0     10    11.346    95.520    0.90E-04    0.16E-04    0.19E-06
   0     10    11.346    63.403    0.87E-04    0.15E-04    0.19E-06
   1     10    11.346    19.961    0.17E-03    0.21E-03    0.11E-06
   1     10    11.346    13.289    0.14E-03    0.18E-03    0.89E-07
 Optimization of the real space projectors (new method)

 maximal supplied QI-value         = 25.13
 optimisation between [QCUT,QGAM] = [ 11.31, 22.87] = [ 35.82,146.48] Ry
 Optimized for a Real-space Cutoff    1.27 Angstroem

   l    n(q)    QCUT    max X(q) W(low)/X(q) W(high)/X(q)  e(spline)
   0      9    11.310    79.467    0.75E-04    0.16E-03    0.36E-06
   0      9    11.310    66.151    0.74E-04    0.16E-03    0.36E-06
   1      8    11.310    17.416    0.35E-03    0.12E-03    0.95E-06
   1      8    11.310    12.382    0.37E-03    0.13E-03    0.98E-06
  PAW_PBE Ag 02Apr2005                  :
  PAW_PBE Pt 04Feb2005                  :
  PAW_PBE N 08Apr2002                   :

 POSCAR: Ag-Pt-N2
  positions in direct lattice
  velocities in cartesian coordinates
 exchange correlation table for  LEXCH =        8
   RHO(1)=    0.500       N(1)  =     2000
   RHO(2)=  100.500       N(2)  =     4000

 VTST: version 3.2, (02/03/18)

 CHAIN: initializing optimizer

 OPT: Using VASP Conjugate-Gradient optimizer
 CHAIN: Read ICHAIN            0

 POSCAR: Ag-Pt-N2
  positions in direct lattice
  velocities in cartesian coordinates

 ion  position               nearest neighbor table
   1  0.000  0.000  0.218-   2 2.93   8 2.93   7 2.93   6 2.93   4 2.93  12 2.93  16 2.93  10 2.93
                             3 2.93
   2  0.333  0.000  0.218-   1 2.93   8 2.93   9 2.93   3 2.93   4 2.93   5 2.93  10 2.93  17 2.93
                            11 2.93
   3  0.667  0.000  0.218-   9 2.93   2 2.93   5 2.93  11 2.93   7 2.93  18 2.93   1 2.93   6 2.93
                            12 2.93
   4  0.000  0.333  0.218-   5 2.93   6 2.93   2 2.93   1 2.93   7 2.93  13 2.93  15 2.93   9 2.93
                            10 2.93
   5  0.333  0.333  0.218-   4 2.93   3 2.93   7 2.93   2 2.93   8 2.93  14 2.93  13 2.93  11 2.93
                             6 2.93
   6  0.667  0.333  0.218-   4 2.93   9 2.93   1 2.93  15 2.93   8 2.93  12 2.93   3 2.93   5 2.93
                            14 2.93
   7  0.000  0.667  0.218-   8 2.93   1 2.93   5 2.93   3 2.93   4 2.93  16 2.93  18 2.93  13 2.93
                             9 2.93
   8  0.333  0.667  0.218-   7 2.93   1 2.93   2 2.93   9 2.93   5 2.93  16 2.93   6 2.93  17 2.93
                            14 2.93
   9  0.667  0.667  0.218-   3 2.93   2 2.93   8 2.93   6 2.93  17 2.93   4 2.93  15 2.93   7 2.93
                            18 2.93
  10  0.111  0.111  0.317-  20 2.89  19 2.93  26 2.93  12 2.93  16 2.93  15 2.93  17 2.93  13 2.93
                            11 2.93   2 2.93   1 2.93   4 2.93
  11  0.444  0.111  0.317-  21 2.90  20 2.90  27 2.91  14 2.93  17 2.93  18 2.93   3 2.93  12 2.93
                            13 2.93  10 2.93   5 2.93   2 2.93
  12  0.778  0.111  0.317-  21 2.89  25 2.93  19 2.93  10 2.93  16 2.93  18 2.93  15 2.93  11 2.93
                             1 2.93  14 2.93   6 2.93   3 2.93
  13  0.111  0.444  0.317-  20 2.90  23 2.90  22 2.91  15 2.93  14 2.93  18 2.93  10 2.93  11 2.93
                            16 2.93   4 2.93   5 2.93   7 2.93
  14  0.444  0.444  0.317-  23 2.90  21 2.90  24 2.91  13 2.93  11 2.93  16 2.93   5 2.93  12 2.93
                            17 2.93   8 2.93  15 2.93   6 2.93
  15  0.778  0.444  0.317-  24 2.91  22 2.91  19 2.92  13 2.93  10 2.93  12 2.93  17 2.93  18 2.93
                             4 2.93   6 2.93   9 2.93  14 2.93
  16  0.111  0.778  0.317-  23 2.89  26 2.93  25 2.93  18 2.93  12 2.93  10 2.93  14 2.93  17 2.93
                            13 2.93   7 2.93   8 2.93   1 2.93
  17  0.444  0.778  0.317-  27 2.91  24 2.91  26 2.92  11 2.93  10 2.93   9 2.93  18 2.93  15 2.93
                            16 2.93   2 2.93  14 2.93   8 2.93
  18  0.778  0.778  0.317-  22 2.91  27 2.91  25 2.92  16 2.93  12 2.93  13 2.93  11 2.93  17 2.93
                            15 2.93   7 2.93   3 2.93   9 2.93
  19  0.888  0.223  0.415-  28 2.91  15 2.92  20 2.92  21 2.92  24 2.92  22 2.92  10 2.93  12 2.93
                            32 2.93  31 2.93  26 2.94  25 2.94
  20  0.221  0.221  0.414-  36 2.81  10 2.89  13 2.90  11 2.90  19 2.92  26 2.92  31 2.92  29 2.92
                            27 2.93  22 2.93  21 2.95  23 2.95
  21  0.557  0.221  0.414-  36 2.81  12 2.89  11 2.90  14 2.90  25 2.92  19 2.92  30 2.92  32 2.92
                            27 2.93  24 2.93  20 2.95  23 2.95
  22  0.889  0.556  0.415-  35 2.91  18 2.91  15 2.91  13 2.91  25 2.92  19 2.92  24 2.93  27 2.93
                            33 2.93  31 2.93  23 2.93  20 2.93
  23  0.221  0.557  0.414-  36 2.81  16 2.89  14 2.90  13 2.90  26 2.92  25 2.92  34 2.92  33 2.92
                            22 2.93  24 2.93  21 2.95  20 2.95
  24  0.556  0.556  0.415-  35 2.91  15 2.91  17 2.91  14 2.91  19 2.92  26 2.92  27 2.93  22 2.93
                            32 2.93  34 2.93  23 2.93  21 2.93
  25  0.888  0.888  0.415-  28 2.91  18 2.92  23 2.92  21 2.92  22 2.92  27 2.92  16 2.93  12 2.93
                            33 2.93  30 2.93  26 2.94  19 2.94
  26  0.223  0.888  0.415-  28 2.91  17 2.92  23 2.92  20 2.92  27 2.92  24 2.92  16 2.93  10 2.93
                            34 2.93  29 2.93  25 2.94  19 2.94
  27  0.556  0.889  0.415-  35 2.91  17 2.91  18 2.91  11 2.91  26 2.92  25 2.92  24 2.93  22 2.93
                            29 2.93  30 2.93  20 2.93  21 2.93
  28  0.000  0.000  0.513-  26 2.91  25 2.91  19 2.91  29 2.95  34 2.95  33 2.95  32 2.95  31 2.95
                            30 2.95
  29  0.333  0.004  0.513-  30 2.89  31 2.89  36 2.90  20 2.92  27 2.93  26 2.93  35 2.95  28 2.95
                            34 3.00
  30  0.662  0.004  0.513-  29 2.89  32 2.89  36 2.90  21 2.92  27 2.93  25 2.93  35 2.95  28 2.95
                            33 3.00
  31  0.004  0.333  0.513-  33 2.89  29 2.89  36 2.90  20 2.92  22 2.93  19 2.93  35 2.95  28 2.95
                            32 3.00
  32  0.662  0.333  0.513-  34 2.89  30 2.89  36 2.90  21 2.92  24 2.93  19 2.93  35 2.95  28 2.95
                            31 3.00
  33  0.004  0.662  0.513-  31 2.89  34 2.89  36 2.90  23 2.92  22 2.93  25 2.93  35 2.95  28 2.95
                            30 3.00
  34  0.333  0.662  0.513-  32 2.89  33 2.89  36 2.90  23 2.92  24 2.93  26 2.93  35 2.95  28 2.95
                            29 3.00
  35  0.667  0.667  0.512-  24 2.91  27 2.91  22 2.91  30 2.95  32 2.95  29 2.95  34 2.95  31 2.95
                            33 2.95
  36  0.333  0.333  0.506-  21 2.81  20 2.81  23 2.81  31 2.90  33 2.90  30 2.90  29 2.90  34 2.90
                            32 2.90
  37  0.271  0.331  0.681-  38 1.11
  38  0.398  0.331  0.681-  37 1.11

  LATTYP: Found a hexagonal cell.
 ALAT       =     8.7913665772
 C/A-ratio  =     2.7558620758

  Lattice vectors:

 A1 = (  -4.3956832886,  -7.6135467898,   0.0000000000)
 A2 = (   8.7913665771,   0.0000000000,   0.0000000000)
 A3 = (   0.0000000000,   0.0000000000,  24.2277937442)

Analysis of symmetry for initial positions (statically):
 Subroutine PRICEL returns:
 Original cell was already a primitive cell.

 Routine SETGRP: Setting up the symmetry group for a
 hexagonal supercell.

 Subroutine GETGRP returns: Found  2 space group operations
 (whereof  2 operations were pure point group operations)
 out of a pool of 24 trial point group operations.

The static configuration has the point symmetry C_1h.

Analysis of symmetry for dynamics (positions and initial velocities):
 Subroutine PRICEL returns:
 Original cell was already a primitive cell.

[...]

The dynamic configuration has the point symmetry C_1h.

Analysis of constrained symmetry for selective dynamics:
 Subroutine PRICEL returns:
 Original cell was already a primitive cell.

 Routine SETGRP: Setting up the symmetry group for a
 hexagonal supercell.

[...]
     33      -4.8877      2.00000
     34      -4.8837      2.00000
     35      -4.8546      2.00000
     36      -4.8521      2.00000
     37      -4.8223      2.00000
     38      -4.8096      2.00000
     39      -4.7517      2.00000
     40      -4.7376      2.00000
     41      -4.7208      2.00000
     42      -4.6900      2.00000
     43      -4.6584      2.00000
     44      -4.6530      2.00000
     45      -4.6459      2.00000
     46      -4.6265      2.00000
     47      -4.6189      2.00000
     48      -4.5446      2.00000
     49      -4.5134      2.00000
     50      -4.5031      2.00000
     51      -4.4926      2.00000
     52      -4.4878      2.00000
     53      -4.4836      2.00000
     54      -4.4756      2.00000
     55      -4.4618      2.00000
     56      -4.4482      2.00000
     57      -4.4401      2.00000
     58      -4.3700      2.00000
     59      -4.3614      2.00000
     60      -4.3595      2.00000
[...]
    242       5.9256      0.00000
    243       6.0116      0.00000
    244       6.0507      0.00000
    245       6.4654      0.00000
    246       6.5291      0.00000
    247       6.6039      0.00000
    248       6.6318      0.00000
    249       6.8205      0.00000
    250       6.8970      0.00000
    251       6.9111      0.00000
    252       6.9448      0.00000
    253       7.0510      0.00000
    254       7.1776      0.00000
    255       7.3119      0.00000
    256       7.4073      0.00000

 soft charge-density along one line, spin component           1
         0         1         2         3         4         5         6         7         8         9
 total charge-density along one line

------------------------ aborting loop because EDIFF is reached ----------------------------------------

 total charge

# of ion       s       p       d       tot
    1        0.413   0.204   9.177   9.794
    2        0.418   0.202   9.177   9.797
    3        0.418   0.202   9.177   9.797
    4        0.418   0.202   9.177   9.797
    5        0.416   0.203   9.178   9.796
    6        0.418   0.202   9.177   9.797
    7        0.418   0.202   9.177   9.797
    8        0.418   0.202   9.177   9.797
    9        0.416   0.203   9.177   9.797
   10        0.405   0.271   9.164   9.840
   11        0.407   0.269   9.166   9.843
   12        0.405   0.271   9.164   9.840
   13        0.407   0.269   9.166   9.843
   14        0.407   0.269   9.166   9.843
   15        0.404   0.269   9.166   9.840
   16        0.405   0.271   9.164   9.840
   17        0.404   0.269   9.166   9.840
   18        0.404   0.269   9.166   9.840
   19        0.403   0.269   9.166   9.838
   20        0.406   0.283   9.164   9.854
   21        0.406   0.283   9.164   9.854
   22        0.402   0.271   9.168   9.841
   23        0.407   0.283   9.164   9.854
   24        0.402   0.271   9.168   9.841
   25        0.403   0.268   9.167   9.838
   26        0.403   0.268   9.167   9.838
   27        0.402   0.271   9.168   9.841
   28        0.414   0.197   9.181   9.792
   29        0.410   0.208   9.176   9.794
   30        0.410   0.208   9.176   9.794
   31        0.410   0.208   9.176   9.794
   32        0.410   0.208   9.176   9.794
   33        0.410   0.208   9.176   9.794
   34        0.410   0.208   9.176   9.794
   35        0.412   0.199   9.181   9.792
   36        0.618   0.269   8.178   9.065
   37        1.373   2.469   0.000   3.842
   38        1.373   2.469   0.000   3.842
tot         17.685  13.572 329.177 360.434

  FORCE on cell =-STRESS in cart. coord.  units (eV):
  Direction    XX          YY          ZZ          XY          YZ          ZX
  Alpha Z   710.41154   710.41154   710.41154
  Ewald  147708.86657147387.08741************     0.00002     0.11613     0.00001
  Hartree157768.92882157654.00290************     0.00001     0.10209     0.00000
  E(xc)   -2114.84680 -2116.08806 -2121.84010    -0.00004     0.00001    -0.00000
  Local  ************************316450.71127     0.00088    -0.21875    -0.00011
  n-local  -349.87271  -337.34408  -342.34171     2.52833     0.00030     0.18653
  augment  3274.14645  3273.84204  3283.70493    -0.00026     0.00006    -0.00003
  Kinetic  5089.66410  5107.76241  5136.51001     1.09446     0.00112     0.03391
  Fock        0.00000     0.00000     0.00000     0.00000     0.00000     0.00000
  Total      -8.53698    -8.52037    -0.60657    -0.00000     0.00096     0.00000
  in kB      -8.43446    -8.41805    -0.59928    -0.00000     0.00095     0.00000

 VOLUME and BASIS-vectors are now :
  energy-cutoff  :      500.00
  volume of cell :     1621.65
      direct lattice vectors                 reciprocal lattice vectors
     8.791366577  0.000000000  0.000000000     0.113747958 -0.065672414  0.000000000
     4.395683289  7.613546790  0.000000000     0.000000000  0.131344829  0.000000000
     0.000000000  0.000000000 24.227793744     0.000000000  0.000000000  0.041274910

  length of vectors
     8.791366577  8.791366577 24.227793744     0.131344829  0.131344829  0.041274910

 FORCES acting on ions
    electron-ion (+dipol)            ewald-force                    non-local-force                 convergence-correction
   0.460E-04 0.160E-02 0.268E+04   -.954E-04 -.261E-02 -.267E+04   -.625E-14 -.951E-03 -.198E+01   -.107E-03 0.168E-02 -.279E+00
   0.312E+00 0.262E+00 0.268E+04   -.396E+00 -.303E+00 -.267E+04   0.462E-01 0.767E-02 -.167E+01   0.354E-01 0.309E-01 -.199E+00
   -.311E+00 0.262E+00 0.268E+04   0.396E+00 -.303E+00 -.267E+04   -.462E-01 0.767E-02 -.167E+01   -.360E-01 0.328E-01 -.199E+00
   0.376E+00 0.130E+00 0.268E+04   -.458E+00 -.192E+00 -.267E+04   0.320E-01 0.365E-01 -.167E+01   0.465E-01 0.235E-01 -.201E+00
   -.766E-05 -.109E-01 0.268E+04   0.981E-04 0.599E-03 -.267E+04   -.581E-14 -.885E-03 -.163E+01   0.624E-02 0.112E-01 -.219E+00
   -.376E+00 0.130E+00 0.268E+04   0.458E+00 -.192E+00 -.267E+04   -.320E-01 0.365E-01 -.167E+01   -.479E-01 0.244E-01 -.200E+00
   0.737E-01 -.391E+00 0.268E+04   -.624E-01 0.495E+00 -.267E+04   -.168E-01 -.447E-01 -.167E+01   0.637E-02 -.556E-01 -.196E+00
   -.737E-01 -.391E+00 0.268E+04   0.624E-01 0.495E+00 -.267E+04   0.168E-01 -.447E-01 -.167E+01   -.473E-02 -.566E-01 -.196E+00
   0.362E-04 0.829E-02 0.268E+04   0.792E-04 0.200E-02 -.267E+04   0.114E-13 0.173E-02 -.177E+01   -.667E-02 -.119E-01 -.184E+00
   0.496E+01 0.288E+01 0.929E+03   -.477E+01 -.277E+01 -.928E+03   -.141E+00 -.810E-01 -.672E+00   -.420E-01 -.192E-01 -.141E+00
   -.291E-04 0.258E+01 0.933E+03   0.410E-04 -.253E+01 -.933E+03   -.341E-12 -.520E-01 -.579E+00   0.629E-02 -.120E-02 -.119E+00
   -.496E+01 0.288E+01 0.929E+03   0.477E+01 -.277E+01 -.928E+03   0.141E+00 -.810E-01 -.672E+00   0.404E-01 -.181E-01 -.142E+00
   0.223E+01 -.130E+01 0.933E+03   -.218E+01 0.127E+01 -.933E+03   -.443E-01 0.237E-01 -.578E+00   -.528E-02 0.115E-01 -.117E+00
   -.223E+01 -.130E+01 0.933E+03   0.218E+01 0.127E+01 -.933E+03   0.443E-01 0.237E-01 -.578E+00   0.160E-01 0.107E-01 -.118E+00
   0.159E-04 0.138E+01 0.930E+03   -.108E-03 -.141E+01 -.929E+03   0.560E-13 0.853E-02 -.625E+00   -.166E-02 0.909E-02 -.153E+00
   -.786E-05 -.573E+01 0.929E+03   0.205E-04 0.551E+01 -.928E+03   0.107E-11 0.163E+00 -.670E+00   0.117E-03 0.417E-01 -.142E+00
   0.121E+01 -.690E+00 0.930E+03   -.123E+01 0.714E+00 -.929E+03   0.790E-02 -.433E-02 -.621E+00   0.569E-02 -.122E-01 -.152E+00
   -.121E+01 -.691E+00 0.930E+03   0.123E+01 0.714E+00 -.929E+03   -.790E-02 -.433E-02 -.621E+00   -.569E-02 -.103E-01 -.152E+00
   0.413E-04 0.389E+01 -.850E+03   -.130E-03 -.376E+01 0.850E+03   -.566E-12 -.862E-01 0.491E+00   -.622E-03 -.518E-01 0.260E-01
   0.694E+01 0.406E+01 -.818E+03   -.672E+01 -.394E+01 0.818E+03   -.239E+00 -.137E+00 -.242E+00   0.183E-01 0.180E-01 -.368E-01
   -.694E+01 0.406E+01 -.818E+03   0.672E+01 -.394E+01 0.818E+03   0.239E+00 -.137E+00 -.242E+00   -.183E-01 0.181E-01 -.375E-01
   0.205E+01 -.129E+01 -.839E+03   -.228E+01 0.143E+01 0.838E+03   0.202E+00 -.118E+00 0.580E+00   0.194E-01 -.137E-01 -.108E-01
   -.556E-04 -.813E+01 -.818E+03   0.432E-04 0.787E+01 0.819E+03   0.180E-11 0.274E+00 -.241E+00   0.503E-03 -.249E-01 -.374E-01
   -.205E+01 -.129E+01 -.839E+03   0.228E+01 0.143E+01 0.838E+03   -.202E+00 -.118E+00 0.580E+00   -.194E-01 -.137E-01 -.102E-01
   -.333E+01 -.185E+01 -.851E+03   0.321E+01 0.179E+01 0.850E+03   0.759E-01 0.441E-01 0.490E+00   0.507E-01 0.261E-01 0.267E-01
   0.333E+01 -.185E+01 -.851E+03   -.321E+01 0.179E+01 0.850E+03   -.759E-01 0.441E-01 0.490E+00   -.506E-01 0.252E-01 0.266E-01
   0.188E-04 0.242E+01 -.839E+03   0.110E-03 -.269E+01 0.839E+03   0.153E-11 0.233E+00 0.581E+00   -.559E-03 0.176E-01 -.100E-01
   0.544E-04 0.695E+00 -.259E+04   -.116E-03 -.695E+00 0.259E+04   0.822E-14 0.125E-02 0.201E+01   -.112E-02 -.219E-02 0.171E+00
   0.110E+02 0.201E+02 -.259E+04   -.106E+02 -.195E+02 0.259E+04   -.382E+00 -.532E+00 0.179E+01   -.288E-02 -.570E-01 0.696E-01
   -.110E+02 0.201E+02 -.259E+04   0.106E+02 -.195E+02 0.259E+04   0.382E+00 -.532E+00 0.179E+01   0.125E-01 -.555E-01 0.696E-01
   0.225E+02 -.183E+00 -.259E+04   -.218E+02 0.208E+00 0.259E+04   -.649E+00 -.635E-01 0.182E+01   -.499E-01 0.373E-01 0.708E-01
   -.225E+02 -.183E+00 -.259E+04   0.218E+02 0.208E+00 0.259E+04   0.649E+00 -.635E-01 0.182E+01   0.595E-01 0.382E-01 0.706E-01
   0.110E+02 -.199E+02 -.259E+04   -.107E+02 0.192E+02 0.259E+04   -.274E+00 0.592E+00 0.179E+01   -.465E-01 0.346E-01 0.693E-01
   -.110E+02 -.199E+02 -.259E+04   0.107E+02 0.192E+02 0.259E+04   0.274E+00 0.592E+00 0.179E+01   0.582E-01 0.340E-01 0.692E-01
   0.233E-04 -.536E+00 -.259E+04   0.106E-03 0.550E+00 0.258E+04   0.809E-15 0.123E-03 0.201E+01   -.774E-02 -.135E-01 0.122E+00
   -.126E-05 -.175E+00 -.226E+04   0.953E-04 0.169E+00 0.225E+04   0.381E-14 0.579E-03 0.185E+01   0.179E-02 0.608E-02 0.103E+00
   0.241E+03 -.188E-01 -.982E+03   -.286E+03 0.182E-01 0.982E+03   0.456E+02 -.114E-02 0.580E-01   -.147E-03 0.117E-02 0.118E-01
   -.241E+03 -.188E-01 -.982E+03   0.286E+03 0.182E-01 0.982E+03   -.456E+02 -.114E-02 0.580E-01   0.132E-03 0.118E-02 0.118E-01
   0.506E-03 -.236E-01 0.397E+01   0.568E-13 0.389E-12 0.762E-11   -.924E-13 -.137E-01 -.170E+01   0.363E-01 0.373E-01 -.233E+01

 POSITION                                       TOTAL-FORCE (eV/Angst)
      0.00000      0.00000      5.28219        -0.000000     -0.000274      0.061899
      2.93046      0.00000      5.28219        -0.002763     -0.001955      0.030864
      5.86091      0.00000      5.28219         0.002763     -0.001955      0.030864
      1.46523      2.53785      5.28219        -0.003060     -0.001727      0.030823
      4.39568      2.53785      5.28219        -0.000000     -0.000025      0.027303
      7.32614      2.53785      5.28219         0.003060     -0.001727      0.030823
      2.93046      5.07570      5.28219         0.000066      0.003690      0.030793
      5.86091      5.07570      5.28219        -0.000066      0.003690      0.030793
      8.79137      5.07570      5.28219         0.000000      0.000144      0.038633
      1.46523      0.84595      7.67490         0.008673      0.005085     -0.018028
      4.39568      0.84595      7.67490        -0.000000     -0.009426     -0.078124
      7.32614      0.84595      7.67490        -0.008673      0.005085     -0.018028
      2.93046      3.38380      7.67490        -0.008191      0.005145     -0.078073
      5.86091      3.38380      7.67490         0.008191      0.005145     -0.078073
      8.79137      3.38380      7.67490        -0.000000     -0.016051     -0.035226
      4.39568      5.92165      7.67490        -0.000000     -0.010279     -0.017836
      7.32614      5.92165      7.67490        -0.014013      0.007970     -0.034701
     10.25659      5.92165      7.67490         0.014013      0.007970     -0.034701
      8.79137      1.70009     10.06101        -0.000000     -0.008721      0.013068
      2.92042      1.68610     10.02751         0.003925      0.001955     -0.000579
      5.87095      1.68610     10.02751        -0.003925      0.001955     -0.000579
     10.25445      4.23098     10.04520        -0.014472      0.008179      0.005563
      4.39568      4.24134     10.02751        -0.000000     -0.004481     -0.000584
      7.32828      4.23098     10.04520         0.014472      0.008179      0.005563
     11.71473      6.76350     10.06101         0.007585      0.004465      0.011600
      5.86800      6.76350     10.06101        -0.007585      0.004465      0.011600
      8.79137      6.76512     10.04520        -0.000000     -0.016278      0.004753
      0.00000      0.00000     12.42233        -0.000000     -0.000891      0.004357
      2.94927      0.03214     12.43461        -0.004960     -0.007893     -0.000715
      5.84210      0.03214     12.43461         0.004960     -0.007893     -0.000715
      1.50247      2.53807     12.43461        -0.008439     -0.000719      0.001435
      7.28890      2.53807     12.43461         0.008439     -0.000719      0.001435
      2.94888      5.04334     12.43461        -0.003534      0.008980     -0.000757
      5.84248      5.04334     12.43461         0.003534      0.008980     -0.000757
      8.79137      5.07570     12.41249         0.000000      0.000899      0.007399
      4.39568      2.53785     12.25656         0.000000      0.000213      0.007872
      3.83883      2.52364     16.49078         0.007891     -0.000589      0.005017
      4.95253      2.52364     16.49078        -0.007891     -0.000589      0.005017
    total drift:                                0.036790     -0.000021     -0.058185

  FREE ENERGIE OF THE ION-ELECTRON SYSTEM (eV)
  free  energy   TOTEN  =      -111.56787068 eV

  energy  without entropy=     -111.56787068  energy(sigma->0) =     -111.56787068

 stress matrix after NEB project (eV)
     -8.53698     -0.00000      0.00000
     -0.00000     -8.52037      0.00096
      0.00000      0.00096     -0.60657
  FORCES: max atom, RMS     0.009370    0.002150
  FORCE total and by dimension    0.013251    0.007891
  Stress total and by dimension   12.076612    8.536979
|           W    W    AA    RRRRR   N    N  II  N    N   GGGG   !!!           |
|           W    W   A  A   R    R  NN   N  II  NN   N  G    G  !!!           |
|           W    W  A    A  R    R  N N  N  II  N N  N  G       !!!           |
|           W WW W  AAAAAA  RRRRR   N  N N  II  N  N N  G  GGG   !            |
|           WW  WW  A    A  R   R   N   NN  II  N   NN  G    G                |
|           W    W  A    A  R    R  N    N  II  N    N   GGGG   !!!           |
|     Tetrahedron method does not include variations of the Fermi             |
|     occupations, so forces and stress will be inaccurate. We suggest        |
|     using a different smearing scheme ISMEAR = 1 or 2 for metals in         |
|     relaxations.                                                            |

 total charge

# of ion       s       p       d       tot
    1        0.413   0.204   9.177   9.794
    2        0.418   0.202   9.177   9.797
    3        0.418   0.202   9.177   9.797
    4        0.418   0.202   9.177   9.797
    5        0.416   0.203   9.178   9.796
    6        0.418   0.202   9.177   9.797
    7        0.418   0.202   9.177   9.797
    8        0.418   0.202   9.177   9.797
    9        0.416   0.203   9.177   9.797
   10        0.405   0.271   9.164   9.840
   11        0.407   0.269   9.166   9.843
   12        0.405   0.271   9.164   9.840
   13        0.407   0.269   9.166   9.843
   14        0.407   0.269   9.166   9.843
   15        0.404   0.269   9.166   9.840
   16        0.405   0.271   9.164   9.840
   17        0.404   0.269   9.166   9.840
   18        0.404   0.269   9.166   9.840
   19        0.403   0.269   9.166   9.838
   20        0.406   0.283   9.164   9.854
   21        0.406   0.283   9.164   9.854
   22        0.402   0.271   9.168   9.841
   23        0.407   0.283   9.164   9.854
   24        0.402   0.271   9.168   9.841
   25        0.403   0.268   9.167   9.838
   26        0.403   0.268   9.167   9.838
   27        0.402   0.271   9.168   9.841
   28        0.414   0.197   9.181   9.792
   29        0.410   0.208   9.176   9.794
   30        0.410   0.208   9.176   9.794
   31        0.410   0.208   9.176   9.794
   32        0.410   0.208   9.176   9.794
   33        0.410   0.208   9.176   9.794
   34        0.410   0.208   9.176   9.794
   35        0.412   0.199   9.181   9.792
   36        0.618   0.269   8.178   9.065
   37        1.373   2.469   0.000   3.842
   38        1.373   2.469   0.000   3.842
tot         17.685  13.572 329.177 360.434

 BZINTS: Fermi energy:    0.465299;  405.000000 electrons
         Band energy:-0.149741E+04;  BLOECHL correction:   -0.088836