 vasp.6.2.0 18Jan21 (build Jun 12 2021 23:27:24) complex

 executed on             LinuxIFC date 2022.05.27  05:18:11

 INCAR:
   ISMEAR = -5
   SIGMA = 0.1
   ISPIN = 1
   EDIFF = 1.d-5
   EDIFFG = -0.01
   NSW = 0
   NELM = 150
   ENCUT = 500
   ISIF = 2
   IBRION = 2
   LREAL = Auto
   ALGO = Fast
   ICHARG = 11
   LORBIT = 10
   LCHARG = .F.
   LWAVE = .F.

 POTCAR:    PAW_PBE Au 04Oct2007
 POTCAR:    PAW_PBE W 08Apr2002
 POTCAR:    PAW_PBE C 08Apr2002
 POTCAR:    PAW_PBE O 08Apr2002
|           W    W    AA    RRRRR   N    N  II  N    N   GGGG   !!!           |
|           W    W   A  A   R    R  NN   N  II  NN   N  G    G  !!!           |
|           W    W  A    A  R    R  N N  N  II  N N  N  G       !!!           |
|           W WW W  AAAAAA  RRRRR   N  N N  II  N  N N  G  GGG   !            |
|           WW  WW  A    A  R   R   N   NN  II  N   NN  G    G                |
|           W    W  A    A  R    R  N    N  II  N    N   GGGG   !!!           |
|     For optimal performance we recommend to set                             |
|       NCORE = 2 up to number-of-cores-per-socket                            |
|     This setting can greatly improve the performance of VASP for DFT.       |
|     The default, NCORE=1 might be grossly inefficient on modern             |
|     multi-core architectures or massively parallel machines. Do your        |
|     Unfortunately you need to use the default for GW and RPA                |
|     calculations (for HF NCORE is supported but not extensively tested      |
|     yet).                                                                   |

 POTCAR:    PAW_PBE Au 04Oct2007
   VRHFIN =Au: s1d10

   TITEL  = PAW_PBE Au 04Oct2007
   POMASS =  196.966; ZVAL   =   11.000    mass and valenz
   ENMAX  =  229.943; ENMIN  =  172.457 eV

 POTCAR:    PAW_PBE W 08Apr2002
   VRHFIN =W : 6s5d

   TITEL  = PAW_PBE W 08Apr2002
   POMASS =  183.850; ZVAL   =    6.000    mass and valenz
   ENMAX  =  223.057; ENMIN  =  167.293 eV

 POTCAR:    PAW_PBE C 08Apr2002
   VRHFIN =C: s2p2

[...]

 POTCAR:    PAW_PBE O 08Apr2002
   VRHFIN =O: s2p4

   TITEL  = PAW_PBE O 08Apr2002
   POMASS =   16.000; ZVAL   =    6.000    mass and valenz
   ENMAX  =  400.000; ENMIN  =  300.000 eV

 Optimization of the real space projectors (new method)

 maximal supplied QI-value         = 15.12
 optimisation between [QCUT,QGAM] = [ 11.34, 22.83] = [ 36.00,145.93] Ry
 Optimized for a Real-space Cutoff    1.39 Angstroem

   l    n(q)    QCUT    max X(q) W(low)/X(q) W(high)/X(q)  e(spline)
   2      9    11.338    60.898    0.39E-03    0.42E-03    0.21E-06
   2      9    11.338    58.894    0.40E-03    0.42E-03    0.22E-06
   0      9    11.338   109.617    0.13E-03    0.20E-04    0.13E-06
   0      9    11.338    75.026    0.13E-03    0.20E-04    0.13E-06
   1      9    11.338    16.344    0.33E-04    0.24E-03    0.18E-06
   1      9    11.338    10.160    0.26E-04    0.19E-03    0.15E-06
 Optimization of the real space projectors (new method)

[...]

   l    n(q)    QCUT    max X(q) W(low)/X(q) W(high)/X(q)  e(spline)
   0      7    11.310   115.676    0.43E-03    0.13E-02    0.19E-06
   0      7    11.310    87.132    0.43E-03    0.13E-02    0.18E-06
   1      6    11.310     4.429    0.42E-03    0.74E-03    0.11E-06
   1      6    11.310     2.733    0.34E-03    0.55E-03    0.92E-07
 Optimization of the real space projectors (new method)

 maximal supplied QI-value         = 24.76
 optimisation between [QCUT,QGAM] = [ 11.39, 22.77] = [ 36.31,145.25] Ry
 Optimized for a Real-space Cutoff    1.00 Angstroem

   l    n(q)    QCUT    max X(q) W(low)/X(q) W(high)/X(q)  e(spline)
   0      7    11.387    20.381    0.39E-03    0.13E-02    0.15E-06
   0      7    11.387    15.268    0.42E-03    0.14E-02    0.17E-06
   1      6    11.387     5.964    0.41E-03    0.11E-02    0.17E-06
   1      6    11.387     5.382    0.39E-03    0.87E-03    0.15E-06
  PAW_PBE Au 04Oct2007                  :
  PAW_PBE W 08Apr2002                   :
  PAW_PBE C 08Apr2002                   :
  PAW_PBE O 08Apr2002                   :

 POSCAR: Au-W-CO
  positions in direct lattice
  velocities in cartesian coordinates
 exchange correlation table for  LEXCH =        8
   RHO(1)=    0.500       N(1)  =     2000
   RHO(2)=  100.500       N(2)  =     4000

 VTST: version 3.2, (02/03/18)

 CHAIN: initializing optimizer

 OPT: Using VASP Conjugate-Gradient optimizer
 CHAIN: Read ICHAIN            0

 POSCAR: Au-W-CO
  positions in direct lattice
  velocities in cartesian coordinates

 ion  position               nearest neighbor table
   1  0.000  0.000  0.238-  16 2.94  12 2.94   6 2.94   8 2.94   7 2.94   3 2.94  10 2.94   4 2.94
                             2 2.94
   2  0.333  0.000  0.238-   9 2.94  11 2.94  17 2.94  10 2.94   8 2.94   4 2.94   5 2.94   1 2.94
                             3 2.94
   3  0.667  0.000  0.238-   7 2.94  18 2.94  12 2.94   1 2.94  11 2.94   5 2.94   6 2.94   9 2.94
                             2 2.94
   4  0.000  0.333  0.238-  10 2.94   6 2.94   5 2.94  13 2.94   2 2.94  15 2.94   9 2.94   1 2.94
                             7 2.94
   5  0.333  0.333  0.238-  13 2.94   7 2.94  11 2.94   4 2.94   2 2.94  14 2.94   3 2.94   8 2.94
                             6 2.94
   6  0.667  0.333  0.238-  15 2.94  14 2.94   1 2.94  12 2.94   4 2.94   9 2.94   8 2.94   3 2.94
                             5 2.94
   7  0.000  0.667  0.238-  18 2.94   3 2.94  16 2.94   5 2.94   1 2.94  13 2.94   8 2.94   4 2.94
                             9 2.94
   8  0.333  0.667  0.238-   9 2.94  17 2.94   1 2.94   2 2.94  14 2.94  16 2.94   6 2.94   7 2.94
                             5 2.94
   9  0.667  0.667  0.238-   2 2.94   8 2.94  17 2.94   6 2.94  15 2.94   4 2.94   3 2.94  18 2.94
                             7 2.94
  10  0.111  0.111  0.346-  20 2.90  11 2.94  17 2.94   2 2.94   4 2.94   1 2.94  12 2.94  16 2.94
                            13 2.94  15 2.94  26 2.96  19 2.96
  11  0.444  0.111  0.346-  20 2.91  21 2.91  13 2.94   2 2.94  10 2.94  17 2.94   5 2.94   3 2.94
                            18 2.94  14 2.94  12 2.94  27 2.94
  12  0.778  0.111  0.346-  21 2.90  16 2.94  18 2.94   1 2.94  14 2.94  15 2.94   3 2.94   6 2.94
                            10 2.94  11 2.94  25 2.96  19 2.96
  13  0.111  0.444  0.346-  23 2.91  20 2.91   5 2.94  18 2.94  11 2.94   7 2.94   4 2.94  16 2.94
                            10 2.94  14 2.94  15 2.94  22 2.94
  14  0.444  0.444  0.346-  21 2.91  23 2.91  15 2.94   6 2.94  12 2.94   8 2.94  17 2.94   5 2.94
                            16 2.94  13 2.94  11 2.94  24 2.94
  15  0.778  0.444  0.346-  24 2.92  22 2.92  14 2.94   6 2.94  17 2.94  12 2.94   9 2.94   4 2.94
                            10 2.94  13 2.94  18 2.94  19 2.95
  16  0.111  0.778  0.346-  23 2.90  18 2.94  12 2.94   7 2.94   1 2.94   8 2.94  13 2.94  10 2.94
                            14 2.94  17 2.94  25 2.96  26 2.96
  17  0.444  0.778  0.346-  27 2.92  24 2.92   9 2.94  15 2.94   2 2.94  10 2.94  11 2.94   8 2.94
                            14 2.94  16 2.94  18 2.94  26 2.95
  18  0.778  0.778  0.346-  22 2.92  27 2.92  16 2.94   7 2.94  13 2.94  12 2.94   3 2.94  11 2.94
                             9 2.94  15 2.94  17 2.94  25 2.95
  19  0.888  0.224  0.455-  24 2.93  22 2.93  21 2.93  20 2.93  28 2.94  15 2.95  26 2.96  25 2.96
                            10 2.96  12 2.96  32 3.04  31 3.04
  20  0.222  0.222  0.452-  36 2.74  10 2.90  11 2.91  13 2.91  26 2.93  19 2.93  23 2.95  21 2.95
                            27 2.96  22 2.96  29 2.98  31 2.98
  21  0.557  0.222  0.452-  36 2.74  12 2.90  14 2.91  11 2.91  25 2.93  19 2.93  20 2.95  23 2.95
                            27 2.96  24 2.96  30 2.98  32 2.98
  22  0.886  0.557  0.454-  24 2.90  27 2.90  18 2.92  15 2.92  25 2.93  19 2.93  13 2.94  35 2.95
                            23 2.96  20 2.96  33 3.02  31 3.02
  23  0.222  0.557  0.452-  36 2.74  16 2.90  13 2.91  14 2.91  25 2.93  26 2.93  20 2.95  21 2.95
                            22 2.96  24 2.96  33 2.98  34 2.98
  24  0.557  0.557  0.454-  27 2.90  22 2.90  15 2.92  17 2.92  26 2.93  19 2.93  14 2.94  35 2.95
                            21 2.96  23 2.96  32 3.02  34 3.02
  25  0.888  0.888  0.455-  22 2.93  27 2.93  23 2.93  21 2.93  28 2.94  18 2.95  19 2.96  26 2.96
                            16 2.96  12 2.96  33 3.04  30 3.04
  26  0.224  0.888  0.455-  27 2.93  24 2.93  20 2.93  23 2.93  28 2.94  17 2.95  19 2.96  25 2.96
                            10 2.96  16 2.96  29 3.04  34 3.04
  27  0.557  0.886  0.454-  24 2.90  22 2.90  17 2.92  18 2.92  26 2.93  25 2.93  11 2.94  35 2.95
                            20 2.96  21 2.96  29 3.02  30 3.02
  28  0.000  0.000  0.563-  25 2.94  19 2.94  26 2.94  34 3.00  32 3.00  33 3.00  30 3.00  31 3.00
                            29 3.00
  29  0.334  0.013  0.566-  30 2.82  31 2.82  36 2.84  20 2.98  35 3.00  28 3.00  27 3.02  26 3.04
                            34 3.17
  30  0.653  0.013  0.566-  29 2.82  32 2.82  36 2.84  21 2.98  35 3.00  28 3.00  27 3.02  25 3.04
                            33 3.17
  31  0.013  0.334  0.566-  33 2.82  29 2.82  36 2.84  20 2.98  35 3.00  28 3.00  22 3.02  19 3.04
                            32 3.17
  32  0.653  0.334  0.566-  34 2.82  30 2.82  36 2.84  21 2.98  35 3.00  28 3.00  24 3.02  19 3.04
                            31 3.17
  33  0.013  0.653  0.566-  31 2.82  34 2.82  36 2.84  23 2.98  35 3.00  28 3.00  22 3.02  25 3.04
                            30 3.17
  34  0.334  0.653  0.566-  32 2.82  33 2.82  36 2.84  23 2.98  35 3.00  28 3.00  24 3.02  26 3.04
                            29 3.17
  35  0.667  0.667  0.563-  24 2.95  27 2.95  22 2.95  29 3.00  34 3.00  32 3.00  31 3.00  30 3.00
                            33 3.00
  36  0.333  0.333  0.549-  37 1.99  20 2.74  23 2.74  21 2.74  33 2.84  31 2.84  29 2.84  30 2.84
                            34 2.84  32 2.84
  37  0.333  0.333  0.639-  38 1.17  36 1.99
  38  0.333  0.333  0.692-  37 1.17

  LATTYP: Found a hexagonal cell.
 ALAT       =     8.8135128021
 C/A-ratio  =     2.5184286595

  Lattice vectors:

 A1 = (  -4.4067569092,  -7.6327256898,   0.0000000000)
 A2 = (   8.8135128021,   0.0000000000,   0.0000000000)
 A3 = (   0.0000000000,   0.0000000000,  22.1962032318)

Analysis of symmetry for initial positions (statically):
 Subroutine PRICEL returns:
 Original cell was already a primitive cell.

 Routine SETGRP: Setting up the symmetry group for a
 hexagonal supercell.

 Subroutine GETGRP returns: Found  6 space group operations
 (whereof  6 operations were pure point group operations)
 out of a pool of 24 trial point group operations.

The static configuration has the point symmetry C_3v.

Analysis of symmetry for dynamics (positions and initial velocities):
 Subroutine PRICEL returns:
 Original cell was already a primitive cell.

[...]

The dynamic configuration has the point symmetry C_3v.

Analysis of constrained symmetry for selective dynamics:
 Subroutine PRICEL returns:
 Original cell was already a primitive cell.

 Routine SETGRP: Setting up the symmetry group for a
 hexagonal supercell.

[...]
     33      -4.8482      2.00000
     34      -4.8289      2.00000
     35      -4.8008      2.00000
     36      -4.7973      2.00000
     37      -4.7148      2.00000
     38      -4.7012      2.00000
     39      -4.6929      2.00000
     40      -4.6542      2.00000
     41      -4.6462      2.00000
     42      -4.4956      2.00000
     43      -4.4881      2.00000
     44      -4.4245      2.00000
     45      -4.3811      2.00000
     46      -4.3494      2.00000
     47      -4.3074      2.00000
     48      -4.2914      2.00000
     49      -4.2765      2.00000
     50      -4.2602      2.00000
     51      -4.1677      2.00000
     52      -4.1404      2.00000
     53      -4.1267      2.00000
     54      -4.1089      2.00000
     55      -4.0852      2.00000
     56      -4.0712      2.00000
     57      -4.0618      2.00000
     58      -4.0368      2.00000
     59      -4.0095      2.00000
     60      -3.9764      2.00000
[...]
    238       6.1640      0.00000
    239       6.4315      0.00000
    240       6.4814      0.00000
    241       6.5635      0.00000
    242       6.5765      0.00000
    243       6.6069      0.00000
    244       6.7846      0.00000
    245       6.8123      0.00000
    246       6.8755      0.00000
    247       6.9221      0.00000
    248       6.9472      0.00000
    249       7.2633      0.00000
    250       7.3071      0.00000
    251       7.3563      0.00000
    252       7.6929      0.00000

 soft charge-density along one line, spin component           1
         0         1         2         3         4         5         6         7         8         9
 total charge-density along one line

------------------------ aborting loop because EDIFF is reached ----------------------------------------

 total charge

# of ion       s       p       d       tot
    1        0.546   0.237   8.769   9.552
    2        0.543   0.240   8.765   9.548
    3        0.543   0.240   8.765   9.548
    4        0.543   0.240   8.765   9.548
    5        0.547   0.240   8.759   9.546
    6        0.543   0.240   8.765   9.548
    7        0.543   0.240   8.765   9.548
    8        0.543   0.240   8.765   9.548
    9        0.542   0.239   8.769   9.550
   10        0.526   0.307   8.765   9.598
   11        0.525   0.306   8.779   9.610
   12        0.526   0.307   8.765   9.598
   13        0.525   0.306   8.779   9.610
   14        0.525   0.306   8.779   9.610
   15        0.515   0.308   8.775   9.598
   16        0.526   0.307   8.765   9.598
   17        0.515   0.308   8.775   9.598
   18        0.515   0.308   8.775   9.598
   19        0.516   0.294   8.771   9.581
   20        0.573   0.344   8.733   9.649
   21        0.573   0.344   8.733   9.649
   22        0.505   0.306   8.779   9.590
   23        0.573   0.344   8.733   9.649
   24        0.505   0.306   8.779   9.590
   25        0.516   0.294   8.771   9.581
   26        0.516   0.294   8.771   9.581
   27        0.505   0.306   8.779   9.590
   28        0.537   0.224   8.760   9.521
   29        0.576   0.253   8.737   9.566
   30        0.576   0.253   8.737   9.566
   31        0.576   0.253   8.737   9.566
   32        0.576   0.253   8.737   9.566
   33        0.576   0.253   8.737   9.566
   34        0.576   0.253   8.737   9.566
   35        0.536   0.223   8.759   9.518
   36        0.585   0.577   4.025   5.187
   37        0.962   1.557   0.000   2.518
   38        1.613   3.530   0.000   5.143
tot         22.057  15.377 310.661 348.096

  FORCE on cell =-STRESS in cart. coord.  units (eV):
  Direction    XX          YY          ZZ          XY          YZ          ZX
  Alpha Z  1039.67590  1039.67590  1039.67590
  Ewald  115334.82679115334.82722************    -0.00031    -0.00009    -0.00014
  Hartree124133.27268124133.27269************     0.00001    -0.00002    -0.00004
  E(xc)   -1797.84292 -1797.84299 -1805.80986     0.00006    -0.00000    -0.00001
  Local  ************************251374.37083     0.00203     0.00002     0.00001
  n-local  -105.09988   -57.38384   -59.30487    23.50615    -1.45465     1.54684
  augment  2373.52774  2373.52922  2395.28334    -0.00128     0.00002     0.00006
  Kinetic  5606.58496  5617.29088  5652.63113     6.33722    -0.06652     0.65827
  Fock        0.00000     0.00000     0.00000     0.00000     0.00000     0.00000
  Total     -21.54291   -21.54291     3.81656    -0.00000    -0.00000     0.00000
  in kB     -23.11573   -23.11573     4.09521    -0.00000    -0.00000     0.00000

 VOLUME and BASIS-vectors are now :
  energy-cutoff  :      500.00
  volume of cell :     1493.16
      direct lattice vectors                 reciprocal lattice vectors
     8.813512802  0.000000000  0.000000000     0.113462137 -0.065507406  0.000000000
     4.406756909  7.632725690  0.000000000     0.000000000  0.131014796  0.000000000
     0.000000000  0.000000000 22.196203232     0.000000000  0.000000000  0.045052750

  length of vectors
     8.813512802  8.813512802 22.196203232     0.131014796  0.131014796  0.045052750

 FORCES acting on ions
    electron-ion (+dipol)            ewald-force                    non-local-force                 convergence-correction
   -.195E-04 -.161E-04 0.247E+04   0.520E-04 0.434E-04 -.247E+04   -.170E-17 0.126E-17 -.963E+00   -.201E-03 -.130E-03 -.206E+00
   0.636E+00 -.156E-01 0.247E+04   -.778E+00 -.210E+00 -.247E+04   0.774E-01 0.143E+00 -.254E+00   0.645E-01 0.781E-01 -.224E+00
   -.636E+00 -.156E-01 0.247E+04   0.778E+00 -.210E+00 -.247E+04   -.774E-01 0.143E+00 -.254E+00   -.642E-01 0.801E-01 -.224E+00
   0.305E+00 0.559E+00 0.247E+04   -.571E+00 -.569E+00 -.247E+04   0.163E+00 -.448E-02 -.254E+00   0.100E+00 0.168E-01 -.224E+00
   0.889E-05 -.233E-04 0.247E+04   0.951E-04 0.175E-05 -.247E+04   0.471E-17 -.772E-19 0.715E-01   0.430E-02 0.262E-02 -.184E+00
   -.305E+00 0.559E+00 0.247E+04   0.570E+00 -.569E+00 -.247E+04   -.163E+00 -.448E-02 -.254E+00   -.102E+00 0.177E-01 -.223E+00
   -.332E+00 -.543E+00 0.247E+04   0.207E+00 0.778E+00 -.247E+04   0.852E-01 -.139E+00 -.254E+00   0.373E-01 -.957E-01 -.224E+00
   0.331E+00 -.543E+00 0.247E+04   -.207E+00 0.778E+00 -.247E+04   -.852E-01 -.139E+00 -.254E+00   -.354E-01 -.968E-01 -.223E+00
   0.196E-04 -.416E-04 0.247E+04   0.166E-03 -.200E-04 -.247E+04   0.515E-18 0.208E-19 -.611E+00   -.464E-02 -.240E-02 -.198E+00
   0.770E+01 0.444E+01 0.834E+03   -.730E+01 -.421E+01 -.833E+03   -.441E+00 -.255E+00 -.704E+00   0.165E-01 0.943E-02 -.415E-01
   0.145E-04 0.305E+01 0.840E+03   0.148E-03 -.317E+01 -.840E+03   0.559E-08 0.840E-01 -.137E+00   0.379E-02 -.133E-01 -.373E-01
   -.770E+01 0.444E+01 0.834E+03   0.730E+01 -.421E+01 -.833E+03   0.441E+00 -.255E+00 -.704E+00   -.178E-01 0.109E-01 -.418E-01
   0.264E+01 -.152E+01 0.840E+03   -.275E+01 0.159E+01 -.840E+03   0.728E-01 -.420E-01 -.137E+00   -.935E-02 0.102E-01 -.373E-01
   -.264E+01 -.152E+01 0.840E+03   0.275E+01 0.159E+01 -.840E+03   -.728E-01 -.420E-01 -.137E+00   0.172E-01 0.977E-02 -.374E-01
   0.313E-04 0.558E+01 0.839E+03   0.236E-03 -.572E+01 -.838E+03   0.259E-08 0.389E-01 -.542E+00   -.239E-02 0.180E-01 0.466E-02
   -.214E-04 -.889E+01 0.834E+03   0.163E-03 0.843E+01 -.833E+03   0.339E-07 0.509E+00 -.704E+00   0.297E-03 -.209E-01 -.418E-01
   0.483E+01 -.279E+01 0.839E+03   -.495E+01 0.286E+01 -.838E+03   0.337E-01 -.195E-01 -.542E+00   0.147E-01 -.107E-01 0.468E-02
   -.483E+01 -.279E+01 0.839E+03   0.495E+01 0.286E+01 -.838E+03   -.337E-01 -.195E-01 -.542E+00   -.147E-01 -.875E-02 0.441E-02
   -.435E-04 0.322E+01 -.835E+03   0.551E-04 -.336E+01 0.834E+03   0.160E-08 0.241E-01 0.602E+00   -.256E-03 0.985E-01 0.223E+00
   0.229E+01 0.132E+01 -.791E+03   -.118E+01 -.679E+00 0.792E+03   -.126E+01 -.725E+00 -.152E+01   0.131E-01 0.743E-02 0.266E+00
   -.229E+01 0.132E+01 -.791E+03   0.118E+01 -.679E+00 0.792E+03   0.126E+01 -.725E+00 -.152E+01   -.123E-01 0.948E-02 0.265E+00
   -.846E+01 0.489E+01 -.812E+03   0.795E+01 -.459E+01 0.811E+03   0.555E+00 -.320E+00 0.621E+00   -.105E-01 0.177E-02 0.204E+00
   -.103E-04 -.264E+01 -.791E+03   0.139E-03 0.136E+01 0.792E+03   0.965E-07 0.145E+01 -.152E+01   0.180E-02 -.154E-01 0.265E+00
   0.846E+01 0.489E+01 -.812E+03   -.795E+01 -.459E+01 0.811E+03   -.555E+00 -.320E+00 0.621E+00   0.362E-02 0.214E-02 0.204E+00
   -.279E+01 -.161E+01 -.835E+03   0.291E+01 0.168E+01 0.834E+03   -.208E-01 -.120E-01 0.602E+00   -.836E-01 -.483E-01 0.223E+00
   0.279E+01 -.161E+01 -.835E+03   -.291E+01 0.168E+01 0.834E+03   0.208E-01 -.120E-01 0.602E+00   0.855E-01 -.494E-01 0.224E+00
   0.113E-04 -.977E+01 -.812E+03   0.197E-03 0.918E+01 0.811E+03   0.426E-07 0.640E+00 0.621E+00   -.428E-02 -.100E-01 0.204E+00
   -.147E-04 -.132E-04 -.239E+04   0.308E-04 0.342E-04 0.239E+04   0.160E-17 -.168E-18 0.622E+00   0.129E-02 0.730E-03 0.292E+00
   0.323E+02 0.522E+02 -.238E+04   -.313E+02 -.506E+02 0.238E+04   -.118E+01 -.186E+01 0.223E-01   0.860E-01 0.597E-01 0.214E+00
   -.323E+02 0.522E+02 -.238E+04   0.313E+02 -.506E+02 0.238E+04   0.118E+01 -.186E+01 0.223E-01   -.921E-01 0.617E-01 0.215E+00
   0.614E+02 0.186E+01 -.238E+04   -.594E+02 -.180E+01 0.238E+04   -.220E+01 -.969E-01 0.223E-01   0.948E-01 0.446E-01 0.214E+00
   -.614E+02 0.186E+01 -.238E+04   0.594E+02 -.180E+01 0.238E+04   0.220E+01 -.969E-01 0.223E-01   -.102E+00 0.457E-01 0.214E+00
   0.291E+02 -.541E+02 -.238E+04   -.282E+02 0.524E+02 0.238E+04   -.102E+01 0.195E+01 0.223E-01   0.740E-02 -.111E+00 0.215E+00
   -.291E+02 -.541E+02 -.238E+04   0.282E+02 0.524E+02 0.238E+04   0.102E+01 0.195E+01 0.223E-01   -.115E-01 -.111E+00 0.214E+00
   0.353E-04 -.285E-04 -.239E+04   0.139E-03 -.500E-04 0.239E+04   0.255E-17 0.483E-17 0.656E+00   -.359E-02 -.178E-02 0.274E+00
   -.780E-05 0.137E-05 -.112E+04   0.638E-04 0.589E-05 0.112E+04   0.330E-17 0.577E-17 -.152E+01   0.133E-02 0.784E-03 0.146E+00
   -.441E-05 -.840E-04 -.797E+03   0.137E-04 0.902E-06 0.781E+03   -.134E-18 0.863E-18 0.161E+02   0.130E-02 0.788E-03 -.490E-01
   0.242E-03 -.916E-04 -.147E+04   0.470E-05 0.505E-06 0.153E+04   0.487E-18 0.205E-18 -.593E+02   0.377E-02 0.230E-02 -.192E-01
   -.573E-03 -.951E-03 0.499E+02   -.330E-13 -.434E-13 -.136E-11   0.620E-17 -.432E-15 -.514E+02   -.122E-01 -.634E-02 0.186E+01

 POSITION                                       TOTAL-FORCE (eV/Angst)
      0.00000      0.00000      5.28038        -0.000000      0.000000     -0.170140
      2.93784      0.00000      5.28038         0.000568     -0.002973     -0.072726
      5.87568      0.00000      5.28038        -0.000568     -0.002973     -0.072726
      1.46892      2.54424      5.28038        -0.002291      0.001979     -0.072726
      4.40676      2.54424      5.28038        -0.000000      0.000000     -0.127639
      7.34459      2.54424      5.28038         0.002291      0.001979     -0.072726
      2.93784      5.08848      5.28038        -0.002859      0.000994     -0.072726
      5.87568      5.08848      5.28038         0.002859      0.000994     -0.072726
      8.81351      5.08848      5.28038        -0.000000      0.000000     -0.093677
      1.46892      0.84808      7.67911        -0.021522     -0.012425      0.143836
      4.40676      0.84808      7.67911        -0.000000     -0.056059      0.014946
      7.34459      0.84808      7.67911         0.021522     -0.012425      0.143836
      2.93784      3.39232      7.67911        -0.048548      0.028029      0.014946
      5.87568      3.39232      7.67911         0.048548      0.028029      0.014946
      8.81351      3.39232      7.67911        -0.000000     -0.077119      0.101921
      4.40676      5.93656      7.67911         0.000000      0.024851      0.143836
      7.34459      5.93656      7.67911        -0.066787      0.038560      0.101921
     10.28243      5.93656      7.67911         0.066787      0.038560      0.101921
      8.81351      1.70807     10.10081        -0.000000     -0.017603      0.055203
      2.93151      1.69251     10.04012        -0.130563     -0.075381     -0.219153
      5.88200      1.69251     10.04012         0.130563     -0.075381     -0.219153
     10.26425      4.25090     10.06644         0.032427     -0.018722      0.028038
      4.40676      4.24770     10.04012         0.000000      0.150761     -0.219153
      7.36277      4.25090     10.06644        -0.032427     -0.018722      0.028038
     11.74104      6.77869     10.10081         0.015245      0.008802      0.055203
      5.88599      6.77869     10.10081        -0.015245      0.008802      0.055203
      8.81351      6.76365     10.06644         0.000000      0.037443      0.028038
      0.00000      0.00000     12.49922        -0.000000      0.000000     -0.076066
      2.99894      0.10048     12.55446        -0.083955     -0.162771     -0.101208
      5.81457      0.10048     12.55446         0.083955     -0.162771     -0.101208
      1.58649      2.54692     12.55446        -0.182942      0.008678     -0.101208
      7.22703      2.54692     12.55446         0.182942      0.008678     -0.101208
      2.99430      4.98533     12.55446        -0.098986      0.154093     -0.101208
      5.81921      4.98533     12.55446         0.098986      0.154093     -0.101208
      8.81351      5.08848     12.49869        -0.000000      0.000000     -0.021141
      4.40676      2.54424     12.18560        -0.000000     -0.000000      1.171968
      4.40676      2.54424     14.18022        -0.000000     -0.000000     -0.024339
      4.40676      2.54424     15.34894        -0.000000     -0.000000      0.010268
    total drift:                               -0.012807     -0.007295      0.386352

  FREE ENERGIE OF THE ION-ELECTRON SYSTEM (eV)
  free  energy   TOTEN  =      -133.96001235 eV

  energy  without entropy=     -133.96001235  energy(sigma->0) =     -133.96001235

 stress matrix after NEB project (eV)
    -21.54291     -0.00000      0.00000
     -0.00000    -21.54291      0.00000
     -0.00000     -0.00000      3.81656
  FORCES: max atom, RMS     0.024339    0.004285
  FORCE total and by dimension    0.026416    0.024339
  Stress total and by dimension   30.704400   21.542912
|           W    W    AA    RRRRR   N    N  II  N    N   GGGG   !!!           |
|           W    W   A  A   R    R  NN   N  II  NN   N  G    G  !!!           |
|           W    W  A    A  R    R  N N  N  II  N N  N  G       !!!           |
|           W WW W  AAAAAA  RRRRR   N  N N  II  N  N N  G  GGG   !            |
|           WW  WW  A    A  R   R   N   NN  II  N   NN  G    G                |
|           W    W  A    A  R    R  N    N  II  N    N   GGGG   !!!           |
|     Tetrahedron method does not include variations of the Fermi             |
|     occupations, so forces and stress will be inaccurate. We suggest        |
|     using a different smearing scheme ISMEAR = 1 or 2 for metals in         |
|     relaxations.                                                            |

 total charge

# of ion       s       p       d       tot
    1        0.546   0.237   8.769   9.552
    2        0.543   0.240   8.765   9.548
    3        0.543   0.240   8.765   9.548
    4        0.543   0.240   8.765   9.548
    5        0.547   0.240   8.759   9.546
    6        0.543   0.240   8.765   9.548
    7        0.543   0.240   8.765   9.548
    8        0.543   0.240   8.765   9.548
    9        0.542   0.239   8.769   9.550
   10        0.526   0.307   8.765   9.598
   11        0.525   0.306   8.779   9.610
   12        0.526   0.307   8.765   9.598
   13        0.525   0.306   8.779   9.610
   14        0.525   0.306   8.779   9.610
   15        0.515   0.308   8.775   9.598
   16        0.526   0.307   8.765   9.598
   17        0.515   0.308   8.775   9.598
   18        0.515   0.308   8.775   9.598
   19        0.516   0.294   8.771   9.581
   20        0.573   0.344   8.733   9.649
   21        0.573   0.344   8.733   9.649
   22        0.505   0.306   8.779   9.590
   23        0.573   0.344   8.733   9.649
   24        0.505   0.306   8.779   9.590
   25        0.516   0.294   8.771   9.581
   26        0.516   0.294   8.771   9.581
   27        0.505   0.306   8.779   9.590
   28        0.537   0.224   8.760   9.521
   29        0.576   0.253   8.737   9.566
   30        0.576   0.253   8.737   9.566
   31        0.576   0.253   8.737   9.566
   32        0.576   0.253   8.737   9.566
   33        0.576   0.253   8.737   9.566
   34        0.576   0.253   8.737   9.566
   35        0.536   0.223   8.759   9.518
   36        0.585   0.577   4.025   5.187
   37        0.962   1.557   0.000   2.518
   38        1.613   3.530   0.000   5.143
tot         22.057  15.377 310.661 348.096

 BZINTS: Fermi energy:    0.721707;  401.000000 electrons
         Band energy:-0.127048E+04;  BLOECHL correction:   -0.042925