 vasp.6.2.0 18Jan21 (build Jun 12 2021 23:27:24) complex

 executed on             LinuxIFC date 2022.05.28  02:27:04

 INCAR:
   ISMEAR = -5
   SIGMA = 0.1
   ISPIN = 1
   EDIFF = 1.d-5
   EDIFFG = -0.01
   NSW = 0
   NELM = 150
   ENCUT = 500
   ISIF = 2
   IBRION = 2
   LREAL = Auto
   ALGO = Fast
   ICHARG = 11
   LORBIT = 10
   LCHARG = .F.
   LWAVE = .F.

 POTCAR:    PAW_PBE Cu 22Jun2005
 POTCAR:    PAW_PBE Mo 08Apr2002
 POTCAR:    PAW_PBE C 08Apr2002
 POTCAR:    PAW_PBE O 08Apr2002
|           W    W    AA    RRRRR   N    N  II  N    N   GGGG   !!!           |
|           W    W   A  A   R    R  NN   N  II  NN   N  G    G  !!!           |
|           W    W  A    A  R    R  N N  N  II  N N  N  G       !!!           |
|           W WW W  AAAAAA  RRRRR   N  N N  II  N  N N  G  GGG   !            |
|           WW  WW  A    A  R   R   N   NN  II  N   NN  G    G                |
|           W    W  A    A  R    R  N    N  II  N    N   GGGG   !!!           |
|     For optimal performance we recommend to set                             |
|       NCORE = 2 up to number-of-cores-per-socket                            |
|     This setting can greatly improve the performance of VASP for DFT.       |
|     The default, NCORE=1 might be grossly inefficient on modern             |
|     multi-core architectures or massively parallel machines. Do your        |
|     Unfortunately you need to use the default for GW and RPA                |
|     calculations (for HF NCORE is supported but not extensively tested      |
|     yet).                                                                   |

 POTCAR:    PAW_PBE Cu 22Jun2005
   VRHFIN =Cu: d10 p1

   TITEL  = PAW_PBE Cu 22Jun2005
   POMASS =   63.546; ZVAL   =   11.000    mass and valenz
   ENMAX  =  295.446; ENMIN  =  221.585 eV

 POTCAR:    PAW_PBE Mo 08Apr2002
   VRHFIN =Mo: 4p5s4d

   TITEL  = PAW_PBE Mo 08Apr2002
   POMASS =   95.940; ZVAL   =    6.000    mass and valenz
   ENMAX  =  224.584; ENMIN  =  168.438 eV

 POTCAR:    PAW_PBE C 08Apr2002
   VRHFIN =C: s2p2

[...]

 POTCAR:    PAW_PBE O 08Apr2002
   VRHFIN =O: s2p4

   TITEL  = PAW_PBE O 08Apr2002
   POMASS =   16.000; ZVAL   =    6.000    mass and valenz
   ENMAX  =  400.000; ENMIN  =  300.000 eV

 Optimization of the real space projectors (new method)

 maximal supplied QI-value         = 16.25
 optimisation between [QCUT,QGAM] = [ 11.38, 22.75] = [ 36.24,144.96] Ry
 Optimized for a Real-space Cutoff    1.52 Angstroem

   l    n(q)    QCUT    max X(q) W(low)/X(q) W(high)/X(q)  e(spline)
   2      9    11.376     4.610    0.21E-03    0.10E-03    0.26E-06
   2      9    11.376     8.522    0.33E-03    0.16E-03    0.37E-06
   0     10    11.376    51.609    0.62E-04    0.20E-04    0.13E-06
   0     10    11.376    27.747    0.54E-04    0.20E-04    0.13E-06
   1     10    11.376    20.408    0.13E-04    0.99E-04    0.19E-06
   1     10    11.376    13.425    0.12E-04    0.87E-04    0.17E-06
 Optimization of the real space projectors (new method)

[...]

   l    n(q)    QCUT    max X(q) W(low)/X(q) W(high)/X(q)  e(spline)
   0      7    11.310   115.676    0.43E-03    0.13E-02    0.19E-06
   0      7    11.310    87.132    0.43E-03    0.13E-02    0.18E-06
   1      6    11.310     4.429    0.42E-03    0.74E-03    0.11E-06
   1      6    11.310     2.733    0.34E-03    0.55E-03    0.92E-07
 Optimization of the real space projectors (new method)

 maximal supplied QI-value         = 24.76
 optimisation between [QCUT,QGAM] = [ 11.39, 22.77] = [ 36.31,145.25] Ry
 Optimized for a Real-space Cutoff    1.00 Angstroem

   l    n(q)    QCUT    max X(q) W(low)/X(q) W(high)/X(q)  e(spline)
   0      7    11.387    20.381    0.39E-03    0.13E-02    0.15E-06
   0      7    11.387    15.268    0.42E-03    0.14E-02    0.17E-06
   1      6    11.387     5.964    0.41E-03    0.11E-02    0.17E-06
   1      6    11.387     5.382    0.39E-03    0.87E-03    0.15E-06
  PAW_PBE Cu 22Jun2005                  :
  PAW_PBE Mo 08Apr2002                  :
  PAW_PBE C 08Apr2002                   :
  PAW_PBE O 08Apr2002                   :

 POSCAR: Cu-Mo-CO2
  positions in direct lattice
  velocities in cartesian coordinates
 exchange correlation table for  LEXCH =        8
   RHO(1)=    0.500       N(1)  =     2000
   RHO(2)=  100.500       N(2)  =     4000

 VTST: version 3.2, (02/03/18)

 CHAIN: initializing optimizer

 OPT: Using VASP Conjugate-Gradient optimizer
 CHAIN: Read ICHAIN            0

 POSCAR: Cu-Mo-CO2
  positions in direct lattice
  velocities in cartesian coordinates

 ion  position               nearest neighbor table
   1  0.000  0.000  0.229-   7 2.57   3 2.57   4 2.57   2 2.57   6 2.57   8 2.57  12 2.57  10 2.57
                            16 2.57
   2  0.333  0.000  0.229-   8 2.57   9 2.57   5 2.57   1 2.57   3 2.57  11 2.57   4 2.57  10 2.57
                            17 2.57
   3  0.667  0.000  0.229-   1 2.57   7 2.57   6 2.57   9 2.57   2 2.57  12 2.57   5 2.57  18 2.57
                            11 2.57
   4  0.000  0.333  0.229-   5 2.57   6 2.57   1 2.57   7 2.57   2 2.57  13 2.57   9 2.57  10 2.57
                            15 2.57
   5  0.333  0.333  0.229-   4 2.57   2 2.57   7 2.57  13 2.57   8 2.57   6 2.57   3 2.57  11 2.57
                            14 2.57
   6  0.667  0.333  0.229-   4 2.57   9 2.57  15 2.57   3 2.57   1 2.57   8 2.57  14 2.57   5 2.57
                            12 2.57
   7  0.000  0.667  0.229-   1 2.57   3 2.57  16 2.57  18 2.57   4 2.57   5 2.57   8 2.57   9 2.57
                            13 2.57
   8  0.333  0.667  0.229-   9 2.57   2 2.57  17 2.57   6 2.57   1 2.57   7 2.57   5 2.57  14 2.57
                            16 2.57
   9  0.667  0.667  0.229-   8 2.57   6 2.57   2 2.57  17 2.57   3 2.57   7 2.57   4 2.57  15 2.57
                            18 2.57
  10  0.111  0.111  0.318-  20 2.55  26 2.56  19 2.56  11 2.57  12 2.57  13 2.57   1 2.57   2 2.57
                             4 2.57  15 2.57  16 2.57  17 2.57
  11  0.444  0.111  0.318-  20 2.56  21 2.56  10 2.57  13 2.57   2 2.57  17 2.57  14 2.57  12 2.57
                             5 2.57   3 2.57  18 2.57  27 2.57
  12  0.778  0.111  0.318-  21 2.55  19 2.56  25 2.56  15 2.57  10 2.57  14 2.57  18 2.57   3 2.57
                             1 2.57  16 2.57  11 2.57   6 2.57
  13  0.111  0.444  0.318-  23 2.56  20 2.56  16 2.57  18 2.57  10 2.57  11 2.57  14 2.57   5 2.57
                             4 2.57   7 2.57  15 2.57  22 2.57
  14  0.444  0.444  0.318-  21 2.56  23 2.56  15 2.57  17 2.57  12 2.57  16 2.57  13 2.57  11 2.57
                             6 2.57   8 2.57   5 2.57  24 2.57
  15  0.778  0.444  0.318-  19 2.56  14 2.57  17 2.57  12 2.57   6 2.57  18 2.57  10 2.57   9 2.57
                            13 2.57   4 2.57  24 2.57  22 2.57
  16  0.111  0.778  0.318-  23 2.55  25 2.56  26 2.56  18 2.57  13 2.57   7 2.57  14 2.57  17 2.57
                            12 2.57  10 2.57   8 2.57   1 2.57
  17  0.444  0.778  0.318-  26 2.56  14 2.57  15 2.57   8 2.57   9 2.57  11 2.57  16 2.57  18 2.57
                            10 2.57   2 2.57  27 2.57  24 2.57
  18  0.778  0.778  0.318-  25 2.56  16 2.57  13 2.57   7 2.57  15 2.57  12 2.57  17 2.57   9 2.57
                             3 2.57  11 2.57  22 2.57  27 2.57
  19  0.889  0.222  0.407-  15 2.56  12 2.56  10 2.56  21 2.56  20 2.56  22 2.57  24 2.57  25 2.57
                            26 2.57  28 2.57  32 2.58  31 2.58
  20  0.222  0.222  0.407-  10 2.55  11 2.56  13 2.56  26 2.56  19 2.56  27 2.57  22 2.57  23 2.57
                            21 2.57  36 2.58  29 2.60  31 2.60
  21  0.556  0.222  0.407-  12 2.55  14 2.56  11 2.56  19 2.56  25 2.56  24 2.57  27 2.57  20 2.57
                            23 2.57  36 2.58  32 2.60  30 2.60
  22  0.888  0.556  0.408-  24 2.56  27 2.56  35 2.56  19 2.57  25 2.57  23 2.57  20 2.57  18 2.57
                            15 2.57  13 2.57  31 2.58  33 2.58
  23  0.222  0.556  0.407-  16 2.55  13 2.56  14 2.56  25 2.56  26 2.56  22 2.57  24 2.57  20 2.57
                            21 2.57  36 2.58  33 2.60  34 2.60
  24  0.556  0.556  0.408-  22 2.56  27 2.56  35 2.56  19 2.57  26 2.57  21 2.57  23 2.57  15 2.57
                            17 2.57  14 2.57  32 2.58  34 2.58
  25  0.889  0.889  0.407-  18 2.56  12 2.56  16 2.56  21 2.56  23 2.56  22 2.57  27 2.57  19 2.57
                            26 2.57  28 2.57  33 2.58  30 2.58
  26  0.222  0.889  0.407-  17 2.56  10 2.56  16 2.56  20 2.56  23 2.56  27 2.57  24 2.57  25 2.57
                            19 2.57  28 2.57  29 2.58  34 2.58
  27  0.556  0.888  0.408-  24 2.56  22 2.56  35 2.56  26 2.57  25 2.57  20 2.57  21 2.57  17 2.57
                            18 2.57  11 2.57  29 2.58  30 2.58
  28  0.000  0.000  0.496-  33 2.56  30 2.56  31 2.56  29 2.56  32 2.56  34 2.56  25 2.57  19 2.57
                            26 2.57
  29  0.333  0.998  0.498-  34 2.54  28 2.56  35 2.56  27 2.58  31 2.58  26 2.58  36 2.58  30 2.58
                            20 2.60
  30  0.669  0.998  0.498-  33 2.54  28 2.56  35 2.56  27 2.58  32 2.58  25 2.58  36 2.58  29 2.58
                            21 2.60
  31  0.998  0.333  0.498-  32 2.54  28 2.56  35 2.56  22 2.58  29 2.58  19 2.58  36 2.58  33 2.58
                            20 2.60
  32  0.669  0.333  0.498-  31 2.54  28 2.56  35 2.56  24 2.58  30 2.58  19 2.58  36 2.58  34 2.58
                            21 2.60
  33  0.998  0.669  0.498-  30 2.54  28 2.56  35 2.56  22 2.58  34 2.58  25 2.58  36 2.58  31 2.58
                            23 2.60
  34  0.333  0.669  0.498-  29 2.54  28 2.56  35 2.56  24 2.58  33 2.58  26 2.58  36 2.58  32 2.58
                            23 2.60
  35  0.667  0.667  0.497-  34 2.56  32 2.56  29 2.56  30 2.56  33 2.56  31 2.56  24 2.56  27 2.56
                            22 2.56
  36  0.333  0.333  0.497-  37 2.24  23 2.58  20 2.58  21 2.58  31 2.58  29 2.58  33 2.58  34 2.58
                            32 2.58  30 2.58
  37  0.333  0.333  0.592-  38 1.22  39 1.22  36 2.24
  38  0.181  0.332  0.607-  37 1.22
  39  0.487  0.332  0.607-  37 1.22

  LATTYP: Found a hexagonal cell.
 ALAT       =     7.6967864036
 C/A-ratio  =     3.0484540560

  Lattice vectors:

 A1 = (  -3.8483927580,  -6.6656128093,   0.0000000000)
 A2 = (   7.6967864037,   0.0000000000,   0.0000000000)
 A3 = (   0.0000000000,   0.0000000000,  23.4632997305)

Analysis of symmetry for initial positions (statically):
 Subroutine PRICEL returns:
 Original cell was already a primitive cell.

 Routine SETGRP: Setting up the symmetry group for a
 hexagonal supercell.

 Subroutine GETGRP returns: Found  2 space group operations
 (whereof  2 operations were pure point group operations)
 out of a pool of 24 trial point group operations.

The static configuration has the point symmetry C_1h.

Analysis of symmetry for dynamics (positions and initial velocities):
 Subroutine PRICEL returns:
 Original cell was already a primitive cell.

[...]

The dynamic configuration has the point symmetry C_1h.

Analysis of constrained symmetry for selective dynamics:
 Subroutine PRICEL returns:
 Original cell was already a primitive cell.

 Routine SETGRP: Setting up the symmetry group for a
[...]
     41      -4.4146      2.00000
     42      -4.3581      2.00000
     43      -4.2286      2.00000
     44      -4.2197      2.00000
     45      -4.2025      2.00000
     46      -4.1652      2.00000
     47      -4.1414      2.00000
     48      -4.1254      2.00000
     49      -4.1058      2.00000
     50      -4.1027      2.00000
     51      -4.0989      2.00000
     52      -4.0136      2.00000
     53      -3.9174      2.00000
     54      -3.8939      2.00000
     55      -3.8880      2.00000
     56      -3.8770      2.00000
     57      -3.8224      2.00000
     58      -3.8195      2.00000
     59      -3.8178      2.00000
     60      -3.8018      2.00000
[...]
    238       5.3851      0.00000
    239       5.3977      0.00000
    240       5.4379      0.00000
    241       5.5177      0.00000
    242       5.7152      0.00000
    243       5.7812      0.00000
    244       5.8866      0.00000
    245       6.0428      0.00000
    246       6.0934      0.00000
    247       6.3409      0.00000
    248       6.4070      0.00000
    249       6.4512      0.00000
    250       6.5460      0.00000
    251       6.7602      0.00000
    252       6.8579      0.00000

 soft charge-density along one line, spin component           1
         0         1         2         3         4         5         6         7         8         9
 total charge-density along one line

------------------------ aborting loop because EDIFF is reached ----------------------------------------

 total charge

# of ion       s       p       d       tot
    1        0.448   0.284   9.189   9.921
    2        0.448   0.285   9.187   9.920
    3        0.448   0.285   9.187   9.920
    4        0.448   0.285   9.186   9.920
    5        0.447   0.285   9.186   9.918
    6        0.448   0.285   9.186   9.920
    7        0.449   0.285   9.186   9.921
    8        0.449   0.285   9.186   9.921
    9        0.449   0.284   9.187   9.920
   10        0.444   0.373   9.175   9.992
   11        0.442   0.366   9.182   9.990
   12        0.444   0.373   9.175   9.992
   13        0.442   0.366   9.184   9.991
   14        0.442   0.366   9.184   9.991
   15        0.438   0.369   9.180   9.987
   16        0.443   0.372   9.176   9.991
   17        0.439   0.369   9.179   9.986
   18        0.439   0.369   9.179   9.986
   19        0.440   0.366   9.186   9.992
   20        0.461   0.395   9.161  10.017
   21        0.461   0.395   9.161  10.017
   22        0.429   0.373   9.180   9.981
   23        0.460   0.395   9.163  10.018
   24        0.429   0.373   9.180   9.981
   25        0.442   0.367   9.183   9.992
   26        0.442   0.367   9.183   9.992
   27        0.430   0.370   9.182   9.983
   28        0.449   0.290   9.182   9.921
   29        0.473   0.309   9.167   9.949
   30        0.473   0.309   9.167   9.949
   31        0.462   0.308   9.171   9.941
   32        0.462   0.308   9.171   9.941
   33        0.473   0.309   9.167   9.949
   34        0.473   0.309   9.167   9.949
   35        0.441   0.293   9.185   9.919
   36        0.478   0.384   4.347   5.209
   37        0.896   1.723   0.000   2.619
   38        1.604   3.478   0.000   5.082
   39        1.604   3.478   0.000   5.082
tot         20.287  20.786 325.599 366.672

  FORCE on cell =-STRESS in cart. coord.  units (eV):
  Direction    XX          YY          ZZ          XY          YZ          ZX
  Alpha Z   848.04681   848.04681   848.04681
  Ewald  212754.10075212051.49326************     0.00038    -0.30219     0.00016
  Hartree225464.72198225132.54021************     0.00003    -0.16031     0.00005
  E(xc)   -2347.47159 -2349.76296 -2353.74187    -0.00027    -0.03059    -0.00004
  Local  ************************450363.25692     0.02040     0.52771    -0.00071
  n-local  -825.03687  -820.21220  -836.84979     1.89326     0.20426     0.10560
  augment  3327.36887  3329.71151  3350.80467    -0.01854    -0.02620     0.00040
  Kinetic  3493.76683  3546.73225  3568.69319     1.38970    -0.06447    -0.21084
  Fock        0.00000     0.00000     0.00000     0.00000     0.00000     0.00000
  Total      -3.96483    -4.19053     0.23696     0.00000     0.14821    -0.00000
  in kB      -5.27711    -5.57752     0.31538     0.00000     0.19727    -0.00000

 VOLUME and BASIS-vectors are now :
  energy-cutoff  :      500.00
  volume of cell :     1203.76
      direct lattice vectors                 reciprocal lattice vectors
     7.696786404  0.000000000  0.000000000     0.129924354 -0.075011849  0.000000000
     3.848392758  6.665612809  0.000000000     0.000000000  0.150023716  0.000000000
     0.000000000  0.000000000 23.463299730     0.000000000  0.000000000  0.042619751

  length of vectors
     7.696786404  7.696786404 23.463299730     0.150023716  0.150023716  0.042619751

 FORCES acting on ions
    electron-ion (+dipol)            ewald-force                    non-local-force                 convergence-correction
   -.418E-04 0.181E+00 0.373E+04   0.580E-04 -.412E-01 -.372E+04   0.650E-08 -.976E-01 -.247E+01   -.354E-03 -.376E-01 -.316E+00
   -.760E+00 -.326E+00 0.372E+04   0.636E+00 0.305E+00 -.372E+04   0.127E-01 0.346E-01 -.193E+01   0.105E+00 -.210E-01 -.306E+00
   0.760E+00 -.326E+00 0.372E+04   -.636E+00 0.305E+00 -.372E+04   -.127E-01 0.346E-01 -.193E+01   -.104E+00 -.185E-01 -.305E+00
   -.804E+00 -.448E+00 0.372E+04   0.617E+00 0.379E+00 -.372E+04   0.149E+00 0.129E-01 -.204E+01   0.312E-01 0.588E-01 -.296E+00
   -.633E-04 -.261E-01 0.372E+04   0.116E-03 0.107E-02 -.372E+04   -.284E-08 0.426E-01 -.175E+01   0.121E-01 -.167E-01 -.197E+00
   0.804E+00 -.448E+00 0.372E+04   -.617E+00 0.379E+00 -.372E+04   -.149E+00 0.129E-01 -.204E+01   -.327E-01 0.600E-01 -.295E+00
   -.733E-01 0.747E+00 0.372E+04   -.182E-01 -.683E+00 -.372E+04   0.103E+00 -.331E-01 -.186E+01   -.181E-01 -.240E-01 -.273E+00
   0.734E-01 0.747E+00 0.372E+04   0.179E-01 -.683E+00 -.372E+04   -.103E+00 -.331E-01 -.186E+01   0.215E-01 -.254E-01 -.273E+00
   -.144E-03 -.128E+00 0.372E+04   0.263E-03 0.401E-01 -.372E+04   -.327E-08 0.491E-01 -.209E+01   -.131E-01 0.334E-01 -.292E+00
   -.352E+01 -.177E+01 0.131E+04   0.393E+01 0.194E+01 -.131E+04   -.441E+00 -.179E+00 -.108E+01   0.384E-01 0.100E-01 0.276E+00
   -.917E-04 -.329E+01 0.130E+04   0.190E-03 0.308E+01 -.130E+04   -.493E-08 0.741E-01 -.570E+00   0.120E-01 0.966E-01 0.313E+00
   0.352E+01 -.177E+01 0.131E+04   -.393E+01 0.194E+01 -.131E+04   0.441E+00 -.179E+00 -.108E+01   -.401E-01 0.111E-01 0.276E+00
   -.315E+01 0.160E+01 0.130E+04   0.296E+01 -.148E+01 -.130E+04   0.677E-01 -.486E-01 -.446E+00   0.907E-01 -.541E-01 0.298E+00
   0.315E+01 0.160E+01 0.130E+04   -.296E+01 -.148E+01 -.130E+04   -.677E-01 -.486E-01 -.446E+00   -.670E-01 -.557E-01 0.296E+00
   -.139E-03 -.260E+01 0.131E+04   0.297E-03 0.243E+01 -.131E+04   -.673E-08 0.101E+00 -.983E+00   -.338E-02 0.665E-01 0.257E+00
   -.881E-04 0.405E+01 0.131E+04   0.186E-03 -.444E+01 -.131E+04   -.260E-07 0.391E+00 -.874E+00   -.836E-03 -.214E-01 0.296E+00
   -.215E+01 0.106E+01 0.131E+04   0.191E+01 -.995E+00 -.131E+04   0.135E+00 -.525E-01 -.817E+00   0.870E-01 -.207E-01 0.235E+00
   0.215E+01 0.106E+01 0.131E+04   -.191E+01 -.995E+00 -.131E+04   -.135E+00 -.525E-01 -.817E+00   -.855E-01 -.180E-01 0.237E+00
   -.673E-04 -.474E+01 -.110E+04   0.706E-04 0.459E+01 0.110E+04   -.556E-08 0.835E-01 0.126E+01   -.108E-01 0.426E-01 0.509E+00
   -.467E+02 -.251E+02 -.116E+04   0.471E+02 0.255E+02 0.116E+04   -.777E+00 -.647E+00 -.971E+00   0.187E+00 0.113E+00 0.727E+00
   0.467E+02 -.251E+02 -.116E+04   -.471E+02 0.255E+02 0.116E+04   0.777E+00 -.647E+00 -.971E+00   -.206E+00 0.111E+00 0.726E+00
   -.235E+02 0.114E+02 -.112E+04   0.231E+02 -.110E+02 0.112E+04   0.448E+00 -.383E+00 0.829E+00   0.657E-01 -.104E+00 0.544E+00
   -.890E-04 0.514E+02 -.116E+04   0.150E-03 -.518E+02 0.116E+04   -.549E-07 0.825E+00 -.730E+00   -.121E-01 -.237E+00 0.600E+00
   0.235E+02 0.114E+02 -.112E+04   -.231E+02 -.110E+02 0.112E+04   -.448E+00 -.383E+00 0.829E+00   -.642E-01 -.105E+00 0.544E+00
   0.515E+01 0.383E+01 -.111E+04   -.517E+01 -.390E+01 0.111E+04   0.438E-01 0.696E-01 0.894E+00   -.370E-01 0.151E-01 0.453E+00
   -.515E+01 0.383E+01 -.111E+04   0.517E+01 -.390E+01 0.111E+04   -.438E-01 0.696E-01 0.894E+00   0.157E-01 0.153E-01 0.453E+00
   -.121E-03 -.267E+02 -.113E+04   0.241E-03 0.260E+02 0.113E+04   -.399E-07 0.599E+00 0.687E+00   0.109E-02 0.139E+00 0.505E+00
   -.368E-04 0.123E+02 -.349E+04   0.388E-04 -.121E+02 0.348E+04   0.186E-07 -.279E+00 0.192E+01   -.216E-03 0.944E-01 0.487E+00
   -.276E+02 -.307E+02 -.346E+04   0.284E+02 0.308E+02 0.346E+04   -.820E+00 -.495E+00 0.139E+01   0.738E-01 0.179E+00 0.472E+00
   0.276E+02 -.307E+02 -.346E+04   -.284E+02 0.308E+02 0.346E+04   0.820E+00 -.495E+00 0.139E+01   -.729E-01 0.180E+00 0.472E+00
   -.421E+02 0.805E+00 -.343E+04   0.416E+02 -.504E+00 0.343E+04   0.125E+00 -.283E+00 0.267E+01   0.204E+00 -.133E-02 0.554E+00
   0.421E+02 0.805E+00 -.343E+04   -.416E+02 -.504E+00 0.343E+04   -.125E+00 -.283E+00 0.267E+01   -.204E+00 -.665E-03 0.554E+00
   -.295E+02 0.301E+02 -.346E+04   0.299E+02 -.305E+02 0.346E+04   -.378E+00 0.722E+00 0.122E+01   0.547E-02 -.191E+00 0.482E+00
   0.295E+02 0.301E+02 -.346E+04   -.299E+02 -.305E+02 0.346E+04   0.378E+00 0.722E+00 0.122E+01   -.269E-02 -.191E+00 0.483E+00
   -.149E-03 -.122E+02 -.350E+04   0.254E-03 0.120E+02 0.350E+04   -.199E-07 0.300E+00 0.256E+01   -.125E-01 -.509E-01 0.603E+00
   -.409E-04 -.239E+00 -.177E+04   0.738E-04 0.293E+00 0.177E+04   -.835E-08 0.125E+00 0.276E+01   0.575E-03 -.118E-01 0.227E+00
   -.110E-04 -.256E+01 -.132E+04   0.613E-05 0.265E+01 0.132E+04   0.647E-08 -.971E-01 0.428E+01   0.570E-03 0.917E-02 -.915E-01
   0.223E+03 0.999E+00 -.213E+04   -.275E+03 -.123E+01 0.215E+04   0.523E+02 0.242E+00 -.170E+02   0.533E-01 -.855E-03 -.129E+00
   -.223E+03 0.999E+00 -.213E+04   0.275E+03 -.123E+01 0.215E+04   -.523E+02 0.242E+00 -.170E+02   -.538E-01 -.788E-03 -.129E+00
   -.505E-05 -.320E-02 0.253E+02   0.227E-12 0.142E-12 0.591E-11   -.223E-08 0.334E-01 -.343E+02   -.359E-01 0.285E-01 0.898E+01

 POSITION                                       TOTAL-FORCE (eV/Angst)
      0.00000      0.00000      5.37156        -0.000000      0.003498      0.040992
      2.56560      0.00000      5.37156        -0.006932     -0.007639      0.070699
      5.13119      0.00000      5.37156         0.006932     -0.007639      0.070699
      1.28280      2.22187      5.37156        -0.005928      0.001143      0.058745
      3.84839      2.22187      5.37156         0.000000     -0.000682      0.049411
      6.41399      2.22187      5.37156         0.005928      0.001143      0.058745
      2.56560      4.44374      5.37156        -0.008409      0.004263      0.071183
      5.13119      4.44374      5.37156         0.008409      0.004263      0.071183
      7.69679      4.44374      5.37156         0.000000     -0.007154      0.038020
      1.28280      0.74062      7.46636         0.008027      0.004304     -0.082488
      3.84839      0.74062      7.46636         0.000000     -0.039145     -0.097418
      6.41399      0.74062      7.46636        -0.008027      0.004304     -0.082488
      2.56560      2.96249      7.46636        -0.041587      0.019426     -0.077891
      5.13119      2.96249      7.46636         0.041587      0.019426     -0.077891
      7.69679      2.96249      7.46636         0.000000     -0.002973      0.010381
      3.84839      5.18437      7.46636         0.000000     -0.020699     -0.075091
      6.41399      5.18437      7.46636        -0.012562     -0.003026      0.008180
      8.97958      5.18437      7.46636         0.012562     -0.003026      0.008180
      7.69679      1.48128      9.55134         0.000000     -0.028885      0.049126
      2.56091      1.47854      9.54628        -0.119699     -0.110139     -0.120352
      5.13587      1.47854      9.54628         0.119699     -0.110139     -0.120352
      8.97673      3.70477      9.56818         0.062806     -0.020673      0.028581
      3.84839      3.70853      9.54628        -0.000000      0.109141     -0.126974
      6.41684      3.70477      9.56818        -0.062806     -0.020673      0.028581
     10.26235      5.92497      9.55134        -0.005489      0.011886      0.005941
      5.13122      5.92497      9.55134         0.005489      0.011886      0.005941
      7.69679      5.92169      9.56818        -0.000000      0.030923     -0.013093
      0.00000      0.00000     11.64671         0.000000     -0.049738     -0.034841
      6.40484      6.65345     11.67351         0.011152     -0.165027     -0.148956
      8.98873      6.65345     11.67351        -0.011152     -0.165027     -0.148956
      8.96447      2.22003     11.67351        -0.177656      0.015433     -0.140268
      6.42910      2.22003     11.67351         0.177656      0.015433     -0.140268
     10.25642      4.45775     11.67351         0.000786      0.144328     -0.133281
      5.13715      4.45775     11.67351        -0.000786      0.144328     -0.133281
      7.69679      4.44374     11.65978        -0.000000      0.034191     -0.006816
      3.84839      2.22187     11.64991        -0.000000      0.166922      1.094624
      3.84839      2.22131     13.89484        -0.000000      0.000150      0.027482
      2.67230      2.21413     14.23464        -0.005365      0.007946     -0.017994
      5.02449      2.21413     14.23464         0.005365      0.007946     -0.017994
    total drift:                               -0.035933      0.058763     -0.053090

  FREE ENERGIE OF THE ION-ELECTRON SYSTEM (eV)
  free  energy   TOTEN  =      -153.25044421 eV

  energy  without entropy=     -153.25044421  energy(sigma->0) =     -153.25044421

 stress matrix after NEB project (eV)
     -3.96483      0.00000     -0.00000
      0.00000     -4.19053      0.14821
     -0.00000      0.14821      0.23696
  FORCES: max atom, RMS     0.027482    0.006378
  FORCE total and by dimension    0.039833    0.027482
  Stress total and by dimension    5.777589    4.190534
|           W    W    AA    RRRRR   N    N  II  N    N   GGGG   !!!           |
|           W    W   A  A   R    R  NN   N  II  NN   N  G    G  !!!           |
|           W    W  A    A  R    R  N N  N  II  N N  N  G       !!!           |
|           W WW W  AAAAAA  RRRRR   N  N N  II  N  N N  G  GGG   !            |
|           WW  WW  A    A  R   R   N   NN  II  N   NN  G    G                |
|           W    W  A    A  R    R  N    N  II  N    N   GGGG   !!!           |
|     Tetrahedron method does not include variations of the Fermi             |
|     occupations, so forces and stress will be inaccurate. We suggest        |
|     using a different smearing scheme ISMEAR = 1 or 2 for metals in         |
|     relaxations.                                                            |

 total charge

# of ion       s       p       d       tot
    1        0.448   0.284   9.189   9.921
    2        0.448   0.285   9.187   9.920
    3        0.448   0.285   9.187   9.920
    4        0.448   0.285   9.186   9.920
    5        0.447   0.285   9.186   9.918
    6        0.448   0.285   9.186   9.920
    7        0.449   0.285   9.186   9.921
    8        0.449   0.285   9.186   9.921
    9        0.449   0.284   9.187   9.920
   10        0.444   0.373   9.175   9.992
   11        0.442   0.366   9.182   9.990
   12        0.444   0.373   9.175   9.992
   13        0.442   0.366   9.184   9.991
   14        0.442   0.366   9.184   9.991
   15        0.438   0.369   9.180   9.987
   16        0.443   0.372   9.176   9.991
   17        0.439   0.369   9.179   9.986
   18        0.439   0.369   9.179   9.986
   19        0.440   0.366   9.186   9.992
   20        0.461   0.395   9.161  10.017
   21        0.461   0.395   9.161  10.017
   22        0.429   0.373   9.180   9.981
   23        0.460   0.395   9.163  10.018
   24        0.429   0.373   9.180   9.981
   25        0.442   0.367   9.183   9.992
   26        0.442   0.367   9.183   9.992
   27        0.430   0.370   9.182   9.983
   28        0.449   0.290   9.182   9.921
   29        0.473   0.309   9.167   9.949
   30        0.473   0.309   9.167   9.949
   31        0.462   0.308   9.171   9.941
   32        0.462   0.308   9.171   9.941
   33        0.473   0.309   9.167   9.949
   34        0.473   0.309   9.167   9.949
   35        0.441   0.293   9.185   9.919
   36        0.478   0.384   4.347   5.209
   37        0.896   1.723   0.000   2.619
   38        1.604   3.478   0.000   5.082
   39        1.604   3.478   0.000   5.082
tot         20.287  20.786 325.599 366.672

 BZINTS: Fermi energy:   -0.417191;  407.000000 electrons
         Band energy:-0.143832E+04;  BLOECHL correction:   -0.028379