 vasp.6.2.0 18Jan21 (build Jun 12 2021 23:27:24) complex

 executed on             LinuxIFC date 2022.05.28  01:54:39

 INCAR:
   ISMEAR = -5
   SIGMA = 0.1
   ISPIN = 1
   EDIFF = 1.d-5
   EDIFFG = -0.01
   NSW = 0
   NELM = 150
   ENCUT = 500
   ISIF = 2
   IBRION = 2
   LREAL = Auto
   ALGO = Fast
   ICHARG = 11
   LORBIT = 10
   LCHARG = .F.
   LWAVE = .F.

 POTCAR:    PAW_PBE Ag 02Apr2005
 POTCAR:    PAW_PBE Pd 04Jan2005
 POTCAR:    PAW_PBE H 15Jun2001
 POTCAR:    PAW_PBE O 08Apr2002
|           W    W    AA    RRRRR   N    N  II  N    N   GGGG   !!!           |
|           W    W   A  A   R    R  NN   N  II  NN   N  G    G  !!!           |
|           W    W  A    A  R    R  N N  N  II  N N  N  G       !!!           |
|           W WW W  AAAAAA  RRRRR   N  N N  II  N  N N  G  GGG   !            |
|           WW  WW  A    A  R   R   N   NN  II  N   NN  G    G                |
|           W    W  A    A  R    R  N    N  II  N    N   GGGG   !!!           |
|     For optimal performance we recommend to set                             |
|       NCORE = 2 up to number-of-cores-per-socket                            |
|     This setting can greatly improve the performance of VASP for DFT.       |
|     The default, NCORE=1 might be grossly inefficient on modern             |
|     multi-core architectures or massively parallel machines. Do your        |
|     Unfortunately you need to use the default for GW and RPA                |
|     calculations (for HF NCORE is supported but not extensively tested      |
|     yet).                                                                   |

 POTCAR:    PAW_PBE Ag 02Apr2005
   VRHFIN =Ag : s1 d10

   TITEL  = PAW_PBE Ag 02Apr2005
   POMASS =  107.868; ZVAL   =   11.000    mass and valenz
   ENMAX  =  249.844; ENMIN  =  187.383 eV

 POTCAR:    PAW_PBE Pd 04Jan2005
   VRHFIN =Pd : s1 d9

   TITEL  = PAW_PBE Pd 04Jan2005
   POMASS =  106.420; ZVAL   =   10.000    mass and valenz
   ENMAX  =  250.925; ENMIN  =  188.194 eV

 POTCAR:    PAW_PBE H 15Jun2001
   VRHFIN =H: ultrasoft test

   TITEL  = PAW_PBE H 15Jun2001
   POMASS =    1.000; ZVAL   =    1.000    mass and valenz
   ENMAX  =  250.000; ENMIN  =  200.000 eV

 POTCAR:    PAW_PBE O 08Apr2002
   VRHFIN =O: s2p4

   TITEL  = PAW_PBE O 08Apr2002
   POMASS =   16.000; ZVAL   =    6.000    mass and valenz
   ENMAX  =  400.000; ENMIN  =  300.000 eV

 Optimization of the real space projectors (new method)

 maximal supplied QI-value         = 15.12
 optimisation between [QCUT,QGAM] = [ 11.34, 22.83] = [ 36.00,145.93] Ry
 Optimized for a Real-space Cutoff    1.43 Angstroem

   l    n(q)    QCUT    max X(q) W(low)/X(q) W(high)/X(q)  e(spline)
   2      9    11.338    53.897    0.16E-03    0.20E-03    0.28E-06
   2      9    11.338    52.416    0.16E-03    0.20E-03    0.29E-06
   0     10    11.338   122.045    0.31E-04    0.76E-04    0.15E-06
   0     10    11.338    73.629    0.30E-04    0.72E-04    0.15E-06
   1      9    11.338    15.255    0.20E-03    0.19E-04    0.17E-06
   1      9    11.338     9.562    0.16E-03    0.15E-04    0.14E-06
 Optimization of the real space projectors (new method)

[...]

   l    n(q)    QCUT    max X(q) W(low)/X(q) W(high)/X(q)  e(spline)
   0      8    11.287    19.460    0.40E-03    0.73E-03    0.16E-06
   0      8    11.287    12.209    0.38E-03    0.70E-03    0.15E-06
   1      7    11.287     4.655    0.22E-03    0.25E-04    0.22E-06
 Optimization of the real space projectors (new method)

 maximal supplied QI-value         = 24.76
 optimisation between [QCUT,QGAM] = [ 11.39, 22.77] = [ 36.31,145.25] Ry
 Optimized for a Real-space Cutoff    1.00 Angstroem

   l    n(q)    QCUT    max X(q) W(low)/X(q) W(high)/X(q)  e(spline)
   0      7    11.387    20.381    0.39E-03    0.13E-02    0.15E-06
   0      7    11.387    15.268    0.42E-03    0.14E-02    0.17E-06
   1      6    11.387     5.964    0.41E-03    0.11E-02    0.17E-06
   1      6    11.387     5.382    0.39E-03    0.87E-03    0.15E-06
  PAW_PBE Ag 02Apr2005                  :
  PAW_PBE Pd 04Jan2005                  :
  PAW_PBE H 15Jun2001                   :
  PAW_PBE O 08Apr2002                   :

 POSCAR: Ag-Pd-H2O
  positions in direct lattice
  velocities in cartesian coordinates
 exchange correlation table for  LEXCH =        8
   RHO(1)=    0.500       N(1)  =     2000
   RHO(2)=  100.500       N(2)  =     4000

 VTST: version 3.2, (02/03/18)

 CHAIN: initializing optimizer

 OPT: Using VASP Conjugate-Gradient optimizer
 CHAIN: Read ICHAIN            0

 POSCAR: Ag-Pd-H2O
  positions in direct lattice
  velocities in cartesian coordinates

 ion  position               nearest neighbor table
   1  0.000  0.000  0.212-   2 2.93   8 2.93   7 2.93   6 2.93   4 2.93  12 2.93  16 2.93  10 2.93
                             3 2.93
   2  0.333  0.000  0.212-   1 2.93   8 2.93   9 2.93   3 2.93   4 2.93   5 2.93  10 2.93  17 2.93
                            11 2.93
   3  0.667  0.000  0.212-   9 2.93   2 2.93   5 2.93  11 2.93   7 2.93  18 2.93   1 2.93   6 2.93
                            12 2.93
   4  0.000  0.333  0.212-   5 2.93   6 2.93   2 2.93   1 2.93   7 2.93  13 2.93  15 2.93   9 2.93
                            10 2.93
   5  0.333  0.333  0.212-   4 2.93   3 2.93   7 2.93   2 2.93   8 2.93  14 2.93  13 2.93  11 2.93
                             6 2.93
   6  0.667  0.333  0.212-   4 2.93   9 2.93   1 2.93  15 2.93   8 2.93  12 2.93   3 2.93   5 2.93
                            14 2.93
   7  0.000  0.667  0.212-   8 2.93   1 2.93   5 2.93   3 2.93   4 2.93  16 2.93  18 2.93  13 2.93
                             9 2.93
   8  0.333  0.667  0.212-   7 2.93   1 2.93   2 2.93   9 2.93   5 2.93  16 2.93   6 2.93  17 2.93
                            14 2.93
   9  0.667  0.667  0.212-   3 2.93   2 2.93   8 2.93   6 2.93  17 2.93   4 2.93  15 2.93   7 2.93
                            18 2.93
  10  0.111  0.111  0.308-  20 2.91  19 2.92  26 2.92  12 2.93  16 2.93  15 2.93  17 2.93  13 2.93
                            11 2.93   2 2.93   1 2.93   4 2.93
  11  0.444  0.111  0.308-  21 2.91  20 2.91  27 2.91  14 2.93  17 2.93  18 2.93   3 2.93  12 2.93
                            13 2.93  10 2.93   5 2.93   2 2.93
  12  0.778  0.111  0.308-  21 2.91  25 2.92  19 2.92  10 2.93  16 2.93  18 2.93  15 2.93  11 2.93
                             1 2.93  14 2.93   6 2.93   3 2.93
  13  0.111  0.444  0.308-  20 2.91  23 2.91  22 2.91  15 2.93  14 2.93  18 2.93  10 2.93  11 2.93
                            16 2.93   4 2.93   5 2.93   7 2.93
  14  0.444  0.444  0.308-  23 2.91  21 2.91  24 2.91  13 2.93  11 2.93  16 2.93   5 2.93  12 2.93
                            17 2.93   8 2.93  15 2.93   6 2.93
  15  0.778  0.444  0.308-  24 2.91  22 2.91  19 2.92  13 2.93  10 2.93  12 2.93  17 2.93  18 2.93
                             4 2.93   6 2.93   9 2.93  14 2.93
  16  0.111  0.778  0.308-  23 2.91  26 2.92  25 2.92  18 2.93  12 2.93  10 2.93  14 2.93  17 2.93
                            13 2.93   7 2.93   8 2.93   1 2.93
  17  0.444  0.778  0.308-  27 2.91  24 2.91  26 2.92  11 2.93  10 2.93   9 2.93  18 2.93  15 2.93
                            16 2.93   2 2.93  14 2.93   8 2.93
  18  0.778  0.778  0.308-  22 2.91  27 2.91  25 2.92  16 2.93  12 2.93  13 2.93  11 2.93  17 2.93
                            15 2.93   7 2.93   3 2.93   9 2.93
  19  0.889  0.223  0.403-  28 2.91  15 2.92  10 2.92  12 2.92  32 2.92  31 2.92  20 2.93  21 2.93
                            24 2.93  22 2.93  26 2.93  25 2.93
  20  0.222  0.222  0.402-  36 2.81  10 2.91  13 2.91  11 2.91  31 2.91  29 2.91  19 2.93  26 2.93
                            27 2.93  22 2.93  21 2.94  23 2.94
  21  0.556  0.222  0.402-  36 2.81  12 2.91  11 2.91  14 2.91  30 2.91  32 2.91  25 2.93  19 2.93
                            27 2.93  24 2.93  20 2.94  23 2.94
  22  0.889  0.556  0.403-  35 2.91  18 2.91  15 2.91  13 2.91  33 2.92  31 2.92  25 2.93  19 2.93
                            24 2.93  27 2.93  23 2.93  20 2.93
  23  0.222  0.556  0.402-  36 2.81  16 2.91  14 2.91  13 2.91  34 2.91  33 2.91  26 2.93  25 2.93
                            22 2.93  24 2.93  21 2.94  20 2.94
  24  0.556  0.556  0.403-  35 2.91  15 2.91  17 2.91  14 2.91  32 2.92  34 2.92  19 2.93  26 2.93
                            27 2.93  22 2.93  23 2.93  21 2.93
  25  0.889  0.889  0.403-  28 2.91  18 2.92  16 2.92  12 2.92  33 2.92  30 2.92  23 2.93  21 2.93
                            22 2.93  27 2.93  26 2.93  19 2.93
  26  0.223  0.889  0.403-  28 2.91  17 2.92  16 2.92  10 2.92  34 2.92  29 2.92  23 2.93  20 2.93
                            27 2.93  24 2.93  25 2.93  19 2.93
  27  0.556  0.889  0.403-  35 2.91  17 2.91  18 2.91  11 2.91  29 2.92  30 2.92  26 2.93  25 2.93
                            24 2.93  22 2.93  20 2.93  21 2.93
  28  0.000  0.000  0.498-  26 2.91  25 2.91  19 2.91  29 2.94  34 2.94  33 2.94  32 2.94  31 2.94
                            30 2.94
  29  0.333  0.003  0.498-  30 2.91  31 2.91  36 2.91  20 2.91  27 2.92  26 2.92  35 2.94  28 2.94
                            34 2.98
  30  0.664  0.003  0.498-  29 2.91  32 2.91  36 2.91  21 2.91  27 2.92  25 2.92  35 2.94  28 2.94
                            33 2.98
  31  0.003  0.333  0.498-  33 2.91  29 2.91  36 2.91  20 2.91  22 2.92  19 2.92  35 2.94  28 2.94
                            32 2.98
  32  0.664  0.333  0.498-  34 2.91  30 2.91  36 2.91  21 2.91  24 2.92  19 2.92  35 2.94  28 2.94
                            31 2.98
  33  0.003  0.664  0.498-  31 2.91  34 2.91  36 2.91  23 2.91  22 2.92  25 2.92  35 2.94  28 2.94
                            30 2.98
  34  0.333  0.664  0.498-  32 2.91  33 2.91  36 2.91  23 2.91  24 2.92  26 2.92  35 2.94  28 2.94
                            29 2.98
  35  0.667  0.667  0.498-  24 2.91  27 2.91  22 2.91  30 2.94  29 2.94  32 2.94  34 2.94  31 2.94
                            33 2.94
  36  0.333  0.333  0.492-  39 2.65  21 2.81  20 2.81  23 2.81  31 2.91  33 2.91  30 2.91  29 2.91
                            34 2.91  32 2.91
  37  0.281  0.277  0.603-  39 0.98
  38  0.461  0.269  0.601-  39 0.98
  39  0.334  0.350  0.598-  37 0.98  38 0.98  36 2.65

  LATTYP: Found a hexagonal cell.
 ALAT       =     8.7913665772
 C/A-ratio  =     2.8382349142

  Lattice vectors:

 A1 = (  -4.3956832886,  -7.6135467898,   0.0000000000)
 A2 = (   8.7913665771,   0.0000000000,   0.0000000000)
 A3 = (   0.0000000000,   0.0000000000,  24.9519635625)

Analysis of symmetry for initial positions (statically):
 Subroutine PRICEL returns:
 Original cell was already a primitive cell.

 Routine SETGRP: Setting up the symmetry group for a
 hexagonal supercell.

 Subroutine GETGRP returns: Found  1 space group operations
 (whereof  1 operations were pure point group operations)
 out of a pool of 24 trial point group operations.

The static configuration has the point symmetry C_1 .

Analysis of symmetry for dynamics (positions and initial velocities):
 Subroutine PRICEL returns:
 Original cell was already a primitive cell.

[...]

The dynamic configuration has the point symmetry C_1 .

Analysis of constrained symmetry for selective dynamics:
 Subroutine PRICEL returns:
[...]
     41      -4.7227      2.00000
     42      -4.7100      2.00000
     43      -4.7047      2.00000
     44      -4.6860      2.00000
     45      -4.6709      2.00000
     46      -4.5989      2.00000
     47      -4.5658      2.00000
     48      -4.5650      2.00000
     49      -4.5563      2.00000
     50      -4.5470      2.00000
     51      -4.5421      2.00000
     52      -4.5323      2.00000
     53      -4.5181      2.00000
     54      -4.4976      2.00000
     55      -4.4923      2.00000
     56      -4.4315      2.00000
     57      -4.4228      2.00000
     58      -4.4137      2.00000
     59      -4.4092      2.00000
     60      -4.3952      2.00000
[...]
    238       5.7242      0.00000
    239       5.8265      0.00000
    240       5.8708      0.00000
    241       6.0064      0.00000
    242       6.1357      0.00000
    243       6.1996      0.00000
    244       6.3373      0.00000
    245       6.4142      0.00000
    246       6.4510      0.00000
    247       6.6633      0.00000
    248       6.7394      0.00000
    249       6.8225      0.00000
    250       6.8767      0.00000
    251       6.9448      0.00000
    252       7.1332      0.00000

 soft charge-density along one line, spin component           1
         0         1         2         3         4         5         6         7         8         9
 total charge-density along one line

------------------------ aborting loop because EDIFF is reached ----------------------------------------

 total charge

# of ion       s       p       d       tot
    1        0.414   0.205   9.177   9.796
    2        0.418   0.203   9.177   9.798
    3        0.418   0.203   9.177   9.798
    4        0.419   0.203   9.177   9.798
    5        0.414   0.204   9.178   9.796
    6        0.419   0.203   9.177   9.799
    7        0.418   0.202   9.177   9.798
    8        0.418   0.202   9.177   9.798
    9        0.416   0.203   9.177   9.797
   10        0.406   0.270   9.164   9.840
   11        0.408   0.267   9.166   9.842
   12        0.406   0.270   9.164   9.840
   13        0.408   0.267   9.166   9.841
   14        0.408   0.267   9.166   9.841
   15        0.403   0.270   9.166   9.839
   16        0.406   0.270   9.164   9.840
   17        0.403   0.270   9.166   9.839
   18        0.403   0.270   9.166   9.839
   19        0.406   0.268   9.168   9.842
   20        0.408   0.280   9.161   9.849
   21        0.408   0.280   9.161   9.849
   22        0.402   0.273   9.165   9.840
   23        0.408   0.280   9.162   9.849
   24        0.402   0.273   9.165   9.840
   25        0.405   0.269   9.168   9.841
   26        0.405   0.269   9.168   9.841
   27        0.404   0.272   9.166   9.841
   28        0.417   0.201   9.178   9.796
   29        0.417   0.206   9.177   9.800
   30        0.418   0.207   9.176   9.801
   31        0.418   0.205   9.178   9.801
   32        0.418   0.205   9.178   9.801
   33        0.414   0.202   9.181   9.796
   34        0.413   0.201   9.182   9.796
   35        0.415   0.203   9.179   9.797
   36        0.387   0.264   8.592   9.243
   37        0.616   0.118   0.000   0.735
   38        0.616   0.119   0.000   0.735
   39        1.572   3.586   0.000   5.158
tot         17.577  12.428 329.588 359.593

  FORCE on cell =-STRESS in cart. coord.  units (eV):
  Direction    XX          YY          ZZ          XY          YZ          ZX
  Alpha Z   675.54076   675.54076   675.54076
  Ewald  162579.10010162523.99329************    -2.46427    -8.78187    -4.55171
  Hartree172687.32936172677.12453************    -0.43213    -0.16165    -1.05101
  E(xc)   -2118.04501 -2118.24905 -2123.70129    -0.00876    -0.01662    -0.01288
  Local  ************************346534.37828     2.17506     5.61570     4.28349
  n-local  -357.62190  -358.60516  -364.93926    -0.06322    -0.15126    -0.04865
  augment  3299.85881  3300.93124  3311.03879     0.05104     0.23334     0.08927
  Kinetic  5039.12127  5054.62806  5095.06124     0.70983     3.16263     1.24955
  Fock        0.00000     0.00000     0.00000     0.00000     0.00000     0.00000
  Total      -7.66167    -7.75313    -0.60646    -0.03244    -0.09973    -0.04195
  in kB      -7.34997    -7.43772    -0.58179    -0.03112    -0.09567    -0.04024

 VOLUME and BASIS-vectors are now :
  energy-cutoff  :      500.00
  volume of cell :     1670.12
      direct lattice vectors                 reciprocal lattice vectors
     8.791366577  0.000000000  0.000000000     0.113747958 -0.065672414  0.000000000
     4.395683289  7.613546790  0.000000000     0.000000000  0.131344829  0.000000000
     0.000000000  0.000000000 24.951963562     0.000000000  0.000000000  0.040077006

  length of vectors
     8.791366577  8.791366577 24.951963562     0.131344829  0.131344829  0.040077006

 FORCES acting on ions
    electron-ion (+dipol)            ewald-force                    non-local-force                 convergence-correction
   -.749E-02 0.213E-01 0.274E+04   0.416E-02 -.148E-02 -.274E+04   -.896E-03 0.964E-02 -.202E+01   0.399E-02 -.263E-01 -.955E-01
   0.176E+00 0.368E+00 0.274E+04   -.219E+00 -.251E+00 -.274E+04   0.125E-01 -.665E-01 -.165E+01   0.292E-01 -.417E-01 -.672E-01
   -.168E+00 0.374E+00 0.274E+04   0.215E+00 -.258E+00 -.274E+04   -.113E-01 -.677E-01 -.165E+01   -.339E-01 -.394E-01 -.631E-01
   0.397E+00 -.312E-01 0.274E+04   -.324E+00 -.615E-01 -.274E+04   -.635E-01 0.421E-01 -.164E+01   -.498E-02 0.435E-01 -.579E-01
   -.365E-02 -.344E-01 0.274E+04   -.820E-02 0.182E-03 -.274E+04   -.169E-02 0.517E-03 -.172E+01   0.138E-01 0.304E-01 -.806E-01
   -.396E+00 -.483E-01 0.274E+04   0.332E+00 -.613E-01 -.274E+04   0.619E-01 0.438E-01 -.164E+01   -.201E-02 0.579E-01 -.548E-01
   0.187E+00 -.325E+00 0.274E+04   -.113E+00 0.313E+00 -.274E+04   -.595E-01 0.206E-01 -.167E+01   -.954E-02 -.924E-02 -.752E-01
   -.193E+00 -.320E+00 0.274E+04   0.109E+00 0.320E+00 -.274E+04   0.598E-01 0.172E-01 -.167E+01   0.185E-01 -.184E-01 -.779E-01
   0.102E-01 -.715E-02 0.274E+04   0.400E-02 0.127E-02 -.274E+04   0.246E-02 0.912E-03 -.181E+01   -.165E-01 0.574E-02 -.448E-01
   0.258E+01 0.152E+01 0.955E+03   -.246E+01 -.143E+01 -.954E+03   -.141E+00 -.876E-01 -.650E+00   0.427E-01 0.975E-03 0.923E-02
   0.405E-01 0.226E+01 0.958E+03   -.467E-01 -.231E+01 -.958E+03   -.200E-02 -.102E-01 -.593E+00   0.820E-02 0.375E-01 0.403E-01
   -.263E+01 0.156E+01 0.955E+03   0.251E+01 -.146E+01 -.955E+03   0.139E+00 -.862E-01 -.645E+00   -.432E-01 0.442E-02 0.463E-02
   0.192E+01 -.113E+01 0.958E+03   -.202E+01 0.115E+01 -.958E+03   0.328E-02 0.272E-02 -.629E+00   0.675E-01 -.387E-02 0.225E-01
   -.189E+01 -.116E+01 0.959E+03   0.196E+01 0.117E+01 -.958E+03   -.689E-02 0.283E-02 -.623E+00   -.478E-01 -.167E-03 0.177E-01
   -.494E-01 0.234E+00 0.955E+03   0.540E-01 -.236E+00 -.954E+03   0.174E-02 -.208E-01 -.526E+00   -.633E-02 0.224E-01 -.669E-02
   0.490E-02 -.299E+01 0.955E+03   -.923E-02 0.287E+01 -.954E+03   0.435E-03 0.152E+00 -.709E+00   0.388E-02 -.536E-01 0.107E-01
   0.212E+00 -.174E+00 0.955E+03   -.207E+00 0.153E+00 -.954E+03   -.109E-01 0.209E-01 -.551E+00   0.410E-02 0.259E-03 0.303E-02
   -.215E+00 -.121E+00 0.955E+03   0.216E+00 0.963E-01 -.954E+03   0.940E-02 0.181E-01 -.545E+00   -.854E-02 0.634E-02 0.290E-02
   -.379E+00 0.191E+01 -.860E+03   0.371E+00 -.193E+01 0.859E+03   -.167E-02 0.123E-01 0.501E+00   0.889E-02 0.215E-02 0.217E-01
   0.112E+02 0.638E+01 -.835E+03   -.108E+02 -.610E+01 0.836E+03   -.425E+00 -.251E+00 -.457E+00   0.573E-01 -.198E-02 0.227E-01
   -.108E+02 0.654E+01 -.834E+03   0.104E+02 -.628E+01 0.835E+03   0.420E+00 -.249E+00 -.448E+00   -.810E-01 0.244E-02 0.212E-01
   0.546E+01 -.322E+01 -.853E+03   -.568E+01 0.331E+01 0.853E+03   0.197E+00 -.921E-01 0.554E+00   0.257E-01 0.798E-02 0.106E-01
   0.337E+00 -.128E+02 -.835E+03   -.331E+00 0.124E+02 0.835E+03   -.976E-03 0.506E+00 -.485E+00   -.579E-02 -.531E-01 0.141E-01
   -.579E+01 -.353E+01 -.853E+03   0.601E+01 0.360E+01 0.852E+03   -.192E+00 -.844E-01 0.549E+00   -.258E-01 0.150E-01 0.107E-01
   -.166E+01 -.659E+00 -.860E+03   0.169E+01 0.715E+00 0.859E+03   0.986E-02 -.397E-01 0.530E+00   -.240E-01 -.144E-01 0.264E-01
   0.156E+01 -.104E+01 -.860E+03   -.160E+01 0.109E+01 0.859E+03   -.678E-02 -.428E-01 0.532E+00   0.293E-01 -.953E-02 0.269E-01
   0.970E-01 0.650E+01 -.853E+03   -.873E-01 -.677E+01 0.852E+03   -.406E-02 0.221E+00 0.537E+00   -.505E-02 0.368E-01 0.737E-02
   -.918E+00 0.518E+00 -.266E+04   0.911E+00 -.491E+00 0.266E+04   0.250E-02 0.184E-01 0.177E+01   0.349E-02 -.370E-01 0.115E+00
   0.197E+02 0.320E+02 -.265E+04   -.194E+02 -.316E+02 0.265E+04   -.294E+00 -.424E+00 0.166E+01   0.195E-01 -.153E-02 0.108E+00
   -.188E+02 0.349E+02 -.265E+04   0.186E+02 -.345E+02 0.264E+04   0.290E+00 -.425E+00 0.163E+01   -.239E-01 0.463E-02 0.110E+00
   0.367E+02 0.289E+00 -.265E+04   -.362E+02 -.266E+00 0.265E+04   -.500E+00 -.346E-01 0.172E+01   0.298E-01 0.295E-02 0.105E+00
   -.408E+02 0.115E+00 -.264E+04   0.404E+02 -.125E+00 0.264E+04   0.464E+00 -.203E-01 0.173E+01   -.362E-01 0.180E-01 0.113E+00
   0.188E+02 -.324E+02 -.265E+04   -.188E+02 0.321E+02 0.265E+04   -.876E-01 0.345E+00 0.205E+01   0.291E-01 -.121E-02 0.111E+00
   -.181E+02 -.351E+02 -.265E+04   0.181E+02 0.349E+02 0.264E+04   0.788E-01 0.309E+00 0.210E+01   -.155E-01 -.845E-02 0.117E+00
   -.794E+00 -.295E+00 -.266E+04   0.810E+00 0.275E+00 0.266E+04   0.585E-02 0.488E-02 0.183E+01   -.214E-01 0.149E-01 0.112E+00
   0.414E+01 0.495E+00 -.225E+04   -.419E+01 -.648E+00 0.225E+04   0.422E-01 0.161E+00 0.282E+01   0.113E-01 0.426E-02 0.932E-01
   0.716E+02 0.465E+02 -.277E+03   -.784E+02 -.510E+02 0.278E+03   0.685E+01 0.451E+01 -.101E+01   0.582E-02 0.289E-02 -.274E-02
   -.681E+02 0.520E+02 -.274E+03   0.746E+02 -.571E+02 0.275E+03   -.653E+01 0.504E+01 -.512E+00   -.563E-02 0.370E-02 -.242E-02
   -.195E+01 -.615E+02 -.162E+04   0.369E+01 0.109E+03 0.161E+04   -.174E+01 -.471E+02 0.540E+01   0.249E-02 -.454E-02 -.405E-01
   0.145E+01 0.376E+02 -.275E+01   0.000E+00 0.327E-12 0.273E-11   -.143E+01 -.376E+02 0.208E+01   -.261E-02 0.637E-03 0.587E+00

 POSITION                                       TOTAL-FORCE (eV/Angst)
      0.00000      0.00000      5.28219        -0.000696      0.002537      0.067853
      2.93046      0.00000      5.28219        -0.002361      0.007793      0.027960
      5.86091      0.00000      5.28219         0.001682      0.008139      0.028293
      1.46523      2.53785      5.28219         0.003820     -0.007667      0.029135
      4.39568      2.53785      5.28219        -0.000188     -0.003929      0.014143
      7.32614      2.53785      5.28219        -0.004926     -0.008445      0.029270
      2.93046      5.07570      5.28219         0.004804     -0.001925      0.028163
      5.86091      5.07570      5.28219        -0.006044     -0.001750      0.028089
      8.79137      5.07570      5.28219        -0.000312      0.000170      0.042557
      1.46523      0.84595      7.67490         0.023034      0.011495     -0.024583
      4.39568      0.84595      7.67490        -0.000449     -0.020521     -0.073967
      7.32614      0.84595      7.67490        -0.023670      0.011530     -0.025305
      2.93046      3.38380      7.67490        -0.020731      0.009424     -0.075180
      5.86091      3.38380      7.67490         0.020366      0.009514     -0.074223
      8.79137      3.38380      7.67490        -0.000431     -0.000385     -0.016025
      4.39568      5.92165      7.67490        -0.000480     -0.024741     -0.035633
      7.32614      5.92165      7.67490        -0.002506     -0.000267     -0.019527
     10.25659      5.92165      7.67490         0.001687     -0.000508     -0.018845
      8.79137      1.69432     10.05238        -0.001025     -0.014550     -0.013287
      2.92802      1.69049     10.04000         0.029072      0.020344     -0.000212
      5.86334      1.69049     10.04000        -0.026705      0.017406     -0.006843
     10.25637      4.22988     10.04709         0.003684     -0.000396      0.014751
      4.39568      4.23256     10.04000        -0.001506     -0.020016     -0.009583
      7.32637      4.22988     10.04709        -0.005111     -0.001470      0.016179
     11.71973      6.76639     10.05238         0.015558      0.001063     -0.002575
      5.86300      6.76639     10.05238        -0.017349      0.000856     -0.000645
      8.79137      6.76733     10.04709         0.000099     -0.004170      0.004605
      0.00000      0.00000     12.42253        -0.002026      0.007441      0.012451
      2.94245      0.01904     12.42445        -0.022971     -0.033195     -0.013842
      5.84892      0.01904     12.42445         0.024243     -0.037903     -0.017445
      1.48772      2.53872     12.42445        -0.050431     -0.009939     -0.026591
      7.30365      2.53872     12.42445         0.060675     -0.012897     -0.038617
      2.94095      5.05579     12.42445        -0.036687      0.042337     -0.029073
      5.85042      5.05579     12.42445         0.034031      0.045997     -0.030571
      8.79137      5.07570     12.41807        -0.000176     -0.000314      0.008152
      4.39568      2.53785     12.28633         0.002581      0.011229      0.185152
      3.68946      2.10983     15.05279         0.008963     -0.002134      0.000988
      5.23188      2.04815     14.99510        -0.002850     -0.007266      0.000008
      4.48063      2.66783     14.92870        -0.004667      0.007116      0.014827
    total drift:                                0.018023      0.023116     -0.077679

  FREE ENERGIE OF THE ION-ELECTRON SYSTEM (eV)
  free  energy   TOTEN  =      -108.62095555 eV

  energy  without entropy=     -108.62095555  energy(sigma->0) =     -108.62095555

 stress matrix after NEB project (eV)
     -7.66167     -0.03244     -0.04195
     -0.03244     -7.75313     -0.09973
     -0.04195     -0.09973     -0.60646
  FORCES: max atom, RMS     0.017095    0.003355
  FORCE total and by dimension    0.020953    0.014827
  Stress total and by dimension   10.918129    7.753134
|           W    W    AA    RRRRR   N    N  II  N    N   GGGG   !!!           |
|           W    W   A  A   R    R  NN   N  II  NN   N  G    G  !!!           |
|           W    W  A    A  R    R  N N  N  II  N N  N  G       !!!           |
|           W WW W  AAAAAA  RRRRR   N  N N  II  N  N N  G  GGG   !            |
|           WW  WW  A    A  R   R   N   NN  II  N   NN  G    G                |
|           W    W  A    A  R    R  N    N  II  N    N   GGGG   !!!           |
|     Tetrahedron method does not include variations of the Fermi             |
|     occupations, so forces and stress will be inaccurate. We suggest        |
|     using a different smearing scheme ISMEAR = 1 or 2 for metals in         |
|     relaxations.                                                            |

 total charge

# of ion       s       p       d       tot
    1        0.414   0.205   9.177   9.796
    2        0.418   0.203   9.177   9.798
    3        0.418   0.203   9.177   9.798
    4        0.419   0.203   9.177   9.798
    5        0.414   0.204   9.178   9.796
    6        0.419   0.203   9.177   9.799
    7        0.418   0.202   9.177   9.798
    8        0.418   0.202   9.177   9.798
    9        0.416   0.203   9.177   9.797
   10        0.406   0.270   9.164   9.840
   11        0.408   0.267   9.166   9.842
   12        0.406   0.270   9.164   9.840
   13        0.408   0.267   9.166   9.841
   14        0.408   0.267   9.166   9.841
   15        0.403   0.270   9.166   9.839
   16        0.406   0.270   9.164   9.840
   17        0.403   0.270   9.166   9.839
   18        0.403   0.270   9.166   9.839
   19        0.406   0.268   9.168   9.842
   20        0.408   0.280   9.161   9.849
   21        0.408   0.280   9.161   9.849
   22        0.402   0.273   9.165   9.840
   23        0.408   0.280   9.162   9.849
   24        0.402   0.273   9.165   9.840
   25        0.405   0.269   9.168   9.841
   26        0.405   0.269   9.168   9.841
   27        0.404   0.272   9.166   9.841
   28        0.417   0.201   9.178   9.796
   29        0.417   0.206   9.177   9.800
   30        0.418   0.207   9.176   9.801
   31        0.418   0.205   9.178   9.801
   32        0.418   0.205   9.178   9.801
   33        0.414   0.202   9.181   9.796
   34        0.413   0.201   9.182   9.796
   35        0.415   0.203   9.179   9.797
   36        0.387   0.264   8.592   9.243
   37        0.616   0.118   0.000   0.735
   38        0.616   0.119   0.000   0.735
   39        1.572   3.586   0.000   5.158
tot         17.577  12.428 329.588 359.593

 BZINTS: Fermi energy:    0.406798;  403.000000 electrons
         Band energy:-0.149907E+04;  BLOECHL correction:   -0.077064