 vasp.6.2.0 18Jan21 (build Jun 12 2021 23:27:24) complex

 executed on             LinuxIFC date 2022.05.27  05:04:28

 INCAR:
   ISMEAR = -5
   SIGMA = 0.1
   ISPIN = 1
   EDIFF = 1.d-5
   EDIFFG = -0.01
   NSW = 0
   NELM = 150
   ENCUT = 500
   ISIF = 2
   IBRION = 2
   LREAL = Auto
   ALGO = Fast
   ICHARG = 11
   LORBIT = 10
   LCHARG = .F.
   LWAVE = .F.

 POTCAR:    PAW_PBE Au 04Oct2007
 POTCAR:    PAW_PBE Fe 06Sep2000
 POTCAR:    PAW_PBE N 08Apr2002
|           W    W    AA    RRRRR   N    N  II  N    N   GGGG   !!!           |
|           W    W   A  A   R    R  NN   N  II  NN   N  G    G  !!!           |
|           W    W  A    A  R    R  N N  N  II  N N  N  G       !!!           |
|           W WW W  AAAAAA  RRRRR   N  N N  II  N  N N  G  GGG   !            |
|           WW  WW  A    A  R   R   N   NN  II  N   NN  G    G                |
|           W    W  A    A  R    R  N    N  II  N    N   GGGG   !!!           |
|     For optimal performance we recommend to set                             |
|       NCORE = 2 up to number-of-cores-per-socket                            |
|     This setting can greatly improve the performance of VASP for DFT.       |
|     The default, NCORE=1 might be grossly inefficient on modern             |
|     multi-core architectures or massively parallel machines. Do your        |
|     Unfortunately you need to use the default for GW and RPA                |
|     calculations (for HF NCORE is supported but not extensively tested      |
|     yet).                                                                   |

 POTCAR:    PAW_PBE Au 04Oct2007
   VRHFIN =Au: s1d10

   TITEL  = PAW_PBE Au 04Oct2007
   POMASS =  196.966; ZVAL   =   11.000    mass and valenz
   ENMAX  =  229.943; ENMIN  =  172.457 eV

 POTCAR:    PAW_PBE Fe 06Sep2000
   VRHFIN =Fe:  d7 s1

   TITEL  = PAW_PBE Fe 06Sep2000
   POMASS =   55.847; ZVAL   =    8.000    mass and valenz
   ENMAX  =  267.882; ENMIN  =  200.911 eV

 POTCAR:    PAW_PBE N 08Apr2002
   VRHFIN =N: s2p3

   TITEL  = PAW_PBE N 08Apr2002
   POMASS =   14.001; ZVAL   =    5.000    mass and valenz
   ENMAX  =  400.000; ENMIN  =  300.000 eV

 Optimization of the real space projectors (new method)

 maximal supplied QI-value         = 15.12
 optimisation between [QCUT,QGAM] = [ 11.34, 22.83] = [ 36.00,145.93] Ry
 Optimized for a Real-space Cutoff    1.39 Angstroem

   l    n(q)    QCUT    max X(q) W(low)/X(q) W(high)/X(q)  e(spline)
   2      9    11.338    60.898    0.39E-03    0.42E-03    0.21E-06
   2      9    11.338    58.894    0.40E-03    0.42E-03    0.22E-06
   0      9    11.338   109.617    0.13E-03    0.20E-04    0.13E-06
   0      9    11.338    75.026    0.13E-03    0.20E-04    0.13E-06
   1      9    11.338    16.344    0.33E-04    0.24E-03    0.18E-06
   1      9    11.338    10.160    0.26E-04    0.19E-03    0.15E-06
 Optimization of the real space projectors (new method)

[...]

   l    n(q)    QCUT    max X(q) W(low)/X(q) W(high)/X(q)  e(spline)
   2      8    11.376    80.901    0.45E-03    0.44E-04    0.21E-06
   2      8    11.376    75.754    0.45E-03    0.45E-04    0.22E-06
   0      9    11.376    58.752    0.65E-04    0.95E-04    0.17E-06
   0      9    11.376    30.679    0.59E-04    0.87E-04    0.16E-06
   1      9    11.376    17.977    0.38E-03    0.10E-03    0.14E-06
   1      9    11.376    13.559    0.31E-03    0.90E-04    0.12E-06
 Optimization of the real space projectors (new method)

 maximal supplied QI-value         = 25.13
 optimisation between [QCUT,QGAM] = [ 11.31, 22.87] = [ 35.82,146.48] Ry
 Optimized for a Real-space Cutoff    1.27 Angstroem

   l    n(q)    QCUT    max X(q) W(low)/X(q) W(high)/X(q)  e(spline)
   0      9    11.310    79.467    0.75E-04    0.16E-03    0.36E-06
   0      9    11.310    66.151    0.74E-04    0.16E-03    0.36E-06
   1      8    11.310    17.416    0.35E-03    0.12E-03    0.95E-06
   1      8    11.310    12.382    0.37E-03    0.13E-03    0.98E-06
  PAW_PBE Au 04Oct2007                  :
  PAW_PBE Fe 06Sep2000                  :
  PAW_PBE N 08Apr2002                   :

 POSCAR: Au-Fe-N2
  positions in direct lattice
  velocities in cartesian coordinates
 exchange correlation table for  LEXCH =        8
   RHO(1)=    0.500       N(1)  =     2000
   RHO(2)=  100.500       N(2)  =     4000

 VTST: version 3.2, (02/03/18)

 CHAIN: initializing optimizer

 OPT: Using VASP Conjugate-Gradient optimizer
 CHAIN: Read ICHAIN            0

 POSCAR: Au-Fe-N2
  positions in direct lattice
  velocities in cartesian coordinates

 ion  position               nearest neighbor table
   1  0.000  0.000  0.218-  16 2.94  12 2.94   6 2.94   8 2.94   7 2.94   3 2.94  10 2.94   4 2.94
                             2 2.94
   2  0.333  0.000  0.218-   9 2.94  11 2.94  17 2.94  10 2.94   8 2.94   4 2.94   5 2.94   1 2.94
                             3 2.94
   3  0.667  0.000  0.218-   7 2.94  18 2.94  12 2.94   1 2.94  11 2.94   5 2.94   6 2.94   9 2.94
                             2 2.94
   4  0.000  0.333  0.218-  10 2.94   6 2.94   5 2.94  13 2.94   2 2.94  15 2.94   9 2.94   1 2.94
                             7 2.94
   5  0.333  0.333  0.218-  13 2.94   7 2.94  11 2.94   4 2.94   2 2.94  14 2.94   3 2.94   8 2.94
                             6 2.94
   6  0.667  0.333  0.218-  15 2.94  14 2.94   1 2.94  12 2.94   4 2.94   9 2.94   8 2.94   3 2.94
                             5 2.94
   7  0.000  0.667  0.218-  18 2.94   3 2.94  16 2.94   5 2.94   1 2.94  13 2.94   8 2.94   4 2.94
                             9 2.94
   8  0.333  0.667  0.218-   9 2.94  17 2.94   1 2.94   2 2.94  14 2.94  16 2.94   6 2.94   7 2.94
                             5 2.94
   9  0.667  0.667  0.218-   2 2.94   8 2.94  17 2.94   6 2.94  15 2.94   4 2.94   3 2.94  18 2.94
                             7 2.94
  10  0.111  0.111  0.317-  20 2.93  26 2.94  19 2.94  11 2.94  17 2.94   2 2.94   4 2.94   1 2.94
                            12 2.94  16 2.94  13 2.94  15 2.94
  11  0.444  0.111  0.317-  20 2.91  21 2.91  27 2.93  13 2.94   2 2.94  10 2.94  17 2.94   5 2.94
                             3 2.94  18 2.94  14 2.94  12 2.94
  12  0.778  0.111  0.317-  21 2.93  25 2.94  19 2.94  16 2.94  18 2.94   1 2.94  14 2.94  15 2.94
                             3 2.94   6 2.94  10 2.94  11 2.94
  13  0.111  0.444  0.317-  23 2.91  20 2.91  22 2.93   5 2.94  18 2.94  11 2.94   7 2.94   4 2.94
                            16 2.94  10 2.94  14 2.94  15 2.94
  14  0.444  0.444  0.317-  21 2.91  23 2.91  24 2.93  15 2.94   6 2.94  12 2.94   8 2.94  17 2.94
                             5 2.94  16 2.94  13 2.94  11 2.94
  15  0.778  0.444  0.317-  24 2.92  22 2.92  19 2.94  14 2.94   6 2.94  17 2.94  12 2.94   9 2.94
                             4 2.94  10 2.94  13 2.94  18 2.94
  16  0.111  0.778  0.317-  23 2.93  25 2.94  26 2.94  18 2.94  12 2.94   7 2.94   1 2.94   8 2.94
                            13 2.94  10 2.94  14 2.94  17 2.94
  17  0.444  0.778  0.317-  27 2.92  24 2.92  26 2.94   9 2.94  15 2.94   2 2.94  10 2.94  11 2.94
                             8 2.94  14 2.94  16 2.94  18 2.94
  18  0.778  0.778  0.317-  22 2.92  27 2.92  25 2.94  16 2.94   7 2.94  13 2.94  12 2.94   3 2.94
                            11 2.94   9 2.94  15 2.94  17 2.94
  19  0.889  0.222  0.416-  10 2.94  12 2.94  15 2.94  26 2.94  25 2.94  24 2.94  22 2.94  28 2.95
                            21 2.95  20 2.95  32 2.98  31 2.98
  20  0.223  0.223  0.415-  36 2.70  23 2.91  21 2.91  11 2.91  13 2.91  29 2.92  31 2.92  10 2.93
                            27 2.95  22 2.95  26 2.95  19 2.95
  21  0.553  0.223  0.415-  36 2.70  20 2.91  23 2.91  14 2.91  11 2.91  30 2.92  32 2.92  12 2.93
                            27 2.95  24 2.95  25 2.95  19 2.95
  22  0.887  0.557  0.415-  24 2.91  27 2.91  18 2.92  15 2.92  13 2.93  25 2.94  19 2.94  33 2.95
                            31 2.95  23 2.95  20 2.95  35 2.95
  23  0.223  0.553  0.415-  36 2.70  20 2.91  21 2.91  13 2.91  14 2.91  33 2.92  34 2.92  16 2.93
                            22 2.95  24 2.95  25 2.95  26 2.95
  24  0.557  0.557  0.415-  27 2.91  22 2.91  15 2.92  17 2.92  14 2.93  26 2.94  19 2.94  32 2.95
                            34 2.95  21 2.95  23 2.95  35 2.95
  25  0.889  0.889  0.416-  16 2.94  12 2.94  18 2.94  19 2.94  26 2.94  22 2.94  27 2.94  28 2.95
                            23 2.95  21 2.95  33 2.98  30 2.98
  26  0.222  0.889  0.416-  10 2.94  16 2.94  17 2.94  19 2.94  25 2.94  27 2.94  24 2.94  28 2.95
                            20 2.95  23 2.95  29 2.98  34 2.98
  27  0.557  0.887  0.415-  24 2.91  22 2.91  17 2.92  18 2.92  11 2.93  26 2.94  25 2.94  29 2.95
                            30 2.95  20 2.95  21 2.95  35 2.95
  28  0.000  0.000  0.515-  25 2.95  19 2.95  26 2.95  34 2.98  32 2.98  33 2.98  30 2.98  31 2.98
                            29 2.98
  29  0.333  0.010  0.514-  30 2.85  31 2.85  36 2.87  20 2.92  27 2.95  26 2.98  35 2.98  28 2.98
                            34 3.11
  30  0.657  0.010  0.514-  29 2.85  32 2.85  36 2.87  21 2.92  27 2.95  25 2.98  35 2.98  28 2.98
                            33 3.11
  31  0.010  0.333  0.514-  33 2.85  29 2.85  36 2.87  20 2.92  22 2.95  19 2.98  35 2.98  28 2.98
                            32 3.11
  32  0.657  0.333  0.514-  34 2.85  30 2.85  36 2.87  21 2.92  24 2.95  19 2.98  35 2.98  28 2.98
                            31 3.11
  33  0.010  0.657  0.514-  31 2.85  34 2.85  36 2.87  23 2.92  22 2.95  25 2.98  35 2.98  28 2.98
                            30 3.11
  34  0.333  0.657  0.514-  32 2.85  33 2.85  36 2.87  23 2.92  24 2.95  26 2.98  35 2.98  28 2.98
                            29 3.11
  35  0.667  0.667  0.515-  24 2.95  27 2.95  22 2.95  29 2.98  34 2.98  32 2.98  31 2.98  30 2.98
                            33 2.98
  36  0.333  0.333  0.502-  20 2.70  23 2.70  21 2.70  33 2.87  31 2.87  29 2.87  30 2.87  34 2.87
                            32 2.87
  37  0.257  0.360  0.680-  38 1.11
  38  0.383  0.360  0.680-  37 1.11

  LATTYP: Found a hexagonal cell.
 ALAT       =     8.8135128021
 C/A-ratio  =     2.7504190222

  Lattice vectors:

 A1 = (  -4.4067569092,  -7.6327256898,   0.0000000000)
 A2 = (   8.8135128021,   0.0000000000,   0.0000000000)
 A3 = (   0.0000000000,   0.0000000000,  24.2408532635)

Analysis of symmetry for initial positions (statically):
 Subroutine PRICEL returns:
 Original cell was already a primitive cell.

 Routine SETGRP: Setting up the symmetry group for a
 hexagonal supercell.

 Subroutine GETGRP returns: Found  2 space group operations
 (whereof  2 operations were pure point group operations)
 out of a pool of 24 trial point group operations.

The static configuration has the point symmetry C_1h.

Analysis of symmetry for dynamics (positions and initial velocities):
 Subroutine PRICEL returns:
 Original cell was already a primitive cell.

[...]

The dynamic configuration has the point symmetry C_1h.

Analysis of constrained symmetry for selective dynamics:
 Subroutine PRICEL returns:
 Original cell was already a primitive cell.

 Routine SETGRP: Setting up the symmetry group for a
 hexagonal supercell.

[...]
     33      -5.2087      2.00000
     34      -5.2005      2.00000
     35      -5.1799      2.00000
     36      -5.1766      2.00000
     37      -5.1628      2.00000
     38      -5.1067      2.00000
     39      -5.0094      2.00000
     40      -4.9788      2.00000
     41      -4.9761      2.00000
     42      -4.9675      2.00000
     43      -4.9124      2.00000
     44      -4.8313      2.00000
     45      -4.7994      2.00000
     46      -4.7457      2.00000
     47      -4.7410      2.00000
     48      -4.7205      2.00000
     49      -4.7186      2.00000
     50      -4.7100      2.00000
     51      -4.6031      2.00000
     52      -4.5947      2.00000
     53      -4.5606      2.00000
     54      -4.5390      2.00000
     55      -4.5367      2.00000
     56      -4.5284      2.00000
     57      -4.5053      2.00000
     58      -4.4760      2.00000
     59      -4.4315      2.00000
     60      -4.4231      2.00000
[...]
    242       6.0030      0.00000
    243       6.0341      0.00000
    244       6.0510      0.00000
    245       6.1731      0.00000
    246       6.3454      0.00000
    247       6.3773      0.00000
    248       6.3989      0.00000
    249       6.4883      0.00000
    250       6.6894      0.00000
    251       6.7054      0.00000
    252       6.7684      0.00000
    253       6.7923      0.00000
    254       6.8734      0.00000
    255       6.9026      0.00000
    256       7.0157      0.00000

 soft charge-density along one line, spin component           1
         0         1         2         3         4         5         6         7         8         9
 total charge-density along one line

------------------------ aborting loop because EDIFF is reached ----------------------------------------

 total charge

# of ion       s       p       d       tot
    1        0.546   0.239   8.765   9.550
    2        0.544   0.241   8.764   9.550
    3        0.544   0.241   8.764   9.550
    4        0.544   0.241   8.764   9.550
    5        0.542   0.242   8.762   9.546
    6        0.544   0.241   8.764   9.550
    7        0.544   0.241   8.764   9.550
    8        0.544   0.241   8.764   9.550
    9        0.544   0.239   8.768   9.550
   10        0.523   0.308   8.768   9.599
   11        0.521   0.308   8.780   9.609
   12        0.523   0.308   8.768   9.599
   13        0.521   0.308   8.780   9.609
   14        0.521   0.308   8.780   9.609
   15        0.518   0.308   8.776   9.602
   16        0.523   0.308   8.768   9.599
   17        0.518   0.308   8.776   9.602
   18        0.518   0.308   8.776   9.602
   19        0.516   0.300   8.775   9.592
   20        0.544   0.331   8.751   9.626
   21        0.544   0.331   8.751   9.626
   22        0.511   0.309   8.777   9.597
   23        0.544   0.331   8.751   9.626
   24        0.511   0.309   8.777   9.597
   25        0.516   0.300   8.775   9.592
   26        0.516   0.300   8.775   9.592
   27        0.511   0.309   8.777   9.597
   28        0.538   0.224   8.765   9.527
   29        0.559   0.239   8.750   9.548
   30        0.559   0.239   8.750   9.548
   31        0.559   0.239   8.750   9.548
   32        0.559   0.239   8.750   9.548
   33        0.559   0.239   8.750   9.548
   34        0.559   0.239   8.750   9.548
   35        0.534   0.224   8.766   9.524
   36        0.317   0.239   6.212   6.769
   37        1.373   2.469   0.000   3.841
   38        1.373   2.469   0.000   3.841
tot         21.784  14.822 313.001 349.607

  FORCE on cell =-STRESS in cart. coord.  units (eV):
  Direction    XX          YY          ZZ          XY          YZ          ZX
  Alpha Z   947.91313   947.91313   947.91313
  Ewald  145017.18106144696.11010************    -0.00032    -3.28761    -0.00016
  Hartree153491.67031153377.46792************     0.00001    -2.78408    -0.00004
  E(xc)   -1806.96097 -1808.20149 -1815.37805    -0.00002    -0.00101    -0.00000
  Local  ************************310506.15752     0.00251     6.07924     0.00006
  n-local  -112.29847   -99.75490   -74.17463     4.56223    -0.00007     0.19789
  augment  2404.30134  2403.99412  2420.53006    -0.00142     0.00257     0.00003
  Kinetic  5592.34642  5610.42302  5666.00672     1.53986    -0.00753     0.30644
  Fock        0.00000     0.00000     0.00000     0.00000     0.00000     0.00000
  Total     -24.61701   -24.61137     2.37391    -0.00000     0.00151     0.00000
  in kB     -24.18629   -24.18075     2.33237    -0.00000     0.00149     0.00000

 VOLUME and BASIS-vectors are now :
  energy-cutoff  :      500.00
  volume of cell :     1630.71
      direct lattice vectors                 reciprocal lattice vectors
     8.813512802  0.000000000  0.000000000     0.113462137 -0.065507406  0.000000000
     4.406756909  7.632725690  0.000000000     0.000000000  0.131014796  0.000000000
     0.000000000  0.000000000 24.240853263     0.000000000  0.000000000  0.041252673

  length of vectors
     8.813512802  8.813512802 24.240853263     0.131014796  0.131014796  0.041252673

 FORCES acting on ions
    electron-ion (+dipol)            ewald-force                    non-local-force                 convergence-correction
   -.198E-04 -.175E-02 0.264E+04   0.519E-04 0.229E-02 -.264E+04   -.279E-10 -.420E-03 -.749E+00   -.237E-03 -.364E-03 -.234E+00
   0.549E+00 0.311E+00 0.264E+04   -.576E+00 -.340E+00 -.264E+04   0.247E-01 0.293E-01 -.304E+00   -.149E-02 0.202E-02 -.310E+00
   -.549E+00 0.311E+00 0.264E+04   0.576E+00 -.340E+00 -.264E+04   -.247E-01 0.293E-01 -.304E+00   0.181E-02 0.395E-02 -.309E+00
   0.545E+00 0.322E+00 0.264E+04   -.584E+00 -.337E+00 -.264E+04   0.380E-01 0.651E-02 -.306E+00   0.115E-02 0.205E-02 -.309E+00
   0.725E-05 0.862E-03 0.264E+04   0.951E-04 -.870E-02 -.264E+04   -.256E-11 -.384E-04 -.238E+00   0.428E-02 0.804E-02 -.308E+00
   -.545E+00 0.322E+00 0.264E+04   0.584E+00 -.337E+00 -.264E+04   -.380E-01 0.651E-02 -.306E+00   -.269E-02 0.296E-02 -.308E+00
   -.282E-02 -.633E+00 0.264E+04   -.793E-02 0.676E+00 -.264E+04   0.131E-01 -.359E-01 -.304E+00   0.412E-02 -.473E-02 -.306E+00
   0.279E-02 -.633E+00 0.264E+04   0.780E-02 0.676E+00 -.264E+04   -.131E-01 -.359E-01 -.304E+00   -.228E-02 -.583E-02 -.306E+00
   0.197E-04 0.587E-03 0.264E+04   0.166E-03 0.639E-02 -.264E+04   0.432E-10 0.649E-03 -.433E+00   -.459E-02 -.762E-02 -.299E+00
   0.440E+01 0.256E+01 0.900E+03   -.403E+01 -.235E+01 -.899E+03   -.247E+00 -.143E+00 -.688E+00   -.809E-01 -.451E-01 0.210E+00
   0.155E-04 0.517E+01 0.908E+03   0.147E-03 -.524E+01 -.908E+03   0.156E-08 0.235E-01 -.339E+00   0.404E-02 -.392E-02 0.294E+00
   -.440E+01 0.256E+01 0.900E+03   0.403E+01 -.235E+01 -.899E+03   0.247E+00 -.143E+00 -.688E+00   0.795E-01 -.439E-01 0.209E+00
   0.446E+01 -.255E+01 0.908E+03   -.452E+01 0.258E+01 -.908E+03   0.202E-01 -.114E-01 -.340E+00   -.418E-02 0.122E-01 0.292E+00
   -.446E+01 -.255E+01 0.908E+03   0.452E+01 0.258E+01 -.908E+03   -.202E-01 -.114E-01 -.340E+00   0.118E-01 0.114E-01 0.292E+00
   0.315E-04 0.328E+01 0.903E+03   0.236E-03 -.339E+01 -.903E+03   0.188E-08 0.282E-01 -.498E+00   -.224E-02 0.345E-01 0.245E+00
   -.215E-04 -.513E+01 0.900E+03   0.163E-03 0.471E+01 -.900E+03   0.190E-07 0.286E+00 -.688E+00   -.184E-04 0.867E-01 0.209E+00
   0.282E+01 -.167E+01 0.903E+03   -.291E+01 0.173E+01 -.903E+03   0.246E-01 -.145E-01 -.495E+00   0.257E-01 -.227E-01 0.245E+00
   -.282E+01 -.167E+01 0.903E+03   0.291E+01 0.173E+01 -.903E+03   -.246E-01 -.145E-01 -.495E+00   -.252E-01 -.207E-01 0.246E+00
   -.405E-04 0.173E+01 -.870E+03   0.546E-04 -.188E+01 0.869E+03   0.263E-08 0.394E-01 0.487E+00   -.315E-02 0.114E+00 0.839E+00
   0.207E+02 0.123E+02 -.836E+03   -.203E+02 -.121E+02 0.835E+03   -.797E+00 -.459E+00 -.726E+00   0.420E+00 0.245E+00 0.156E+01
   -.207E+02 0.123E+02 -.836E+03   0.203E+02 -.121E+02 0.835E+03   0.797E+00 -.459E+00 -.726E+00   -.424E+00 0.246E+00 0.156E+01
   0.119E+01 -.713E+00 -.857E+03   -.170E+01 0.101E+01 0.855E+03   0.345E+00 -.201E+00 0.518E+00   0.173E+00 -.105E+00 0.957E+00
   -.876E-05 -.239E+02 -.835E+03   0.141E-03 0.235E+02 0.834E+03   0.612E-07 0.919E+00 -.727E+00   -.221E-02 -.491E+00 0.156E+01
   -.119E+01 -.713E+00 -.857E+03   0.170E+01 0.101E+01 0.855E+03   -.345E+00 -.201E+00 0.518E+00   -.179E+00 -.105E+00 0.957E+00
   -.121E+01 -.996E+00 -.870E+03   0.134E+01 0.108E+01 0.869E+03   -.319E-01 -.184E-01 0.484E+00   -.994E-01 -.608E-01 0.838E+00
   0.121E+01 -.996E+00 -.870E+03   -.134E+01 0.108E+01 0.869E+03   0.319E-01 -.184E-01 0.484E+00   0.947E-01 -.615E-01 0.838E+00
   0.110E-04 0.105E+01 -.857E+03   0.197E-03 -.164E+01 0.856E+03   0.265E-07 0.398E+00 0.517E+00   -.291E-02 0.198E+00 0.957E+00
   -.116E-04 -.488E+00 -.258E+04   0.293E-04 0.487E+00 0.257E+04   0.222E-10 0.334E-03 0.508E+00   0.220E-04 0.718E-03 0.731E+00
   0.137E+02 0.233E+02 -.257E+04   -.133E+02 -.228E+02 0.256E+04   -.747E+00 -.115E+01 0.199E+00   0.394E+00 0.611E+00 0.653E+00
   -.137E+02 0.233E+02 -.257E+04   0.133E+02 -.228E+02 0.256E+04   0.747E+00 -.115E+01 0.199E+00   -.394E+00 0.613E+00 0.653E+00
   0.280E+02 0.249E+01 -.256E+04   -.274E+02 -.246E+01 0.256E+04   -.137E+01 -.681E-01 0.227E+00   0.726E+00 0.393E-01 0.652E+00
   -.280E+02 0.249E+01 -.256E+04   0.274E+02 -.246E+01 0.256E+04   0.137E+01 -.681E-01 0.227E+00   -.726E+00 0.401E-01 0.651E+00
   0.139E+02 -.261E+02 -.256E+04   -.136E+02 0.255E+02 0.256E+04   -.629E+00 0.122E+01 0.199E+00   0.332E+00 -.650E+00 0.651E+00
   -.139E+02 -.261E+02 -.256E+04   0.136E+02 0.255E+02 0.256E+04   0.629E+00 0.122E+01 0.199E+00   -.331E+00 -.651E+00 0.651E+00
   0.345E-04 -.163E+01 -.258E+04   0.142E-03 0.163E+01 0.258E+04   0.223E-11 0.334E-04 0.584E+00   -.436E-02 -.706E-02 0.656E+00
   -.293E-04 0.177E+01 -.177E+04   0.845E-04 -.178E+01 0.176E+04   -.208E-10 -.313E-03 0.311E+01   0.437E-02 0.555E-02 0.754E+00
   0.240E+03 0.498E+00 -.973E+03   -.286E+03 -.483E+00 0.973E+03   0.456E+02 -.384E-02 -.405E-01   0.208E-01 -.100E-01 -.201E+00
   -.240E+03 0.498E+00 -.973E+03   0.286E+03 -.483E+00 0.973E+03   -.456E+02 -.384E-02 -.405E-01   -.208E-01 -.999E-02 -.201E+00
   -.587E-03 0.406E-01 -.137E+02   -.568E-13 -.375E-12 0.114E-10   -.486E-09 -.731E-02 -.161E+01   -.126E-01 -.317E-01 0.153E+02

 POSITION                                       TOTAL-FORCE (eV/Angst)
      0.00000      0.00000      5.28038        -0.000000     -0.000287     -0.102728
      2.93784      0.00000      5.28038        -0.004384      0.003723     -0.063453
      5.87568      0.00000      5.28038         0.004384      0.003723     -0.063453
      1.46892      2.54424      5.28038         0.001190     -0.005790     -0.063700
      4.40676      2.54424      5.28038         0.000000      0.000124     -0.096056
      7.34459      2.54424      5.28038        -0.001190     -0.005790     -0.063700
      2.93784      5.08848      5.28038         0.005595      0.001944     -0.063680
      5.87568      5.08848      5.28038        -0.005595      0.001944     -0.063680
      8.81351      5.08848      5.28038        -0.000000     -0.000036     -0.084219
      1.46892      0.84808      7.67911         0.042092      0.024451      0.118795
      4.40676      0.84808      7.67911        -0.000000     -0.046346      0.015447
      7.34459      0.84808      7.67911        -0.042092      0.024451      0.118795
      2.93784      3.39232      7.67911        -0.040355      0.023443      0.015254
      5.87568      3.39232      7.67911         0.040355      0.023443      0.015254
      8.81351      3.39232      7.67911        -0.000000     -0.041308      0.087848
      4.40676      5.93656      7.67911        -0.000000     -0.048862      0.118871
      7.34459      5.93656      7.67911        -0.035744      0.020393      0.088170
     10.28243      5.93656      7.67911         0.035744      0.020393      0.088170
      8.81351      1.69603     10.07519        -0.000000     -0.004972      0.022621
      2.95264      1.70471     10.05068        -0.001097     -0.000906     -0.021923
      5.86088      1.70471     10.05068         0.001097     -0.000906     -0.021923
     10.26798      4.24875     10.06116         0.008348     -0.004903     -0.004029
      4.40676      4.22331     10.05068         0.000000      0.000915     -0.022626
      7.35905      4.24875     10.06116        -0.008348     -0.004903     -0.004029
     11.75147      6.78471     10.07519         0.004026      0.002297      0.021342
      5.87556      6.78471     10.07519        -0.004026      0.002297      0.021342
      8.81351      6.76796     10.06116         0.000000      0.009418     -0.004917
      0.00000      0.00000     12.48698        -0.000000     -0.000405     -0.097557
      2.98147      0.07441     12.46921         0.005463     -0.001346      0.019236
      5.83205      0.07441     12.46921        -0.005463     -0.001346      0.019236
      1.55518      2.54482     12.46921         0.002070      0.005173      0.019703
      7.25833      2.54482     12.46921        -0.002070      0.005173      0.019703
      2.98047      5.01349     12.46921        -0.003591     -0.003805      0.018915
      5.83305      5.01349     12.46921         0.003591     -0.003805      0.018915
      8.81351      5.08848     12.49182         0.000000      0.000322     -0.067593
      4.40676      2.54424     12.16047         0.000000      0.000673      0.059238
      3.84987      2.74666     16.47763         0.000752      0.000708      0.001205
      4.96364      2.74666     16.47763        -0.000752      0.000708      0.001205
    total drift:                               -0.013202      0.001604     -0.018004

  FREE ENERGIE OF THE ION-ELECTRON SYSTEM (eV)
  free  energy   TOTEN  =      -129.27887426 eV

  energy  without entropy=     -129.27887426  energy(sigma->0) =     -129.27887426

 stress matrix after NEB project (eV)
    -24.61701     -0.00000      0.00000
     -0.00000    -24.61137      0.00151
      0.00000      0.00151      2.37391
  FORCES: max atom, RMS     0.001587    0.000364
  FORCE total and by dimension    0.002245    0.001205
  Stress total and by dimension   34.890572   24.617007
|           W    W    AA    RRRRR   N    N  II  N    N   GGGG   !!!           |
|           W    W   A  A   R    R  NN   N  II  NN   N  G    G  !!!           |
|           W    W  A    A  R    R  N N  N  II  N N  N  G       !!!           |
|           W WW W  AAAAAA  RRRRR   N  N N  II  N  N N  G  GGG   !            |
|           WW  WW  A    A  R   R   N   NN  II  N   NN  G    G                |
|           W    W  A    A  R    R  N    N  II  N    N   GGGG   !!!           |
|     Tetrahedron method does not include variations of the Fermi             |
|     occupations, so forces and stress will be inaccurate. We suggest        |
|     using a different smearing scheme ISMEAR = 1 or 2 for metals in         |
|     relaxations.                                                            |

 total charge

# of ion       s       p       d       tot
    1        0.546   0.239   8.765   9.550
    2        0.544   0.241   8.764   9.550
    3        0.544   0.241   8.764   9.550
    4        0.544   0.241   8.764   9.550
    5        0.542   0.242   8.762   9.546
    6        0.544   0.241   8.764   9.550
    7        0.544   0.241   8.764   9.550
    8        0.544   0.241   8.764   9.550
    9        0.544   0.239   8.768   9.550
   10        0.523   0.308   8.768   9.599
   11        0.521   0.308   8.780   9.609
   12        0.523   0.308   8.768   9.599
   13        0.521   0.308   8.780   9.609
   14        0.521   0.308   8.780   9.609
   15        0.518   0.308   8.776   9.602
   16        0.523   0.308   8.768   9.599
   17        0.518   0.308   8.776   9.602
   18        0.518   0.308   8.776   9.602
   19        0.516   0.300   8.775   9.592
   20        0.544   0.331   8.751   9.626
   21        0.544   0.331   8.751   9.626
   22        0.511   0.309   8.777   9.597
   23        0.544   0.331   8.751   9.626
   24        0.511   0.309   8.777   9.597
   25        0.516   0.300   8.775   9.592
   26        0.516   0.300   8.775   9.592
   27        0.511   0.309   8.777   9.597
   28        0.538   0.224   8.765   9.527
   29        0.559   0.239   8.750   9.548
   30        0.559   0.239   8.750   9.548
   31        0.559   0.239   8.750   9.548
   32        0.559   0.239   8.750   9.548
   33        0.559   0.239   8.750   9.548
   34        0.559   0.239   8.750   9.548
   35        0.534   0.224   8.766   9.524
   36        0.317   0.239   6.212   6.769
   37        1.373   2.469   0.000   3.841
   38        1.373   2.469   0.000   3.841
tot         21.784  14.822 313.001 349.607

 BZINTS: Fermi energy:    0.242656;  403.000000 electrons
         Band energy:-0.143884E+04;  BLOECHL correction:   -0.051602