 vasp.6.2.0 18Jan21 (build Jun 12 2021 23:27:24) complex

 executed on             LinuxIFC date 2022.05.28  02:03:19

 INCAR:
   ISMEAR = -5
   SIGMA = 0.1
   ISPIN = 1
   EDIFF = 1.d-5
   EDIFFG = -0.01
   NSW = 0
   NELM = 150
   ENCUT = 500
   ISIF = 2
   IBRION = 2
   LREAL = Auto
   ALGO = Fast
   ICHARG = 11
   LORBIT = 10
   LCHARG = .F.
   LWAVE = .F.

 POTCAR:    PAW_PBE Ag 02Apr2005
 POTCAR:    PAW_PBE W 08Apr2002
 POTCAR:    PAW_PBE O 08Apr2002
 POTCAR:    PAW_PBE H 15Jun2001
|           W    W    AA    RRRRR   N    N  II  N    N   GGGG   !!!           |
|           W    W   A  A   R    R  NN   N  II  NN   N  G    G  !!!           |
|           W    W  A    A  R    R  N N  N  II  N N  N  G       !!!           |
|           W WW W  AAAAAA  RRRRR   N  N N  II  N  N N  G  GGG   !            |
|           WW  WW  A    A  R   R   N   NN  II  N   NN  G    G                |
|           W    W  A    A  R    R  N    N  II  N    N   GGGG   !!!           |
|     For optimal performance we recommend to set                             |
|       NCORE = 2 up to number-of-cores-per-socket                            |
|     This setting can greatly improve the performance of VASP for DFT.       |
|     The default, NCORE=1 might be grossly inefficient on modern             |
|     multi-core architectures or massively parallel machines. Do your        |
|     Unfortunately you need to use the default for GW and RPA                |
|     calculations (for HF NCORE is supported but not extensively tested      |
|     yet).                                                                   |

 POTCAR:    PAW_PBE Ag 02Apr2005
   VRHFIN =Ag : s1 d10

   TITEL  = PAW_PBE Ag 02Apr2005
   POMASS =  107.868; ZVAL   =   11.000    mass and valenz
   ENMAX  =  249.844; ENMIN  =  187.383 eV

 POTCAR:    PAW_PBE W 08Apr2002
   VRHFIN =W : 6s5d

[...]

 POTCAR:    PAW_PBE O 08Apr2002
   VRHFIN =O: s2p4

   TITEL  = PAW_PBE O 08Apr2002
   POMASS =   16.000; ZVAL   =    6.000    mass and valenz
   ENMAX  =  400.000; ENMIN  =  300.000 eV

 POTCAR:    PAW_PBE H 15Jun2001
   VRHFIN =H: ultrasoft test

   TITEL  = PAW_PBE H 15Jun2001
   POMASS =    1.000; ZVAL   =    1.000    mass and valenz
   ENMAX  =  250.000; ENMIN  =  200.000 eV

 Optimization of the real space projectors (new method)

 maximal supplied QI-value         = 15.12
 optimisation between [QCUT,QGAM] = [ 11.34, 22.83] = [ 36.00,145.93] Ry
 Optimized for a Real-space Cutoff    1.43 Angstroem

   l    n(q)    QCUT    max X(q) W(low)/X(q) W(high)/X(q)  e(spline)
   2      9    11.338    53.897    0.16E-03    0.20E-03    0.28E-06
   2      9    11.338    52.416    0.16E-03    0.20E-03    0.29E-06
   0     10    11.338   122.045    0.31E-04    0.76E-04    0.15E-06
   0     10    11.338    73.629    0.30E-04    0.72E-04    0.15E-06
   1      9    11.338    15.255    0.20E-03    0.19E-04    0.17E-06
   1      9    11.338     9.562    0.16E-03    0.15E-04    0.14E-06
 Optimization of the real space projectors (new method)

[...]

   l    n(q)    QCUT    max X(q) W(low)/X(q) W(high)/X(q)  e(spline)
   0      7    11.387    20.381    0.39E-03    0.13E-02    0.15E-06
   0      7    11.387    15.268    0.42E-03    0.14E-02    0.17E-06
   1      6    11.387     5.964    0.41E-03    0.11E-02    0.17E-06
   1      6    11.387     5.382    0.39E-03    0.87E-03    0.15E-06
 Optimization of the real space projectors (new method)

 maximal supplied QI-value         = 34.20
 optimisation between [QCUT,QGAM] = [ 11.29, 22.57] = [ 35.68,142.71] Ry
 Optimized for a Real-space Cutoff    1.16 Angstroem

   l    n(q)    QCUT    max X(q) W(low)/X(q) W(high)/X(q)  e(spline)
   0      8    11.287    19.460    0.40E-03    0.73E-03    0.16E-06
   0      8    11.287    12.209    0.38E-03    0.70E-03    0.15E-06
   1      7    11.287     4.655    0.22E-03    0.25E-04    0.22E-06
  PAW_PBE Ag 02Apr2005                  :
  PAW_PBE W 08Apr2002                   :
  PAW_PBE O 08Apr2002                   :
  PAW_PBE H 15Jun2001                   :

 POSCAR: Ag-W-OOH
  positions in direct lattice
  velocities in cartesian coordinates
 exchange correlation table for  LEXCH =        8
   RHO(1)=    0.500       N(1)  =     2000
   RHO(2)=  100.500       N(2)  =     4000

 VTST: version 3.2, (02/03/18)

 CHAIN: initializing optimizer

 OPT: Using VASP Conjugate-Gradient optimizer
 CHAIN: Read ICHAIN            0

 POSCAR: Ag-W-OOH
  positions in direct lattice
  velocities in cartesian coordinates

 ion  position               nearest neighbor table
   1  0.000  0.000  0.204-   2 2.93   8 2.93   7 2.93   6 2.93   4 2.93  12 2.93  16 2.93  10 2.93
                             3 2.93
   2  0.333  0.000  0.204-   1 2.93   8 2.93   9 2.93   3 2.93   4 2.93   5 2.93  10 2.93  17 2.93
                            11 2.93
   3  0.667  0.000  0.204-   9 2.93   2 2.93   5 2.93  11 2.93   7 2.93  18 2.93   1 2.93   6 2.93
                            12 2.93
   4  0.000  0.333  0.204-   5 2.93   6 2.93   2 2.93   1 2.93   7 2.93  13 2.93  15 2.93   9 2.93
                            10 2.93
   5  0.333  0.333  0.204-   4 2.93   3 2.93   7 2.93   2 2.93   8 2.93  14 2.93  13 2.93  11 2.93
                             6 2.93
   6  0.667  0.333  0.204-   4 2.93   9 2.93   1 2.93  15 2.93   8 2.93  12 2.93   3 2.93   5 2.93
                            14 2.93
   7  0.000  0.667  0.204-   8 2.93   1 2.93   5 2.93   3 2.93   4 2.93  16 2.93  18 2.93  13 2.93
                             9 2.93
   8  0.333  0.667  0.204-   7 2.93   1 2.93   2 2.93   9 2.93   5 2.93  16 2.93   6 2.93  17 2.93
                            14 2.93
   9  0.667  0.667  0.204-   3 2.93   2 2.93   8 2.93   6 2.93  17 2.93   4 2.93  15 2.93   7 2.93
                            18 2.93
  10  0.111  0.111  0.296-  20 2.89  12 2.93  16 2.93  15 2.93  17 2.93  13 2.93  11 2.93   2 2.93
                             1 2.93   4 2.93  19 2.93  26 2.93
  11  0.444  0.111  0.296-  21 2.90  20 2.90  14 2.93  17 2.93  18 2.93   3 2.93  12 2.93  13 2.93
                            10 2.93   5 2.93   2 2.93  27 2.93
  12  0.778  0.111  0.296-  21 2.89  10 2.93  16 2.93  18 2.93  15 2.93  11 2.93   1 2.93  14 2.93
                             6 2.93   3 2.93  25 2.93  19 2.93
  13  0.111  0.444  0.296-  20 2.90  23 2.90  15 2.93  14 2.93  18 2.93  10 2.93  11 2.93  16 2.93
                             4 2.93   5 2.93   7 2.93  22 2.93
  14  0.444  0.444  0.296-  23 2.90  21 2.90  13 2.93  11 2.93  16 2.93   5 2.93  12 2.93  17 2.93
                             8 2.93  15 2.93   6 2.93  24 2.93
  15  0.778  0.444  0.296-  24 2.93  22 2.93  13 2.93  10 2.93  12 2.93  17 2.93  18 2.93   4 2.93
                             6 2.93   9 2.93  14 2.93  19 2.93
  16  0.111  0.778  0.296-  23 2.89  18 2.93  12 2.93  10 2.93  14 2.93  17 2.93  13 2.93   7 2.93
                             8 2.93   1 2.93  26 2.93  25 2.93
  17  0.444  0.778  0.296-  27 2.93  24 2.93  11 2.93  10 2.93   9 2.93  18 2.93  15 2.93  16 2.93
                             2 2.93  14 2.93   8 2.93  26 2.93
  18  0.778  0.778  0.296-  22 2.93  27 2.93  16 2.93  12 2.93  13 2.93  11 2.93  17 2.93  15 2.93
                             7 2.93   3 2.93   9 2.93  25 2.93
  19  0.889  0.223  0.389-  28 2.92  20 2.93  21 2.93  24 2.93  22 2.93  15 2.93  10 2.93  12 2.93
                            26 2.94  25 2.94  32 2.98  31 2.98
  20  0.222  0.222  0.387-  36 2.76  10 2.89  13 2.90  11 2.90  19 2.93  26 2.93  27 2.94  22 2.94
                            21 2.94  23 2.94  31 2.96  29 2.96
  21  0.556  0.222  0.387-  36 2.76  12 2.89  11 2.90  14 2.90  25 2.93  19 2.93  27 2.94  24 2.94
                            20 2.94  23 2.94  30 2.96  32 2.96
  22  0.888  0.556  0.388-  35 2.92  24 2.92  27 2.92  18 2.93  15 2.93  25 2.93  19 2.93  13 2.93
                            23 2.94  20 2.94  33 2.96  31 2.96
  23  0.222  0.556  0.387-  36 2.76  16 2.89  14 2.90  13 2.90  26 2.93  25 2.93  22 2.94  24 2.94
                            21 2.94  20 2.94  34 2.96  33 2.96
  24  0.556  0.556  0.388-  35 2.92  27 2.92  22 2.92  15 2.93  17 2.93  19 2.93  26 2.93  14 2.93
                            23 2.94  21 2.94  32 2.96  34 2.96
  25  0.889  0.889  0.389-  28 2.92  23 2.93  21 2.93  22 2.93  27 2.93  18 2.93  16 2.93  12 2.93
                            26 2.94  19 2.94  33 2.98  30 2.98
  26  0.223  0.889  0.389-  28 2.92  23 2.93  20 2.93  27 2.93  24 2.93  17 2.93  16 2.93  10 2.93
                            25 2.94  19 2.94  34 2.98  29 2.98
  27  0.556  0.888  0.388-  35 2.92  24 2.92  22 2.92  17 2.93  18 2.93  26 2.93  25 2.93  11 2.93
                            20 2.94  21 2.94  29 2.96  30 2.96
  28  0.000  0.000  0.481-  38 2.22  26 2.92  25 2.92  19 2.92  29 2.96  34 2.96  33 2.96  32 2.96
                            31 2.96  30 2.96
  29  0.333  0.007  0.482-  38 2.32  31 2.86  30 2.87  36 2.88  20 2.96  27 2.96  28 2.96  35 2.96
                            26 2.98  34 3.06
  30  0.659  0.007  0.482-  32 2.86  29 2.87  36 2.88  21 2.96  27 2.96  28 2.96  35 2.96  25 2.98
                            33 3.06
  31  0.007  0.333  0.482-  38 2.32  29 2.86  33 2.87  36 2.88  20 2.96  22 2.96  28 2.96  35 2.96
                            19 2.98  32 3.06
  32  0.659  0.333  0.482-  30 2.86  34 2.87  36 2.88  21 2.96  24 2.96  28 2.96  35 2.96  19 2.98
                            31 3.06
  33  0.007  0.659  0.482-  34 2.86  31 2.87  36 2.88  23 2.96  22 2.96  28 2.96  35 2.96  25 2.98
                            30 3.06
  34  0.333  0.659  0.482-  33 2.86  32 2.87  36 2.88  23 2.96  24 2.96  28 2.96  35 2.96  26 2.98
                            29 3.06
  35  0.667  0.667  0.480-  24 2.92  27 2.92  22 2.92  30 2.96  32 2.96  29 2.96  34 2.96  31 2.96
                            33 2.96
  36  0.333  0.333  0.471-  37 1.73  21 2.76  20 2.76  23 2.76  31 2.88  30 2.88  33 2.88  29 2.88
                            34 2.88  32 2.88
  37  0.323  0.323  0.537-  36 1.73
  38  0.104  0.104  0.541-  39 0.97  28 2.22  31 2.32  29 2.32
  39  0.094  0.101  0.578-  38 0.97

  LATTYP: Found a hexagonal cell.
 ALAT       =     8.7913665772
 C/A-ratio  =     2.9469639759

  Lattice vectors:

 A1 = (  -4.3956832886,  -7.6135467898,   0.0000000000)
 A2 = (   8.7913665771,   0.0000000000,   0.0000000000)
 A3 = (   0.0000000000,   0.0000000000,  25.9078406020)

Analysis of symmetry for initial positions (statically):
 Subroutine PRICEL returns:
 Original cell was already a primitive cell.

 Routine SETGRP: Setting up the symmetry group for a
 hexagonal supercell.

 Subroutine GETGRP returns: Found  1 space group operations
 (whereof  1 operations were pure point group operations)
 out of a pool of 24 trial point group operations.

The static configuration has the point symmetry C_1 .

Analysis of symmetry for dynamics (positions and initial velocities):
 Subroutine PRICEL returns:
 Original cell was already a primitive cell.

[...]

The dynamic configuration has the point symmetry C_1 .

Analysis of constrained symmetry for selective dynamics:
 Subroutine PRICEL returns:
 Original cell was already a primitive cell.

 Routine SETGRP: Setting up the symmetry group for a
 hexagonal supercell.

[...]
     41      -5.1004      2.00000
     42      -5.0630      2.00000
     43      -5.0351      2.00000
     44      -5.0219      2.00000
     45      -5.0009      2.00000
     46      -4.9741      2.00000
     47      -4.9412      2.00000
     48      -4.9112      2.00000
     49      -4.8927      2.00000
     50      -4.8764      2.00000
     51      -4.8698      2.00000
     52      -4.8644      2.00000
     53      -4.8506      2.00000
     54      -4.8446      2.00000
     55      -4.8295      2.00000
     56      -4.8145      2.00000
     57      -4.8007      2.00000
     58      -4.7827      2.00000
     59      -4.7645      2.00000
     60      -4.7465      2.00000
[...]
    238       5.2576      0.00000
    239       5.3767      0.00000
    240       5.5175      0.00000
    241       5.5975      0.00000
    242       5.6974      0.00000
    243       5.8761      0.00000
    244       5.9412      0.00000
    245       5.9851      0.00000
    246       6.0509      0.00000
    247       6.2112      0.00000
    248       6.2591      0.00000
    249       6.3287      0.00000
    250       6.5258      0.00000
    251       6.5731      0.00000
    252       6.6391      0.00000

 soft charge-density along one line, spin component           1
         0         1         2         3         4         5         6         7         8         9
 total charge-density along one line

------------------------ aborting loop because EDIFF is reached ----------------------------------------

 total charge

# of ion       s       p       d       tot
    1        0.419   0.202   9.178   9.799
    2        0.417   0.203   9.177   9.797
    3        0.416   0.204   9.176   9.796
    4        0.417   0.203   9.177   9.797
    5        0.417   0.202   9.177   9.796
    6        0.416   0.204   9.176   9.796
    7        0.417   0.204   9.176   9.796
    8        0.416   0.204   9.176   9.796
    9        0.413   0.203   9.178   9.794
   10        0.409   0.268   9.165   9.842
   11        0.404   0.272   9.166   9.842
   12        0.410   0.267   9.165   9.842
   13        0.404   0.272   9.166   9.842
   14        0.402   0.273   9.167   9.841
   15        0.404   0.269   9.164   9.836
   16        0.410   0.267   9.165   9.842
   17        0.403   0.269   9.164   9.836
   18        0.400   0.272   9.161   9.834
   19        0.404   0.262   9.166   9.832
   20        0.438   0.316   9.129   9.883
   21        0.445   0.306   9.136   9.887
   22        0.389   0.276   9.163   9.829
   23        0.445   0.306   9.136   9.887
   24        0.392   0.273   9.165   9.831
   25        0.402   0.266   9.163   9.830
   26        0.404   0.262   9.166   9.832
   27        0.389   0.276   9.163   9.829
   28        0.376   0.241   9.179   9.796
   29        0.384   0.240   9.182   9.806
   30        0.422   0.219   9.169   9.810
   31        0.384   0.242   9.181   9.807
   32        0.422   0.215   9.173   9.810
   33        0.421   0.219   9.169   9.810
   34        0.422   0.215   9.173   9.810
   35        0.413   0.197   9.178   9.788
   36        0.688   0.600   4.169   5.458
   37        1.606   3.316   0.000   4.922
   38        1.557   3.491   0.000   5.048
   39        0.616   0.119   0.000   0.736
tot         18.814  16.117 325.037 359.968

  FORCE on cell =-STRESS in cart. coord.  units (eV):
  Direction    XX          YY          ZZ          XY          YZ          ZX
  Alpha Z   670.17451   670.17451   670.17451
  Ewald  176894.83016176834.90694************    52.11825     3.25448     1.25608
  Hartree186879.27352186832.84151************    40.49706     9.48621    15.93813
  E(xc)   -2118.57917 -2118.62537 -2123.77638     0.04185     0.02137     0.01777
  Local  ************************374817.83347   -92.23137   -13.89942   -20.47922
  n-local  -378.79167  -378.58580  -377.88720    -0.18907    -0.37765    -0.67977
  augment  3238.31945  3238.38712  3246.87073    -0.04436     0.01577     0.10195
  Kinetic  5127.33373  5127.24797  5106.69250     0.16602     1.41168     3.66120
  Fock        0.00000     0.00000     0.00000     0.00000     0.00000     0.00000
  Total      -4.07546    -4.50042    -0.68458     0.35837    -0.08754    -0.18387
  in kB      -3.76541    -4.15805    -0.63250     0.33111    -0.08088    -0.16988

 VOLUME and BASIS-vectors are now :
  energy-cutoff  :      500.00
  volume of cell :     1734.10
      direct lattice vectors                 reciprocal lattice vectors
     8.791366577  0.000000000  0.000000000     0.113747958 -0.065672414  0.000000000
     4.395683289  7.613546790  0.000000000     0.000000000  0.131344829  0.000000000
     0.000000000  0.000000000 25.907840602     0.000000000  0.000000000  0.038598354

  length of vectors
     8.791366577  8.791366577 25.907840602     0.131344829  0.131344829  0.038598354

 FORCES acting on ions
    electron-ion (+dipol)            ewald-force                    non-local-force                 convergence-correction
   0.242E+00 0.142E+00 0.281E+04   -.207E+00 -.120E+00 -.280E+04   -.294E-01 -.179E-01 -.182E+01   -.472E-02 -.388E-02 -.102E+00
   -.198E+00 0.589E+00 0.281E+04   -.502E-01 -.517E+00 -.280E+04   0.867E-01 0.911E-02 -.158E+01   0.156E+00 -.676E-01 -.114E+00
   -.510E-01 0.374E+00 0.281E+04   0.258E+00 -.430E+00 -.280E+04   -.492E-01 0.889E-01 -.166E+01   -.151E+00 -.266E-01 -.929E-01
   0.408E+00 -.465E+00 0.281E+04   -.473E+00 0.214E+00 -.280E+04   0.518E-01 0.704E-01 -.157E+01   0.208E-01 0.169E+00 -.114E+00
   -.192E+00 -.111E+00 0.281E+04   0.177E+00 0.102E+00 -.280E+04   -.107E-01 -.610E-02 -.158E+01   0.288E-01 0.175E-01 0.318E-02
   -.163E+00 -.267E+00 0.281E+04   0.296E+00 0.769E-01 -.280E+04   -.935E-01 0.101E-01 -.158E+01   -.557E-01 0.174E+00 -.142E+00
   0.296E+00 -.234E+00 0.281E+04   -.243E+00 0.439E+00 -.280E+04   0.529E-01 -.863E-01 -.166E+01   -.970E-01 -.117E+00 -.924E-01
   -.312E+00 -.101E-01 0.281E+04   0.215E+00 0.218E+00 -.280E+04   -.381E-01 -.858E-01 -.158E+01   0.122E+00 -.135E+00 -.142E+00
   0.283E-01 0.140E-01 0.281E+04   0.280E-01 0.173E-01 -.280E+04   -.135E-01 -.797E-02 -.189E+01   -.392E-01 -.214E-01 -.161E+00
   0.453E+01 0.262E+01 0.984E+03   -.414E+01 -.240E+01 -.983E+03   -.458E+00 -.263E+00 -.777E+00   0.475E-01 0.273E-01 0.179E+00
   -.175E+01 0.345E+01 0.983E+03   0.160E+01 -.382E+01 -.983E+03   0.986E-01 0.209E+00 -.473E+00   0.342E-01 0.932E-01 0.116E+00
   -.265E+01 0.244E+01 0.980E+03   0.254E+01 -.232E+01 -.980E+03   0.244E+00 -.180E+00 -.619E+00   -.102E+00 0.495E-01 0.187E+00
   0.210E+01 -.323E+01 0.983E+03   -.250E+01 0.329E+01 -.983E+03   0.233E+00 -.204E-01 -.475E+00   0.989E-01 -.155E-01 0.116E+00
   -.296E+01 -.172E+01 0.981E+03   0.336E+01 0.194E+01 -.981E+03   -.227E+00 -.129E+00 -.319E+00   -.101E+00 -.553E-01 0.784E-01
   0.834E+00 -.885E+00 0.980E+03   -.862E+00 0.661E+00 -.979E+03   -.366E-02 0.129E+00 -.670E+00   0.230E-01 0.668E-01 0.121E+00
   0.776E+00 -.351E+01 0.980E+03   -.736E+00 0.336E+01 -.980E+03   -.342E-01 0.299E+00 -.620E+00   -.750E-02 -.116E+00 0.187E+00
   -.349E+00 0.116E+01 0.980E+03   0.140E+00 -.107E+01 -.979E+03   0.113E+00 -.684E-01 -.672E+00   0.683E-01 -.142E-01 0.120E+00
   -.425E+00 -.254E+00 0.978E+03   0.596E+00 0.350E+00 -.978E+03   -.811E-01 -.447E-01 -.758E+00   -.639E-01 -.375E-01 0.882E-01
   0.123E+02 -.969E+01 -.857E+03   -.121E+02 0.950E+01 0.856E+03   -.107E+00 0.113E+00 0.445E+00   0.112E-01 0.525E-01 0.335E+00
   -.181E+02 -.104E+02 -.833E+03   0.188E+02 0.108E+02 0.834E+03   -.907E+00 -.526E+00 -.990E+00   0.498E-01 0.311E-01 0.247E+00
   0.640E+01 -.605E+01 -.855E+03   -.726E+01 0.657E+01 0.855E+03   0.111E+01 -.643E+00 -.457E+00   -.152E-01 0.350E-02 0.162E+00
   -.488E+01 -.608E+01 -.865E+03   0.454E+01 0.619E+01 0.865E+03   0.406E+00 -.188E+00 0.639E+00   -.165E-01 -.367E-01 0.156E+00
   -.208E+01 0.854E+01 -.855E+03   0.211E+01 -.955E+01 0.855E+03   -.609E-02 0.129E+01 -.459E+00   -.561E-02 -.147E-01 0.162E+00
   0.690E+01 0.394E+01 -.870E+03   -.669E+01 -.382E+01 0.869E+03   -.276E+00 -.160E+00 0.803E+00   0.353E-01 0.195E-01 0.157E+00
   0.101E+02 0.583E+01 -.874E+03   -.979E+01 -.564E+01 0.873E+03   -.188E+00 -.108E+00 0.545E+00   -.245E-01 -.141E-01 0.275E+00
   -.232E+01 0.155E+02 -.857E+03   0.221E+01 -.153E+02 0.856E+03   0.463E-01 -.151E+00 0.441E+00   0.493E-01 -.166E-01 0.335E+00
   -.765E+01 -.123E+01 -.866E+03   0.758E+01 0.873E+00 0.865E+03   0.324E-01 0.444E+00 0.652E+00   -.402E-01 0.213E-02 0.155E+00
   0.116E+03 0.676E+02 -.257E+04   -.117E+03 -.682E+02 0.256E+04   0.504E+00 0.292E+00 0.121E+01   0.484E-01 0.282E-01 0.137E+00
   -.997E+02 0.818E+02 -.258E+04   0.102E+03 -.817E+02 0.258E+04   -.184E+01 -.588E+00 0.243E+01   -.144E+00 -.237E-01 0.597E-01
   -.138E+02 0.255E+02 -.268E+04   0.130E+02 -.246E+02 0.268E+04   0.751E+00 -.111E+01 0.210E+01   0.106E+00 -.288E-01 0.896E-01
   0.206E+02 -.128E+03 -.258E+04   -.194E+02 0.129E+03 0.258E+04   -.142E+01 -.125E+01 0.235E+01   -.881E-01 -.109E+00 0.576E-01
   0.159E+02 -.220E+02 -.268E+04   -.183E+02 0.227E+02 0.268E+04   0.235E+01 -.451E+00 0.229E+01   0.137E+00 -.690E-01 0.822E-01
   0.151E+02 -.250E+02 -.268E+04   -.147E+02 0.239E+02 0.268E+04   -.575E+00 0.120E+01 0.210E+01   0.180E-01 0.905E-01 0.887E-01
   -.113E+02 0.244E+02 -.268E+04   0.107E+02 -.268E+02 0.268E+04   0.777E+00 0.224E+01 0.230E+01   0.100E-01 0.154E+00 0.830E-01
   -.397E+01 -.254E+01 -.269E+04   0.406E+01 0.259E+01 0.269E+04   -.327E-01 -.142E-01 0.187E+01   -.405E-01 -.238E-01 0.112E+00
   -.286E+02 -.162E+02 -.123E+04   0.287E+02 0.163E+02 0.124E+04   0.259E+00 0.147E+00 -.715E+00   -.290E-01 -.158E-01 0.282E-01
   -.350E+02 -.201E+02 -.180E+04   0.326E+02 0.188E+02 0.183E+04   0.237E+01 0.132E+01 -.318E+02   0.195E-02 0.258E-03 -.860E-01
   0.144E+02 0.998E+01 -.181E+04   -.900E+01 -.816E+01 0.178E+04   -.536E+01 -.178E+01 0.259E+02   -.527E-01 -.331E-01 -.447E-01
   0.107E+02 0.357E+01 -.364E+03   -.114E+02 -.377E+01 0.372E+03   0.761E+00 0.188E+00 -.808E+01   -.207E-02 -.169E-02 -.162E-01
   0.152E+01 -.177E+00 0.139E+02   -.711E-14 0.444E-13 0.887E-11   -.151E+01 0.175E+00 -.167E+02   -.138E-01 -.160E-01 0.281E+01

 POSITION                                       TOTAL-FORCE (eV/Angst)
      0.00000      0.00000      5.28219         0.000358      0.000743     -0.046303
      2.93046      0.00000      5.28219        -0.005577      0.013148      0.017048
      5.86091      0.00000      5.28219         0.006550      0.007074      0.024950
      1.46523      2.53785      5.28219         0.008177     -0.010871      0.016794
      4.39568      2.53785      5.28219         0.003671      0.002398     -0.006333
      7.32614      2.53785      5.28219        -0.016756     -0.005082      0.030585
      2.93046      5.07570      5.28219         0.008917      0.002635      0.024573
      5.86091      5.07570      5.28219        -0.012974     -0.011654      0.030635
      8.79137      5.07570      5.28219         0.003834      0.002386      0.027258
      1.46523      0.84595      7.67490        -0.018101     -0.010362     -0.055353
      4.39568      0.84595      7.67490        -0.011025     -0.068303     -0.050294
      7.32614      0.84595      7.67490         0.025673     -0.016085     -0.048567
      2.93046      3.38380      7.67490        -0.065357      0.025263     -0.050675
      5.86091      3.38380      7.67490         0.072181      0.041738     -0.029988
      8.79137      3.38380      7.67490        -0.007931     -0.027316      0.029458
      4.39568      5.92165      7.67490        -0.001596      0.030982     -0.048244
      7.32614      5.92165      7.67490        -0.028321      0.007265      0.029715
     10.25659      5.92165      7.67490         0.025952      0.014826      0.093455
      8.79137      1.69504     10.07204         0.018772     -0.025843      0.009668
      2.92602      1.68934     10.02478        -0.224520     -0.129155     -0.080998
      5.86534      1.68934     10.02478         0.242707     -0.118313     -0.208073
     10.25093      4.23302     10.06482         0.040652     -0.117470      0.103570
      4.39568      4.23487     10.02478         0.018928      0.268953     -0.206892
      7.33181      4.23302     10.06482        -0.033193     -0.019498      0.026046
     11.71910      6.76603     10.07204         0.111001      0.064800      0.115978
      5.86363      6.76603     10.07204        -0.013338      0.030242      0.012258
      8.79137      6.76105     10.06482        -0.080976      0.093943      0.101882
      0.00000      0.00000     12.45341        -0.589962     -0.338065     -0.127689
      2.96185      0.05622     12.48740         0.280212     -0.520953     -0.172013
      5.82952      0.05622     12.48740         0.137828     -0.277518     -0.268762
      1.52961      2.53693     12.48740        -0.314267      0.496160     -0.173569
      7.26176      2.53693     12.48740         0.117236      0.121633     -0.267642
      2.96344      5.02040     12.48740        -0.172964      0.260517     -0.270056
      5.82792      5.02040     12.48740         0.164817      0.043019     -0.268126
      8.79137      5.07570     12.44798         0.024201      0.015220     -0.020171
      4.39568      2.53785     12.20252         0.285182      0.163140      1.733055
      4.26006      2.46227     13.92235         0.011442     -0.002928     -0.007633
      1.37025      0.79501     14.01104        -0.009792      0.004110     -0.026129
      1.27506      0.77047     14.97950        -0.001642     -0.010777      0.006582
    total drift:                               -0.008094     -0.017599      0.015055

  FREE ENERGIE OF THE ION-ELECTRON SYSTEM (eV)
  free  energy   TOTEN  =      -116.93344401 eV

  energy  without entropy=     -116.93344401  energy(sigma->0) =     -116.93344401

 stress matrix after NEB project (eV)
     -4.07546      0.35837     -0.18387
      0.35837     -4.50042     -0.08754
     -0.18387     -0.08754     -0.68458
  FORCES: max atom, RMS     0.028205    0.005443
  FORCE total and by dimension    0.033992    0.026129
  Stress total and by dimension    6.137724    4.500424
|           W    W    AA    RRRRR   N    N  II  N    N   GGGG   !!!           |
|           W    W   A  A   R    R  NN   N  II  NN   N  G    G  !!!           |
|           W    W  A    A  R    R  N N  N  II  N N  N  G       !!!           |
|           W WW W  AAAAAA  RRRRR   N  N N  II  N  N N  G  GGG   !            |
|           WW  WW  A    A  R   R   N   NN  II  N   NN  G    G                |
|           W    W  A    A  R    R  N    N  II  N    N   GGGG   !!!           |
|     Tetrahedron method does not include variations of the Fermi             |
|     occupations, so forces and stress will be inaccurate. We suggest        |
|     using a different smearing scheme ISMEAR = 1 or 2 for metals in         |
|     relaxations.                                                            |

 total charge

# of ion       s       p       d       tot
    1        0.419   0.202   9.178   9.799
    2        0.417   0.203   9.177   9.797
    3        0.416   0.204   9.176   9.796
    4        0.417   0.203   9.177   9.797
    5        0.417   0.202   9.177   9.796
    6        0.416   0.204   9.176   9.796
    7        0.417   0.204   9.176   9.796
    8        0.416   0.204   9.176   9.796
    9        0.413   0.203   9.178   9.794
   10        0.409   0.268   9.165   9.842
   11        0.404   0.272   9.166   9.842
   12        0.410   0.267   9.165   9.842
   13        0.404   0.272   9.166   9.842
   14        0.402   0.273   9.167   9.841
   15        0.404   0.269   9.164   9.836
   16        0.410   0.267   9.165   9.842
   17        0.403   0.269   9.164   9.836
   18        0.400   0.272   9.161   9.834
   19        0.404   0.262   9.166   9.832
   20        0.438   0.316   9.129   9.883
   21        0.445   0.306   9.136   9.887
   22        0.389   0.276   9.163   9.829
   23        0.445   0.306   9.136   9.887
   24        0.392   0.273   9.165   9.831
   25        0.402   0.266   9.163   9.830
   26        0.404   0.262   9.166   9.832
   27        0.389   0.276   9.163   9.829
   28        0.376   0.241   9.179   9.796
   29        0.384   0.240   9.182   9.806
   30        0.422   0.219   9.169   9.810
   31        0.384   0.242   9.181   9.807
   32        0.422   0.215   9.173   9.810
   33        0.421   0.219   9.169   9.810
   34        0.422   0.215   9.173   9.810
   35        0.413   0.197   9.178   9.788
   36        0.688   0.600   4.169   5.458
   37        1.606   3.316   0.000   4.922
   38        1.557   3.491   0.000   5.048
   39        0.616   0.119   0.000   0.736
tot         18.814  16.117 325.037 359.968

 BZINTS: Fermi energy:    0.129801;  404.000000 electrons
         Band energy:-0.166367E+04;  BLOECHL correction:   -0.022674