 vasp.6.2.0 18Jan21 (build Jun 12 2021 23:27:24) complex

 executed on             LinuxIFC date 2022.05.27  05:21:20

 INCAR:
   ISMEAR = -5
   SIGMA = 0.1
   ISPIN = 1
   EDIFF = 1.d-5
   EDIFFG = -0.01
   NSW = 0
   NELM = 150
   ENCUT = 500
   ISIF = 2
   IBRION = 2
   LREAL = Auto
   ALGO = Fast
   ICHARG = 11
   LORBIT = 10
   LCHARG = .F.
   LWAVE = .F.

 POTCAR:    PAW_PBE Au 04Oct2007
 POTCAR:    PAW_PBE Os 17Jan2003
 POTCAR:    PAW_PBE O 08Apr2002
 POTCAR:    PAW_PBE H 15Jun2001
|           W    W    AA    RRRRR   N    N  II  N    N   GGGG   !!!           |
|           W    W   A  A   R    R  NN   N  II  NN   N  G    G  !!!           |
|           W    W  A    A  R    R  N N  N  II  N N  N  G       !!!           |
|           W WW W  AAAAAA  RRRRR   N  N N  II  N  N N  G  GGG   !            |
|           WW  WW  A    A  R   R   N   NN  II  N   NN  G    G                |
|           W    W  A    A  R    R  N    N  II  N    N   GGGG   !!!           |
|     For optimal performance we recommend to set                             |
|       NCORE = 2 up to number-of-cores-per-socket                            |
|     This setting can greatly improve the performance of VASP for DFT.       |
|     The default, NCORE=1 might be grossly inefficient on modern             |
|     multi-core architectures or massively parallel machines. Do your        |
|     Unfortunately you need to use the default for GW and RPA                |
|     calculations (for HF NCORE is supported but not extensively tested      |
|     yet).                                                                   |

 POTCAR:    PAW_PBE Au 04Oct2007
   VRHFIN =Au: s1d10

   TITEL  = PAW_PBE Au 04Oct2007
   POMASS =  196.966; ZVAL   =   11.000    mass and valenz
   ENMAX  =  229.943; ENMIN  =  172.457 eV

 POTCAR:    PAW_PBE Os 17Jan2003
   VRHFIN =Os: 6s5d

   TITEL  = PAW_PBE Os 17Jan2003
   POMASS =  190.200; ZVAL   =    8.000    mass and valenz
   ENMAX  =  228.022; ENMIN  =  171.017 eV

 POTCAR:    PAW_PBE O 08Apr2002
   VRHFIN =O: s2p4

   TITEL  = PAW_PBE O 08Apr2002
   POMASS =   16.000; ZVAL   =    6.000    mass and valenz
   ENMAX  =  400.000; ENMIN  =  300.000 eV

 POTCAR:    PAW_PBE H 15Jun2001
   VRHFIN =H: ultrasoft test

   TITEL  = PAW_PBE H 15Jun2001
   POMASS =    1.000; ZVAL   =    1.000    mass and valenz
   ENMAX  =  250.000; ENMIN  =  200.000 eV

 Optimization of the real space projectors (new method)

 maximal supplied QI-value         = 15.12
 optimisation between [QCUT,QGAM] = [ 11.34, 22.83] = [ 36.00,145.93] Ry
 Optimized for a Real-space Cutoff    1.39 Angstroem

   l    n(q)    QCUT    max X(q) W(low)/X(q) W(high)/X(q)  e(spline)
   2      9    11.338    60.898    0.39E-03    0.42E-03    0.21E-06
   2      9    11.338    58.894    0.40E-03    0.42E-03    0.22E-06
   0      9    11.338   109.617    0.13E-03    0.20E-04    0.13E-06
   0      9    11.338    75.026    0.13E-03    0.20E-04    0.13E-06
   1      9    11.338    16.344    0.33E-04    0.24E-03    0.18E-06
   1      9    11.338    10.160    0.26E-04    0.19E-03    0.15E-06
 Optimization of the real space projectors (new method)

[...]

   l    n(q)    QCUT    max X(q) W(low)/X(q) W(high)/X(q)  e(spline)
   0      7    11.387    20.381    0.39E-03    0.13E-02    0.15E-06
   0      7    11.387    15.268    0.42E-03    0.14E-02    0.17E-06
   1      6    11.387     5.964    0.41E-03    0.11E-02    0.17E-06
   1      6    11.387     5.382    0.39E-03    0.87E-03    0.15E-06
 Optimization of the real space projectors (new method)

 maximal supplied QI-value         = 34.20
 optimisation between [QCUT,QGAM] = [ 11.29, 22.57] = [ 35.68,142.71] Ry
 Optimized for a Real-space Cutoff    1.16 Angstroem

   l    n(q)    QCUT    max X(q) W(low)/X(q) W(high)/X(q)  e(spline)
   0      8    11.287    19.460    0.40E-03    0.73E-03    0.16E-06
   0      8    11.287    12.209    0.38E-03    0.70E-03    0.15E-06
   1      7    11.287     4.655    0.22E-03    0.25E-04    0.22E-06
  PAW_PBE Au 04Oct2007                  :
  PAW_PBE Os 17Jan2003                  :
  PAW_PBE O 08Apr2002                   :
  PAW_PBE H 15Jun2001                   :

 POSCAR: Au-Os-OH
  positions in direct lattice
  velocities in cartesian coordinates
 exchange correlation table for  LEXCH =        8
   RHO(1)=    0.500       N(1)  =     2000
   RHO(2)=  100.500       N(2)  =     4000

 VTST: version 3.2, (02/03/18)

 CHAIN: initializing optimizer

 OPT: Using VASP Conjugate-Gradient optimizer
 CHAIN: Read ICHAIN            0

 POSCAR: Au-Os-OH
  positions in direct lattice
  velocities in cartesian coordinates

 ion  position               nearest neighbor table
   1  0.000  0.000  0.238-  16 2.94  12 2.94   6 2.94   8 2.94   7 2.94   3 2.94  10 2.94   4 2.94
                             2 2.94
   2  0.333  0.000  0.238-   9 2.94  11 2.94  17 2.94  10 2.94   8 2.94   4 2.94   5 2.94   1 2.94
                             3 2.94
   3  0.667  0.000  0.238-   7 2.94  18 2.94  12 2.94   1 2.94  11 2.94   5 2.94   6 2.94   9 2.94
                             2 2.94
   4  0.000  0.333  0.238-  10 2.94   6 2.94   5 2.94  13 2.94   2 2.94  15 2.94   9 2.94   1 2.94
                             7 2.94
   5  0.333  0.333  0.238-  13 2.94   7 2.94  11 2.94   4 2.94   2 2.94  14 2.94   3 2.94   8 2.94
                             6 2.94
   6  0.667  0.333  0.238-  15 2.94  14 2.94   1 2.94  12 2.94   4 2.94   9 2.94   8 2.94   3 2.94
                             5 2.94
   7  0.000  0.667  0.238-  18 2.94   3 2.94  16 2.94   5 2.94   1 2.94  13 2.94   8 2.94   4 2.94
                             9 2.94
   8  0.333  0.667  0.238-   9 2.94  17 2.94   1 2.94   2 2.94  14 2.94  16 2.94   6 2.94   7 2.94
                             5 2.94
   9  0.667  0.667  0.238-   2 2.94   8 2.94  17 2.94   6 2.94  15 2.94   4 2.94   3 2.94  18 2.94
                             7 2.94
  10  0.111  0.111  0.346-  20 2.90  11 2.94  17 2.94   2 2.94   4 2.94   1 2.94  12 2.94  16 2.94
                            13 2.94  15 2.94  26 2.95  19 2.95
  11  0.444  0.111  0.346-  20 2.91  21 2.91  27 2.94  13 2.94   2 2.94  10 2.94  17 2.94   5 2.94
                             3 2.94  18 2.94  14 2.94  12 2.94
  12  0.778  0.111  0.346-  21 2.90  16 2.94  18 2.94   1 2.94  14 2.94  15 2.94   3 2.94   6 2.94
                            10 2.94  11 2.94  25 2.95  19 2.95
  13  0.111  0.444  0.346-  23 2.91  20 2.91  22 2.94   5 2.94  18 2.94  11 2.94   7 2.94   4 2.94
                            16 2.94  10 2.94  14 2.94  15 2.94
  14  0.444  0.444  0.346-  21 2.91  23 2.91  24 2.94  15 2.94   6 2.94  12 2.94   8 2.94  17 2.94
                             5 2.94  16 2.94  13 2.94  11 2.94
  15  0.778  0.444  0.346-  24 2.92  22 2.92  14 2.94   6 2.94  17 2.94  12 2.94   9 2.94   4 2.94
                            10 2.94  13 2.94  18 2.94  19 2.95
  16  0.111  0.778  0.346-  23 2.90  18 2.94  12 2.94   7 2.94   1 2.94   8 2.94  13 2.94  10 2.94
                            14 2.94  17 2.94  25 2.95  26 2.95
  17  0.444  0.778  0.346-  27 2.92  24 2.92   9 2.94  15 2.94   2 2.94  10 2.94  11 2.94   8 2.94
                            14 2.94  16 2.94  18 2.94  26 2.95
  18  0.778  0.778  0.346-  22 2.92  27 2.92  16 2.94   7 2.94  13 2.94  12 2.94   3 2.94  11 2.94
                             9 2.94  15 2.94  17 2.94  25 2.95
  19  0.888  0.223  0.455-  24 2.93  22 2.93  21 2.93  20 2.93  28 2.95  15 2.95  26 2.95  25 2.95
                            10 2.95  12 2.95  32 2.98  31 2.98
  20  0.222  0.222  0.452-  36 2.77  10 2.90  11 2.91  13 2.91  26 2.93  19 2.93  23 2.95  21 2.95
                            27 2.96  22 2.96  29 2.96  31 2.96
  21  0.556  0.222  0.452-  36 2.77  12 2.90  14 2.91  11 2.91  25 2.93  19 2.93  20 2.95  23 2.95
                            27 2.96  24 2.96  30 2.96  32 2.96
  22  0.886  0.557  0.453-  24 2.90  27 2.90  18 2.92  15 2.92  25 2.93  19 2.93  13 2.94  35 2.95
                            23 2.96  20 2.96  33 2.98  31 2.98
  23  0.222  0.556  0.452-  36 2.77  16 2.90  13 2.91  14 2.91  25 2.93  26 2.93  20 2.95  21 2.95
                            22 2.96  24 2.96  33 2.96  34 2.96
  24  0.557  0.557  0.453-  27 2.90  22 2.90  15 2.92  17 2.92  26 2.93  19 2.93  14 2.94  35 2.95
                            21 2.96  23 2.96  32 2.98  34 2.98
  25  0.888  0.888  0.455-  22 2.93  27 2.93  23 2.93  21 2.93  28 2.95  18 2.95  19 2.95  26 2.95
                            16 2.95  12 2.95  33 2.98  30 2.98
  26  0.223  0.888  0.455-  27 2.93  24 2.93  20 2.93  23 2.93  28 2.95  17 2.95  19 2.95  25 2.95
                            10 2.95  16 2.95  29 2.98  34 2.98
  27  0.557  0.886  0.453-  24 2.90  22 2.90  17 2.92  18 2.92  26 2.93  25 2.93  11 2.94  35 2.95
                            20 2.96  21 2.96  29 2.98  30 2.98
  28  0.000  0.000  0.563-  25 2.95  19 2.95  26 2.95  34 2.98  32 2.98  33 2.98  30 2.98  31 2.98
                            29 2.98
  29  0.333  0.009  0.563-  31 2.86  30 2.86  36 2.88  20 2.96  28 2.98  35 2.98  27 2.98  26 2.98
                            34 3.09
  30  0.658  0.009  0.563-  32 2.86  29 2.86  36 2.88  21 2.96  28 2.98  35 2.98  27 2.98  25 2.98
                            33 3.09
  31  0.009  0.333  0.563-  29 2.86  33 2.86  36 2.88  20 2.96  28 2.98  35 2.98  22 2.98  19 2.98
                            32 3.09
  32  0.658  0.333  0.563-  30 2.86  34 2.86  36 2.88  21 2.96  28 2.98  35 2.98  24 2.98  19 2.98
                            31 3.09
  33  0.009  0.658  0.563-  34 2.86  31 2.86  36 2.88  23 2.96  28 2.98  35 2.98  22 2.98  25 2.98
                            30 3.09
  34  0.333  0.658  0.563-  33 2.86  32 2.86  36 2.88  23 2.96  28 2.98  35 2.98  24 2.98  26 2.98
                            29 3.09
  35  0.667  0.667  0.563-  24 2.95  27 2.95  22 2.95  29 2.98  34 2.98  32 2.98  31 2.98  30 2.98
                            33 2.98
  36  0.333  0.333  0.550-  37 1.91  20 2.77  23 2.77  21 2.77  33 2.88  31 2.88  29 2.88  30 2.88
                            34 2.88  32 2.88
  37  0.333  0.333  0.636-  38 0.96  36 1.91
  38  0.333  0.333  0.680-  37 0.96

  LATTYP: Found a hexagonal cell.
 ALAT       =     8.8135128021
 C/A-ratio  =     2.5184286595

  Lattice vectors:

 A1 = (  -4.4067569092,  -7.6327256898,   0.0000000000)
 A2 = (   8.8135128021,   0.0000000000,   0.0000000000)
 A3 = (   0.0000000000,   0.0000000000,  22.1962032318)

Analysis of symmetry for initial positions (statically):
 Subroutine PRICEL returns:
 Original cell was already a primitive cell.

 Routine SETGRP: Setting up the symmetry group for a
 hexagonal supercell.

 Subroutine GETGRP returns: Found  6 space group operations
 (whereof  6 operations were pure point group operations)
 out of a pool of 24 trial point group operations.

The static configuration has the point symmetry C_3v.

Analysis of symmetry for dynamics (positions and initial velocities):
 Subroutine PRICEL returns:
 Original cell was already a primitive cell.

[...]

The dynamic configuration has the point symmetry C_3v.

Analysis of constrained symmetry for selective dynamics:
 Subroutine PRICEL returns:
 Original cell was already a primitive cell.

[...]
     33      -4.5794      2.00000
     34      -4.5387      2.00000
     35      -4.5295      2.00000
     36      -4.5213      2.00000
     37      -4.4495      2.00000
     38      -4.4337      2.00000
     39      -4.3333      2.00000
     40      -4.3144      2.00000
     41      -4.2629      2.00000
     42      -4.2341      2.00000
     43      -4.1862      2.00000
     44      -4.1699      2.00000
     45      -4.1433      2.00000
     46      -4.0826      2.00000
     47      -4.0745      2.00000
     48      -3.9804      2.00000
     49      -3.9540      2.00000
     50      -3.9258      2.00000
     51      -3.9195      2.00000
     52      -3.9117      2.00000
     53      -3.8950      2.00000
     54      -3.8844      2.00000
     55      -3.8591      2.00000
     56      -3.8396      2.00000
     57      -3.7822      2.00000
     58      -3.7600      2.00000
     59      -3.7539      2.00000
     60      -3.7413      2.00000
[...]
    238       6.5210      0.00000
    239       6.6191      0.00000
    240       6.6324      0.00000
    241       6.7362      0.00000
    242       6.7783      0.00000
    243       6.9731      0.00000
    244       7.0219      0.00000
    245       7.0506      0.00000
    246       7.1418      0.00000
    247       7.3928      0.00000
    248       7.4020      0.00000
    249       7.4343      0.00000
    250       7.5738      0.00000
    251       7.6582      0.00000
    252       7.6882      0.00000

 soft charge-density along one line, spin component           1
         0         1         2         3         4         5         6         7         8         9
 total charge-density along one line

------------------------ aborting loop because EDIFF is reached ----------------------------------------

 total charge

# of ion       s       p       d       tot
    1        0.547   0.238   8.768   9.552
    2        0.545   0.241   8.764   9.549
    3        0.545   0.241   8.764   9.549
    4        0.545   0.241   8.764   9.549
    5        0.543   0.241   8.761   9.546
    6        0.545   0.241   8.764   9.549
    7        0.545   0.241   8.764   9.549
    8        0.545   0.241   8.764   9.549
    9        0.541   0.240   8.766   9.546
   10        0.527   0.307   8.766   9.601
   11        0.520   0.309   8.778   9.607
   12        0.527   0.307   8.766   9.601
   13        0.520   0.309   8.778   9.607
   14        0.520   0.309   8.778   9.607
   15        0.514   0.307   8.778   9.599
   16        0.527   0.307   8.766   9.601
   17        0.514   0.307   8.778   9.599
   18        0.514   0.307   8.778   9.599
   19        0.514   0.298   8.777   9.590
   20        0.557   0.342   8.735   9.633
   21        0.557   0.342   8.735   9.633
   22        0.507   0.306   8.779   9.592
   23        0.557   0.342   8.735   9.633
   24        0.507   0.306   8.779   9.592
   25        0.514   0.298   8.777   9.590
   26        0.514   0.298   8.777   9.590
   27        0.507   0.306   8.779   9.592
   28        0.541   0.228   8.762   9.531
   29        0.549   0.245   8.756   9.549
   30        0.549   0.245   8.756   9.549
   31        0.549   0.245   8.756   9.549
   32        0.549   0.245   8.756   9.549
   33        0.549   0.245   8.756   9.549
   34        0.549   0.245   8.756   9.549
   35        0.531   0.228   8.765   9.525
   36        0.534   0.514   5.872   6.920
   37        1.540   3.551   0.000   5.091
   38        0.597   0.129   0.000   0.726
tot         21.350  13.895 312.650 347.896

  FORCE on cell =-STRESS in cart. coord.  units (eV):
  Direction    XX          YY          ZZ          XY          YZ          ZX
  Alpha Z  1035.93965  1035.93965  1035.93965
  Ewald  118654.78278118654.78321************    -0.00032    -0.00008    -0.00013
  Hartree127513.99336127513.99336************     0.00001    -0.00002    -0.00003
  E(xc)   -1797.33191 -1797.33193 -1803.11131     0.00002    -0.00000    -0.00000
  Local  ************************258536.60171     0.00205     0.00001    -0.00001
  n-local  -134.65237   -80.74027   -77.05669    25.60448    -1.08052     1.38169
  augment  2390.62546  2390.62697  2403.52777    -0.00131     0.00002     0.00004
  Kinetic  5608.30559  5623.84069  5625.83964     7.93777    -0.40290     0.70540
  Fock        0.00000     0.00000     0.00000     0.00000     0.00000     0.00000
  Total     -20.82582   -20.82582     2.17296    -0.00000     0.00000     0.00000
  in kB     -22.34628   -22.34628     2.33161    -0.00000     0.00000     0.00000

 VOLUME and BASIS-vectors are now :
  energy-cutoff  :      500.00
  volume of cell :     1493.16
      direct lattice vectors                 reciprocal lattice vectors
     8.813512802  0.000000000  0.000000000     0.113462137 -0.065507406  0.000000000
     4.406756909  7.632725690  0.000000000     0.000000000  0.131014796  0.000000000
     0.000000000  0.000000000 22.196203232     0.000000000  0.000000000  0.045052750

  length of vectors
     8.813512802  8.813512802 22.196203232     0.131014796  0.131014796  0.045052750

 FORCES acting on ions
    electron-ion (+dipol)            ewald-force                    non-local-force                 convergence-correction
   -.195E-04 -.162E-04 0.249E+04   0.520E-04 0.434E-04 -.249E+04   -.613E-17 0.125E-17 -.103E+01   -.203E-03 -.130E-03 -.395E+00
   0.568E+00 0.274E+00 0.249E+04   -.779E+00 -.397E+00 -.249E+04   0.679E-01 0.108E+00 -.237E+00   0.127E+00 0.237E-01 -.492E+00
   -.568E+00 0.274E+00 0.249E+04   0.779E+00 -.397E+00 -.249E+04   -.679E-01 0.108E+00 -.237E+00   -.127E+00 0.257E-01 -.491E+00
   0.521E+00 0.355E+00 0.249E+04   -.733E+00 -.476E+00 -.249E+04   0.128E+00 0.479E-02 -.237E+00   0.842E-01 0.983E-01 -.492E+00
   0.926E-05 -.229E-04 0.249E+04   0.951E-04 0.175E-05 -.249E+04   0.135E-17 0.279E-18 -.154E+00   0.430E-02 0.262E-02 -.465E+00
   -.521E+00 0.355E+00 0.249E+04   0.733E+00 -.476E+00 -.249E+04   -.128E+00 0.479E-02 -.237E+00   -.858E-01 0.992E-01 -.491E+00
   -.469E-01 -.629E+00 0.249E+04   0.460E-01 0.873E+00 -.249E+04   0.596E-01 -.113E+00 -.237E+00   -.412E-01 -.123E+00 -.491E+00
   0.468E-01 -.629E+00 0.249E+04   -.461E-01 0.873E+00 -.249E+04   -.596E-01 -.113E+00 -.237E+00   0.431E-01 -.124E+00 -.491E+00
   0.193E-04 -.416E-04 0.249E+04   0.166E-03 -.201E-04 -.249E+04   0.293E-18 -.246E-17 -.548E+00   -.464E-02 -.240E-02 -.428E+00
   0.814E+01 0.470E+01 0.847E+03   -.755E+01 -.436E+01 -.846E+03   -.512E+00 -.295E+00 -.802E+00   -.315E-01 -.183E-01 -.987E-01
   0.144E-04 0.488E+01 0.855E+03   0.148E-03 -.496E+01 -.854E+03   0.417E-08 0.626E-01 -.200E+00   0.380E-02 -.586E-01 -.118E+00
   -.814E+01 0.470E+01 0.847E+03   0.755E+01 -.436E+01 -.846E+03   0.512E+00 -.295E+00 -.802E+00   0.302E-01 -.168E-01 -.990E-01
   0.423E+01 -.244E+01 0.855E+03   -.429E+01 0.248E+01 -.854E+03   0.543E-01 -.313E-01 -.200E+00   -.486E-01 0.329E-01 -.118E+00
   -.423E+01 -.244E+01 0.855E+03   0.429E+01 0.248E+01 -.854E+03   -.543E-01 -.313E-01 -.200E+00   0.564E-01 0.324E-01 -.118E+00
   0.309E-04 0.470E+01 0.850E+03   0.236E-03 -.487E+01 -.849E+03   0.289E-10 0.435E-03 -.486E+00   -.241E-02 0.112E+00 -.685E-01
   -.215E-04 -.940E+01 0.847E+03   0.163E-03 0.872E+01 -.846E+03   0.393E-07 0.591E+00 -.802E+00   0.297E-03 0.345E-01 -.990E-01
   0.407E+01 -.235E+01 0.850E+03   -.422E+01 0.244E+01 -.849E+03   0.376E-03 -.217E-03 -.486E+00   0.957E-01 -.575E-01 -.685E-01
   -.407E+01 -.235E+01 0.850E+03   0.422E+01 0.244E+01 -.849E+03   -.376E-03 -.217E-03 -.486E+00   -.957E-01 -.555E-01 -.688E-01
   -.421E-04 0.444E+01 -.831E+03   0.536E-04 -.474E+01 0.830E+03   0.402E-08 0.604E-01 0.542E+00   -.530E-03 0.177E+00 0.543E+00
   0.134E+02 0.772E+01 -.779E+03   -.121E+02 -.699E+01 0.779E+03   -.110E+01 -.636E+00 -.111E+01   -.601E-01 -.348E-01 0.508E+00
   -.134E+02 0.772E+01 -.779E+03   0.121E+02 -.699E+01 0.779E+03   0.110E+01 -.636E+00 -.111E+01   0.610E-01 -.329E-01 0.508E+00
   -.184E+01 0.106E+01 -.812E+03   0.149E+01 -.860E+00 0.810E+03   0.504E+00 -.291E+00 0.672E+00   -.963E-01 0.512E-01 0.505E+00
   -.116E-04 -.154E+02 -.779E+03   0.142E-03 0.140E+02 0.779E+03   0.846E-07 0.127E+01 -.111E+01   0.175E-02 0.693E-01 0.508E+00
   0.184E+01 0.106E+01 -.812E+03   -.149E+01 -.860E+00 0.810E+03   -.504E+00 -.291E+00 0.672E+00   0.894E-01 0.517E-01 0.505E+00
   -.384E+01 -.222E+01 -.831E+03   0.410E+01 0.237E+01 0.830E+03   -.523E-01 -.302E-01 0.542E+00   -.151E+00 -.875E-01 0.542E+00
   0.384E+01 -.222E+01 -.831E+03   -.410E+01 0.237E+01 0.830E+03   0.523E-01 -.302E-01 0.542E+00   0.153E+00 -.889E-01 0.543E+00
   0.106E-04 -.213E+01 -.812E+03   0.198E-03 0.172E+01 0.810E+03   0.388E-07 0.582E+00 0.672E+00   -.439E-02 -.109E+00 0.505E+00
   -.132E-04 -.129E-04 -.244E+04   0.295E-04 0.342E-04 0.244E+04   0.329E-17 -.226E-17 0.369E+00   0.113E-03 0.474E-04 0.560E+00
   0.295E+02 0.516E+02 -.242E+04   -.291E+02 -.513E+02 0.242E+04   -.522E+00 -.599E+00 0.258E+00   -.889E-02 -.663E-01 0.469E+00
   -.295E+02 0.516E+02 -.242E+04   0.291E+02 -.513E+02 0.242E+04   0.522E+00 -.599E+00 0.258E+00   0.901E-02 -.643E-01 0.469E+00
   0.594E+02 -.255E+00 -.242E+04   -.590E+02 0.430E+00 0.242E+04   -.780E+00 -.153E+00 0.258E+00   -.618E-01 0.254E-01 0.469E+00
   -.594E+02 -.255E+00 -.242E+04   0.590E+02 0.430E+00 0.242E+04   0.780E+00 -.153E+00 0.258E+00   0.604E-01 0.265E-01 0.469E+00
   0.299E+02 -.513E+02 -.242E+04   -.299E+02 0.509E+02 0.242E+04   -.257E+00 0.752E+00 0.258E+00   -.511E-01 0.399E-01 0.469E+00
   -.299E+02 -.513E+02 -.242E+04   0.299E+02 0.509E+02 0.242E+04   0.257E+00 0.752E+00 0.258E+00   0.532E-01 0.391E-01 0.469E+00
   0.322E-04 -.280E-04 -.245E+04   0.142E-03 -.498E-04 0.244E+04   0.919E-19 -.299E-17 0.609E+00   -.477E-02 -.246E-02 0.393E+00
   -.123E-06 -.889E-05 -.152E+04   0.835E-04 0.756E-05 0.152E+04   0.192E-17 0.419E-18 0.136E+01   0.183E-02 0.111E-02 0.469E+00
   0.198E-03 -.960E-04 -.154E+04   0.210E-04 0.136E-05 0.153E+04   -.153E-18 -.132E-17 0.170E+02   0.371E-02 0.227E-02 0.623E-01
   0.771E-05 -.134E-04 -.312E+03   0.112E-05 0.101E-06 0.321E+03   0.379E-19 -.274E-19 -.848E+01   0.205E-03 0.125E-03 -.485E-02
   -.538E-03 -.864E-03 -.838E+01   -.189E-13 0.183E-12 0.409E-11   -.220E-15 -.226E-15 0.505E+01   0.298E-02 0.242E-02 0.387E+01

 POSITION                                       TOTAL-FORCE (eV/Angst)
      0.00000      0.00000      5.28038        -0.000000     -0.000000     -0.149526
      2.93784      0.00000      5.28038        -0.015498      0.009986     -0.069056
      5.87568      0.00000      5.28038         0.015498      0.009986     -0.069056
      1.46892      2.54424      5.28038         0.000899     -0.018415     -0.069056
      4.40676      2.54424      5.28038        -0.000000     -0.000000     -0.105852
      7.34459      2.54424      5.28038        -0.000899     -0.018415     -0.069056
      2.93784      5.08848      5.28038         0.016397      0.008429     -0.069056
      5.87568      5.08848      5.28038        -0.016397      0.008429     -0.069056
      8.81351      5.08848      5.28038        -0.000000     -0.000000     -0.090609
      1.46892      0.84808      7.67911         0.048373      0.027928      0.186678
      4.40676      0.84808      7.67911        -0.000000     -0.072331      0.027403
      7.34459      0.84808      7.67911        -0.048373      0.027928      0.186678
      2.93784      3.39232      7.67911        -0.062641      0.036166      0.027403
      5.87568      3.39232      7.67911         0.062641      0.036166      0.027403
      8.81351      3.39232      7.67911        -0.000000     -0.060050      0.110495
      4.40676      5.93656      7.67911        -0.000000     -0.055856      0.186678
      7.34459      5.93656      7.67911        -0.052005      0.030025      0.110495
     10.28243      5.93656      7.67911         0.052005      0.030025      0.110495
      8.81351      1.70311     10.09495        -0.000000     -0.066563     -0.059862
      2.93286      1.69329     10.03570         0.099819      0.057630      0.007791
      5.88065      1.69329     10.03570        -0.099819      0.057630      0.007791
     10.26497      4.25049     10.06286         0.058089     -0.033538     -0.017171
      4.40676      4.24615     10.03570        -0.000000     -0.115261      0.007791
      7.36206      4.25049     10.06286        -0.058089     -0.033538     -0.017171
     11.74534      6.78117     10.09495         0.057645      0.033281     -0.059862
      5.88169      6.78117     10.09495        -0.057645      0.033281     -0.059862
      8.81351      6.76448     10.06286         0.000000      0.067076     -0.017171
      0.00000      0.00000     12.49897        -0.000000     -0.000000     -0.018826
      2.97514      0.06495     12.50272        -0.169602     -0.389280     -0.161858
      5.83837      0.06495     12.50272         0.169602     -0.389280     -0.161858
      1.54382      2.54408     12.50272        -0.421927      0.047761     -0.161858
      7.26969      2.54408     12.50272         0.421927      0.047761     -0.161858
      2.97543      5.02370     12.50272        -0.252326      0.341519     -0.161858
      5.83808      5.02370     12.50272         0.252326      0.341519     -0.161858
      8.81351      5.08848     12.49601        -0.000000     -0.000000      0.060778
      4.40676      2.54424     12.21487        -0.000000     -0.000000      0.933745
      4.40676      2.54424     14.12153        -0.000000     -0.000000      0.014914
      4.40676      2.54424     15.08537        -0.000000     -0.000000     -0.025141
    total drift:                                0.002442      0.001561      0.537950

  FREE ENERGIE OF THE ION-ELECTRON SYSTEM (eV)
  free  energy   TOTEN  =      -125.20674374 eV

  energy  without entropy=     -125.20674374  energy(sigma->0) =     -125.20674374

 stress matrix after NEB project (eV)
    -20.82582     -0.00000      0.00000
     -0.00000    -20.82582      0.00000
      0.00000      0.00000      2.17296
  FORCES: max atom, RMS     0.025141    0.004742
  FORCE total and by dimension    0.029232    0.025141
  Stress total and by dimension   29.532203   20.825817
|           W    W    AA    RRRRR   N    N  II  N    N   GGGG   !!!           |
|           W    W   A  A   R    R  NN   N  II  NN   N  G    G  !!!           |
|           W    W  A    A  R    R  N N  N  II  N N  N  G       !!!           |
|           W WW W  AAAAAA  RRRRR   N  N N  II  N  N N  G  GGG   !            |
|           WW  WW  A    A  R   R   N   NN  II  N   NN  G    G                |
|           W    W  A    A  R    R  N    N  II  N    N   GGGG   !!!           |
|     Tetrahedron method does not include variations of the Fermi             |
|     occupations, so forces and stress will be inaccurate. We suggest        |
|     using a different smearing scheme ISMEAR = 1 or 2 for metals in         |
|     relaxations.                                                            |

 total charge

# of ion       s       p       d       tot
    1        0.547   0.238   8.768   9.552
    2        0.545   0.241   8.764   9.549
    3        0.545   0.241   8.764   9.549
    4        0.545   0.241   8.764   9.549
    5        0.543   0.241   8.761   9.546
    6        0.545   0.241   8.764   9.549
    7        0.545   0.241   8.764   9.549
    8        0.545   0.241   8.764   9.549
    9        0.541   0.240   8.766   9.546
   10        0.527   0.307   8.766   9.601
   11        0.520   0.309   8.778   9.607
   12        0.527   0.307   8.766   9.601
   13        0.520   0.309   8.778   9.607
   14        0.520   0.309   8.778   9.607
   15        0.514   0.307   8.778   9.599
   16        0.527   0.307   8.766   9.601
   17        0.514   0.307   8.778   9.599
   18        0.514   0.307   8.778   9.599
   19        0.514   0.298   8.777   9.590
   20        0.557   0.342   8.735   9.633
   21        0.557   0.342   8.735   9.633
   22        0.507   0.306   8.779   9.592
   23        0.557   0.342   8.735   9.633
   24        0.507   0.306   8.779   9.592
   25        0.514   0.298   8.777   9.590
   26        0.514   0.298   8.777   9.590
   27        0.507   0.306   8.779   9.592
   28        0.541   0.228   8.762   9.531
   29        0.549   0.245   8.756   9.549
   30        0.549   0.245   8.756   9.549
   31        0.549   0.245   8.756   9.549
   32        0.549   0.245   8.756   9.549
   33        0.549   0.245   8.756   9.549
   34        0.549   0.245   8.756   9.549
   35        0.531   0.228   8.765   9.525
   36        0.534   0.514   5.872   6.920
   37        1.540   3.551   0.000   5.091
   38        0.597   0.129   0.000   0.726
tot         21.350  13.895 312.650 347.896

 BZINTS: Fermi energy:    0.899293;  400.000000 electrons
         Band energy:-0.116388E+04;  BLOECHL correction:   -0.061750