 vasp.6.2.0 18Jan21 (build Jun 12 2021 23:27:24) complex

 executed on             LinuxIFC date 2022.05.26  20:08:08

 INCAR:
   ISMEAR = -5
   SIGMA = 0.1
   ISPIN = 1
   EDIFF = 1.d-5
   EDIFFG = -0.01
   NSW = 0
   NELM = 150
   ENCUT = 500
   ISIF = 2
   IBRION = 2
   LREAL = Auto
   ALGO = Fast
   ICHARG = 11
   LORBIT = 10
   LCHARG = .F.
   LWAVE = .F.

 POTCAR:    PAW_PBE Cu 22Jun2005
 POTCAR:    PAW_PBE W 08Apr2002
 POTCAR:    PAW_PBE O 08Apr2002
|           W    W    AA    RRRRR   N    N  II  N    N   GGGG   !!!           |
|           W    W   A  A   R    R  NN   N  II  NN   N  G    G  !!!           |
|           W    W  A    A  R    R  N N  N  II  N N  N  G       !!!           |
|           W WW W  AAAAAA  RRRRR   N  N N  II  N  N N  G  GGG   !            |
|           WW  WW  A    A  R   R   N   NN  II  N   NN  G    G                |
|           W    W  A    A  R    R  N    N  II  N    N   GGGG   !!!           |
|     For optimal performance we recommend to set                             |
|       NCORE = 2 up to number-of-cores-per-socket                            |
|     This setting can greatly improve the performance of VASP for DFT.       |
|     The default, NCORE=1 might be grossly inefficient on modern             |
|     multi-core architectures or massively parallel machines. Do your        |
|     Unfortunately you need to use the default for GW and RPA                |
|     calculations (for HF NCORE is supported but not extensively tested      |
|     yet).                                                                   |

 POTCAR:    PAW_PBE Cu 22Jun2005
   VRHFIN =Cu: d10 p1

   TITEL  = PAW_PBE Cu 22Jun2005
   POMASS =   63.546; ZVAL   =   11.000    mass and valenz
   ENMAX  =  295.446; ENMIN  =  221.585 eV

 POTCAR:    PAW_PBE W 08Apr2002
   VRHFIN =W : 6s5d

   TITEL  = PAW_PBE W 08Apr2002
   POMASS =  183.850; ZVAL   =    6.000    mass and valenz
   ENMAX  =  223.057; ENMIN  =  167.293 eV

 POTCAR:    PAW_PBE O 08Apr2002
   VRHFIN =O: s2p4

   TITEL  = PAW_PBE O 08Apr2002
   POMASS =   16.000; ZVAL   =    6.000    mass and valenz
   ENMAX  =  400.000; ENMIN  =  300.000 eV

 Optimization of the real space projectors (new method)

 maximal supplied QI-value         = 16.25
 optimisation between [QCUT,QGAM] = [ 11.38, 22.75] = [ 36.24,144.96] Ry
 Optimized for a Real-space Cutoff    1.52 Angstroem

   l    n(q)    QCUT    max X(q) W(low)/X(q) W(high)/X(q)  e(spline)
   2      9    11.376     4.610    0.21E-03    0.10E-03    0.26E-06
   2      9    11.376     8.522    0.33E-03    0.16E-03    0.37E-06
   0     10    11.376    51.609    0.62E-04    0.20E-04    0.13E-06
   0     10    11.376    27.747    0.54E-04    0.20E-04    0.13E-06
   1     10    11.376    20.408    0.13E-04    0.99E-04    0.19E-06
   1     10    11.376    13.425    0.12E-04    0.87E-04    0.17E-06
 Optimization of the real space projectors (new method)

[...]

   l    n(q)    QCUT    max X(q) W(low)/X(q) W(high)/X(q)  e(spline)
   2     10    11.429   130.855    0.22E-03    0.64E-03    0.11E-05
   2     10    11.429   114.007    0.22E-03    0.64E-03    0.11E-05
   0     11    11.429    84.709    0.39E-04    0.67E-04    0.23E-06
   0     11    11.429    49.163    0.35E-04    0.62E-04    0.21E-06
   1     10    11.429    15.765    0.84E-04    0.15E-03    0.24E-06
   1     10    11.429    10.638    0.58E-04    0.12E-03    0.19E-06
 Optimization of the real space projectors (new method)

 maximal supplied QI-value         = 24.76
 optimisation between [QCUT,QGAM] = [ 11.39, 22.77] = [ 36.31,145.25] Ry
 Optimized for a Real-space Cutoff    1.00 Angstroem

   l    n(q)    QCUT    max X(q) W(low)/X(q) W(high)/X(q)  e(spline)
   0      7    11.387    20.381    0.39E-03    0.13E-02    0.15E-06
   0      7    11.387    15.268    0.42E-03    0.14E-02    0.17E-06
   1      6    11.387     5.964    0.41E-03    0.11E-02    0.17E-06
   1      6    11.387     5.382    0.39E-03    0.87E-03    0.15E-06
  PAW_PBE Cu 22Jun2005                  :
  PAW_PBE W 08Apr2002                   :
  PAW_PBE O 08Apr2002                   :

 POSCAR: Cu-W-O
  positions in direct lattice
  velocities in cartesian coordinates
 exchange correlation table for  LEXCH =        8
   RHO(1)=    0.500       N(1)  =     2000
   RHO(2)=  100.500       N(2)  =     4000

 VTST: version 3.2, (02/03/18)

 CHAIN: initializing optimizer

 OPT: Using VASP Conjugate-Gradient optimizer
 CHAIN: Read ICHAIN            0

 POSCAR: Cu-W-O
  positions in direct lattice
  velocities in cartesian coordinates

 ion  position               nearest neighbor table
   1  0.000  0.000  0.252-   7 2.57   3 2.57   4 2.57   2 2.57   6 2.57   8 2.57  12 2.57  10 2.57
                            16 2.57
   2  0.333  0.000  0.252-   8 2.57   9 2.57   5 2.57   1 2.57   3 2.57  11 2.57   4 2.57  10 2.57
                            17 2.57
   3  0.667  0.000  0.252-   1 2.57   7 2.57   6 2.57   9 2.57   2 2.57  12 2.57   5 2.57  18 2.57
                            11 2.57
   4  0.000  0.333  0.252-   5 2.57   6 2.57   1 2.57   7 2.57   2 2.57  13 2.57   9 2.57  10 2.57
                            15 2.57
   5  0.333  0.333  0.252-   4 2.57   2 2.57   7 2.57  13 2.57   8 2.57   6 2.57   3 2.57  11 2.57
                            14 2.57
   6  0.667  0.333  0.252-   4 2.57   9 2.57  15 2.57   3 2.57   1 2.57   8 2.57  14 2.57   5 2.57
                            12 2.57
   7  0.000  0.667  0.252-   1 2.57   3 2.57  16 2.57  18 2.57   4 2.57   5 2.57   8 2.57   9 2.57
                            13 2.57
   8  0.333  0.667  0.252-   9 2.57   2 2.57  17 2.57   6 2.57   1 2.57   7 2.57   5 2.57  14 2.57
                            16 2.57
   9  0.667  0.667  0.252-   8 2.57   6 2.57   2 2.57  17 2.57   3 2.57   7 2.57   4 2.57  15 2.57
                            18 2.57
  10  0.111  0.111  0.351-  20 2.54  11 2.57  12 2.57  13 2.57   1 2.57   2 2.57   4 2.57  15 2.57
                            16 2.57  17 2.57  26 2.57  19 2.57
  11  0.444  0.111  0.351-  20 2.55  21 2.55  10 2.57  13 2.57   2 2.57  17 2.57  14 2.57  12 2.57
                             5 2.57   3 2.57  18 2.57  27 2.58
  12  0.778  0.111  0.351-  21 2.54  15 2.57  10 2.57  14 2.57  18 2.57   3 2.57   1 2.57  16 2.57
                            11 2.57   6 2.57  19 2.57  25 2.57
  13  0.111  0.444  0.351-  23 2.55  20 2.55  16 2.57  18 2.57  10 2.57  11 2.57  14 2.57   5 2.57
                             4 2.57   7 2.57  15 2.57  22 2.58
  14  0.444  0.444  0.351-  21 2.55  23 2.55  15 2.57  17 2.57  12 2.57  16 2.57  13 2.57  11 2.57
                             6 2.57   8 2.57   5 2.57  24 2.58
  15  0.778  0.444  0.351-  19 2.57  14 2.57  17 2.57  12 2.57   6 2.57  18 2.57  10 2.57   9 2.57
                            13 2.57   4 2.57  24 2.57  22 2.57
  16  0.111  0.778  0.351-  23 2.54  18 2.57  13 2.57   7 2.57  14 2.57  17 2.57  12 2.57  10 2.57
                             8 2.57   1 2.57  25 2.57  26 2.57
  17  0.444  0.778  0.351-  26 2.57  14 2.57  15 2.57   8 2.57   9 2.57  11 2.57  16 2.57  18 2.57
                            10 2.57   2 2.57  27 2.57  24 2.57
  18  0.778  0.778  0.351-  25 2.57  16 2.57  13 2.57   7 2.57  15 2.57  12 2.57  17 2.57   9 2.57
                             3 2.57  11 2.57  22 2.57  27 2.57
  19  0.889  0.223  0.449-  21 2.55  20 2.55  22 2.56  24 2.56  15 2.57  12 2.57  10 2.57  25 2.57
                            26 2.57  28 2.57  32 2.60  31 2.60
  20  0.221  0.221  0.448-  10 2.54  36 2.54  11 2.55  13 2.55  26 2.55  19 2.55  27 2.57  22 2.57
                            23 2.59  21 2.59  29 2.62  31 2.62
  21  0.558  0.221  0.448-  12 2.54  36 2.54  14 2.55  11 2.55  19 2.55  25 2.55  24 2.57  27 2.57
                            20 2.59  23 2.59  32 2.62  30 2.62
  22  0.888  0.556  0.450-  24 2.56  27 2.56  19 2.56  25 2.56  35 2.56  23 2.57  20 2.57  18 2.57
                            15 2.57  13 2.58  31 2.59  33 2.59
  23  0.221  0.558  0.448-  16 2.54  36 2.54  13 2.55  14 2.55  25 2.55  26 2.55  22 2.57  24 2.57
                            20 2.59  21 2.59  33 2.62  34 2.62
  24  0.556  0.556  0.450-  22 2.56  27 2.56  19 2.56  26 2.56  35 2.56  21 2.57  23 2.57  15 2.57
                            17 2.57  14 2.58  32 2.59  34 2.59
  25  0.889  0.889  0.449-  21 2.55  23 2.55  22 2.56  27 2.56  18 2.57  16 2.57  12 2.57  19 2.57
                            26 2.57  28 2.57  33 2.60  30 2.60
  26  0.223  0.889  0.449-  20 2.55  23 2.55  27 2.56  24 2.56  17 2.57  10 2.57  16 2.57  25 2.57
                            19 2.57  28 2.57  29 2.60  34 2.60
  27  0.556  0.888  0.450-  24 2.56  22 2.56  26 2.56  25 2.56  35 2.56  20 2.57  21 2.57  17 2.57
                            18 2.57  11 2.58  29 2.59  30 2.59
  28  0.000  0.000  0.548-  33 2.56  30 2.56  31 2.56  29 2.56  32 2.56  34 2.56  25 2.57  19 2.57
                            26 2.57
  29  0.333  1.000  0.550-  34 2.56  28 2.56  35 2.57  31 2.57  36 2.57  30 2.57  27 2.59  26 2.60
                            20 2.62
  30  0.667  1.000  0.550-  33 2.56  28 2.56  35 2.57  32 2.57  36 2.57  29 2.57  27 2.59  25 2.60
                            21 2.62
  31  1.000  0.333  0.550-  32 2.56  28 2.56  35 2.57  29 2.57  36 2.57  33 2.57  22 2.59  19 2.60
                            20 2.62
  32  0.667  0.333  0.550-  31 2.56  28 2.56  35 2.57  30 2.57  36 2.57  34 2.57  24 2.59  19 2.60
                            21 2.62
  33  1.000  0.667  0.550-  30 2.56  28 2.56  35 2.57  34 2.57  36 2.57  31 2.57  22 2.59  25 2.60
                            23 2.62
  34  0.333  0.667  0.550-  29 2.56  28 2.56  35 2.57  33 2.57  36 2.57  32 2.57  24 2.59  26 2.60
                            23 2.62
  35  0.667  0.667  0.548-  24 2.56  27 2.56  22 2.56  34 2.57  32 2.57  29 2.57  30 2.57  33 2.57
                            31 2.57
  36  0.333  0.333  0.545-  37 1.75  23 2.54  20 2.54  21 2.54  31 2.57  29 2.57  33 2.57  34 2.57
                            32 2.57  30 2.57
  37  0.333  0.333  0.627-  36 1.75

  LATTYP: Found a hexagonal cell.
 ALAT       =     7.6967864036
 C/A-ratio  =     2.7653617908

  Lattice vectors:

 A1 = (  -3.8483927580,  -6.6656128093,   0.0000000000)
 A2 = (   7.6967864037,   0.0000000000,   0.0000000000)
 A3 = (   0.0000000000,   0.0000000000,  21.2843990326)

Analysis of symmetry for initial positions (statically):
 Subroutine PRICEL returns:
 Original cell was already a primitive cell.

 Routine SETGRP: Setting up the symmetry group for a
 hexagonal supercell.

 Subroutine GETGRP returns: Found  6 space group operations
 (whereof  6 operations were pure point group operations)
 out of a pool of 24 trial point group operations.

The static configuration has the point symmetry C_3v.

Analysis of symmetry for dynamics (positions and initial velocities):
 Subroutine PRICEL returns:
 Original cell was already a primitive cell.

[...]

The dynamic configuration has the point symmetry C_3v.

Analysis of constrained symmetry for selective dynamics:
 Subroutine PRICEL returns:
 Original cell was already a primitive cell.

 Routine SETGRP: Setting up the symmetry group for a
 hexagonal supercell.

 Subroutine GETGRP returns: Found  6 space group operations
[...]
     24      -4.3832      2.00000
     25      -4.3316      2.00000
     26      -4.3075      2.00000
     27      -4.2661      2.00000
     28      -4.2487      2.00000
     29      -4.1962      2.00000
     30      -4.1436      2.00000
     31      -4.1253      2.00000
     32      -4.0923      2.00000
     33      -4.0697      2.00000
     34      -4.0617      2.00000
     35      -4.0560      2.00000
     36      -4.0227      2.00000
     37      -3.9924      2.00000
     38      -3.9680      2.00000
     39      -3.8932      2.00000
     40      -3.8837      2.00000
     41      -3.7711      2.00000
     42      -3.7521      2.00000
     43      -3.6848      2.00000
     44      -3.6724      2.00000
     45      -3.6515      2.00000
     46      -3.6422      2.00000
     47      -3.6207      2.00000
     48      -3.5923      2.00000
     49      -3.5901      2.00000
     50      -3.4589      2.00000
     51      -3.4488      2.00000
     52      -3.4428      2.00000
     53      -3.4024      2.00000
     54      -3.3915      2.00000
     55      -3.3692      2.00000
     56      -3.3460      2.00000
     57      -3.3305      2.00000
     58      -3.3260      2.00000
     59      -3.3182      2.00000
     60      -3.3022      2.00000
[...]
    238       6.3071      0.00000
    239       6.4425      0.00000
    240       6.5107      0.00000
    241       7.0082      0.00000
    242       7.0296      0.00000
    243       7.0871      0.00000
    244       7.1415      0.00000
    245       7.2926      0.00000
    246       7.3917      0.00000
    247       7.4027      0.00000
    248       7.4724      0.00000
    249       7.5790      0.00000
    250       7.7898      0.00000
    251       7.8586      0.00000
    252       8.0103      0.00000

 soft charge-density along one line, spin component           1
         0         1         2         3         4         5         6         7         8         9
 total charge-density along one line

------------------------ aborting loop because EDIFF is reached ----------------------------------------

 total charge

# of ion       s       p       d       tot
    1        0.451   0.282   9.190   9.923
    2        0.449   0.285   9.186   9.920
    3        0.449   0.285   9.186   9.920
    4        0.449   0.285   9.186   9.920
    5        0.449   0.285   9.184   9.918
    6        0.449   0.285   9.186   9.920
    7        0.449   0.285   9.186   9.920
    8        0.449   0.285   9.186   9.920
    9        0.447   0.284   9.187   9.919
   10        0.443   0.369   9.179   9.991
   11        0.440   0.369   9.183   9.992
   12        0.443   0.369   9.179   9.991
   13        0.440   0.369   9.183   9.992
   14        0.440   0.369   9.183   9.992
   15        0.437   0.368   9.178   9.983
   16        0.443   0.369   9.179   9.991
   17        0.437   0.368   9.178   9.983
   18        0.437   0.368   9.178   9.983
   19        0.441   0.362   9.183   9.986
   20        0.472   0.404   9.162  10.037
   21        0.472   0.404   9.162  10.037
   22        0.430   0.370   9.177   9.978
   23        0.472   0.404   9.162  10.037
   24        0.430   0.370   9.177   9.978
   25        0.441   0.362   9.183   9.986
   26        0.441   0.362   9.183   9.986
   27        0.430   0.370   9.177   9.978
   28        0.453   0.288   9.180   9.922
   29        0.463   0.314   9.174   9.951
   30        0.463   0.314   9.174   9.951
   31        0.463   0.314   9.174   9.951
   32        0.463   0.314   9.174   9.951
   33        0.463   0.314   9.174   9.951
   34        0.463   0.314   9.174   9.951
   35        0.445   0.294   9.179   9.918
   36        0.767   0.733   4.297   5.797
   37        1.606   3.301   0.000   4.907
tot         18.078  15.789 325.567 359.434

  FORCE on cell =-STRESS in cart. coord.  units (eV):
  Direction    XX          YY          ZZ          XY          YZ          ZX
  Alpha Z   898.57634   898.57634   898.57634
  Ewald  170525.09957170525.09918************     0.00038     0.00013     0.00017
  Hartree183488.86640183488.86640************     0.00003     0.00007     0.00006
  E(xc)   -2303.15095 -2303.15048 -2308.37063    -0.00041    -0.00003    -0.00006
  Local  ************************367068.78694     0.01866    -0.00061    -0.00095
  n-local  -792.12567  -778.49259  -793.47445     7.55902    -0.19925     0.28946
  augment  3318.75550  3318.77573  3339.24400    -0.01753     0.00031     0.00055
  Kinetic  3338.32387  3340.85363  3347.37668     2.87822     1.79252    -1.35223
  Fock        0.00000     0.00000     0.00000     0.00000     0.00000     0.00000
  Total      -2.29901    -2.29901     1.25127     0.00000    -0.00000    -0.00000
  in kB      -3.37319    -3.37319     1.83590     0.00000    -0.00000    -0.00000

 VOLUME and BASIS-vectors are now :
  energy-cutoff  :      500.00
  volume of cell :     1091.97
      direct lattice vectors                 reciprocal lattice vectors
     7.696786404  0.000000000  0.000000000     0.129924354 -0.075011849  0.000000000
     3.848392758  6.665612809  0.000000000     0.000000000  0.150023716  0.000000000
     0.000000000  0.000000000 21.284399033     0.000000000  0.000000000  0.046982769

  length of vectors
     7.696786404  7.696786404 21.284399033     0.150023716  0.150023716  0.046982769

 FORCES acting on ions
    electron-ion (+dipol)            ewald-force                    non-local-force                 convergence-correction
   -.416E-04 0.147E-06 0.347E+04   0.581E-04 -.430E-05 -.346E+04   -.618E-17 -.529E-17 -.230E+01   -.419E-03 -.254E-03 -.942E-01
   -.493E+00 -.768E-01 0.347E+04   0.432E+00 0.742E-01 -.346E+04   -.561E-02 0.113E+00 -.193E+01   0.688E-01 -.981E-01 -.304E-01
   0.493E+00 -.768E-01 0.347E+04   -.432E+00 0.742E-01 -.346E+04   0.561E-02 0.113E+00 -.193E+01   -.679E-01 -.956E-01 -.293E-01
   -.313E+00 -.388E+00 0.347E+04   0.280E+00 0.337E+00 -.346E+04   0.948E-01 -.612E-01 -.193E+01   -.504E-01 0.109E+00 -.304E-01
   -.652E-04 -.543E-05 0.346E+04   0.116E-03 -.101E-04 -.346E+04   0.293E-17 -.520E-18 -.183E+01   0.122E-01 0.748E-02 -.476E-01
   0.313E+00 -.388E+00 0.347E+04   -.280E+00 0.337E+00 -.346E+04   -.948E-01 -.612E-01 -.193E+01   0.488E-01 0.110E+00 -.291E-01
   0.180E+00 0.465E+00 0.347E+04   -.152E+00 -.411E+00 -.346E+04   0.100E+00 -.515E-01 -.193E+01   -.117E+00 -.111E-01 -.291E-01
   -.180E+00 0.465E+00 0.347E+04   0.151E+00 -.411E+00 -.346E+04   -.100E+00 -.515E-01 -.193E+01   0.120E+00 -.126E-01 -.290E-01
   -.144E-03 -.328E-04 0.347E+04   0.263E-03 0.205E-04 -.346E+04   -.230E-18 0.465E-18 -.215E+01   -.132E-01 -.675E-02 -.104E+00
   -.110E+00 -.637E-01 0.116E+04   0.516E+00 0.298E+00 -.116E+04   -.424E+00 -.245E+00 -.808E+00   -.323E-01 -.189E-01 0.783E-01
   -.913E-04 -.127E+01 0.115E+04   0.190E-03 0.116E+01 -.115E+04   -.161E-07 0.241E+00 -.383E+00   0.124E-01 -.188E+00 0.844E-02
   0.110E+00 -.636E-01 0.116E+04   -.516E+00 0.298E+00 -.116E+04   0.424E+00 -.245E+00 -.808E+00   0.300E-01 -.175E-01 0.795E-01
   -.110E+01 0.637E+00 0.115E+04   0.101E+01 -.582E+00 -.115E+04   0.209E+00 -.121E+00 -.383E+00   -.156E+00 0.106E+00 0.843E-02
   0.110E+01 0.637E+00 0.115E+04   -.101E+01 -.582E+00 -.115E+04   -.209E+00 -.121E+00 -.383E+00   0.180E+00 0.104E+00 0.760E-02
   -.142E-03 -.184E+01 0.115E+04   0.298E-03 0.163E+01 -.115E+04   -.617E-08 0.926E-01 -.819E+00   -.379E-02 0.115E+00 0.723E-01
   -.918E-04 0.127E+00 0.116E+04   0.186E-03 -.595E+00 -.116E+04   -.326E-07 0.490E+00 -.808E+00   -.766E-03 0.334E-01 0.797E-01
   -.160E+01 0.922E+00 0.115E+04   0.141E+01 -.815E+00 -.115E+04   0.802E-01 -.463E-01 -.819E+00   0.980E-01 -.609E-01 0.730E-01
   0.160E+01 0.922E+00 0.115E+04   -.141E+01 -.815E+00 -.115E+04   -.802E-01 -.463E-01 -.819E+00   -.966E-01 -.574E-01 0.756E-01
   -.597E-04 -.548E+01 -.116E+04   0.707E-04 0.548E+01 0.116E+04   0.249E-08 -.375E-01 0.113E+01   -.128E-01 -.152E-02 -.238E-01
   -.438E+02 -.253E+02 -.119E+04   0.444E+02 0.257E+02 0.119E+04   -.634E+00 -.366E+00 0.190E+00   -.245E+00 -.142E+00 -.135E+00
   0.438E+02 -.253E+02 -.119E+04   -.444E+02 0.257E+02 0.119E+04   0.634E+00 -.366E+00 0.190E+00   0.249E+00 -.144E+00 -.136E+00
   -.241E+02 0.139E+02 -.117E+04   0.238E+02 -.138E+02 0.117E+04   0.544E+00 -.314E+00 0.103E+01   -.179E+00 0.119E+00 -.419E-01
   -.886E-04 0.506E+02 -.119E+04   0.148E-03 -.513E+02 0.119E+04   -.487E-07 0.732E+00 0.190E+00   -.169E-03 0.287E+00 -.136E+00
   0.241E+02 0.139E+02 -.117E+04   -.238E+02 -.138E+02 0.117E+04   -.544E+00 -.314E+00 0.103E+01   0.179E+00 0.116E+00 -.419E-01
   0.475E+01 0.274E+01 -.116E+04   -.474E+01 -.274E+01 0.116E+04   0.324E-01 0.187E-01 0.113E+01   -.167E-01 -.979E-02 -.242E-01
   -.475E+01 0.274E+01 -.116E+04   0.474E+01 -.274E+01 0.116E+04   -.324E-01 0.187E-01 0.113E+01   -.655E-02 -.116E-01 -.238E-01
   -.113E-03 -.278E+02 -.117E+04   0.239E-03 0.275E+02 0.117E+04   -.418E-07 0.628E+00 0.103E+01   0.130E-01 -.215E+00 -.417E-01
   -.487E-04 0.982E-05 -.340E+04   0.398E-04 -.321E-04 0.340E+04   0.941E-17 -.829E-17 0.160E+01   -.657E-03 -.562E-03 0.941E-01
   -.228E+02 -.402E+02 -.340E+04   0.231E+02 0.401E+02 0.339E+04   -.305E+00 0.387E-01 0.228E+01   -.986E-01 -.310E+00 0.771E-01
   0.228E+02 -.402E+02 -.340E+04   -.231E+02 0.401E+02 0.339E+04   0.305E+00 0.387E-01 0.228E+01   0.100E+00 -.309E+00 0.752E-01
   -.462E+02 0.318E+00 -.340E+04   0.463E+02 -.105E+00 0.339E+04   -.119E+00 -.283E+00 0.228E+01   -.317E+00 0.694E-01 0.773E-01
   0.462E+02 0.318E+00 -.340E+04   -.463E+02 -.105E+00 0.339E+04   0.119E+00 -.283E+00 0.228E+01   0.317E+00 0.698E-01 0.765E-01
   -.234E+02 0.399E+02 -.340E+04   0.232E+02 -.400E+02 0.339E+04   0.186E+00 0.244E+00 0.228E+01   -.217E+00 0.241E+00 0.752E-01
   0.234E+02 0.399E+02 -.340E+04   -.232E+02 -.400E+02 0.339E+04   -.186E+00 0.244E+00 0.228E+01   0.220E+00 0.240E+00 0.757E-01
   -.151E-03 -.282E-04 -.341E+04   0.251E-03 0.261E-05 0.341E+04   0.515E-17 -.409E-17 0.211E+01   -.125E-01 -.602E-02 0.165E+00
   -.246E-04 -.740E-05 -.167E+04   0.757E-04 0.144E-04 0.167E+04   -.833E-19 0.122E-17 0.219E+00   0.887E-03 0.556E-03 0.545E-01
   0.172E-03 -.842E-04 -.213E+04   0.193E-04 0.855E-05 0.216E+04   0.153E-17 0.153E-17 -.311E+02   0.305E-02 0.186E-02 0.655E-01
   -.113E-03 -.916E-04 0.299E+02   0.925E-13 0.262E-12 -.455E-12   0.340E-15 0.264E-16 -.303E+02   0.654E-02 0.123E-01 0.291E+00

 POSITION                                       TOTAL-FORCE (eV/Angst)
      0.00000      0.00000      5.37156         0.000000      0.000000     -0.004565
      2.56560      0.00000      5.37156         0.002476      0.013224      0.063033
      5.13119      0.00000      5.37156        -0.002476      0.013224      0.063033
      1.28280      2.22187      5.37156         0.012690     -0.004467      0.063033
      3.84839      2.22187      5.37156         0.000000      0.000000      0.064360
      6.41399      2.22187      5.37156        -0.012690     -0.004467      0.063033
      2.56560      4.44374      5.37156         0.010214     -0.008757      0.063033
      5.13119      4.44374      5.37156        -0.010214     -0.008757      0.063033
      7.69679      4.44374      5.37156         0.000000      0.000000      0.029412
      1.28280      0.74062      7.46636        -0.049061     -0.028325     -0.086430
      3.84839      0.74062      7.46636         0.000000     -0.062362     -0.048994
      6.41399      0.74062      7.46636         0.049061     -0.028325     -0.086430
      2.56560      2.96249      7.46636        -0.054007      0.031181     -0.048994
      5.13119      2.96249      7.46636         0.054007      0.031181     -0.048994
      7.69679      2.96249      7.46636         0.000000     -0.007201      0.045207
      3.84839      5.18437      7.46636        -0.000000      0.056651     -0.086430
      6.41399      5.18437      7.46636        -0.006237      0.003601      0.045207
      8.97958      5.18437      7.46636         0.006237      0.003601      0.045207
      7.69679      1.48345      9.56239         0.000000     -0.036371      0.016498
      2.55319      1.47409      9.53589        -0.269393     -0.155534     -0.390036
      5.14360      1.47409      9.53589         0.269393     -0.155534     -0.390036
      8.97438      3.70612      9.57309         0.085177     -0.049177      0.029698
      3.84839      3.71744      9.53589        -0.000000      0.311069     -0.390036
      6.41919      3.70612      9.57309        -0.085177     -0.049177      0.029698
     10.26047      5.92389      9.56239         0.031499      0.018186      0.016498
      5.13310      5.92389      9.56239        -0.031499      0.018186      0.016498
      7.69679      5.91898      9.57309        -0.000000      0.098354      0.029698
      0.00000      0.00000     11.66245         0.000000      0.000000     -0.063746
      6.40959      6.66262     11.69844        -0.179818     -0.310377     -0.287004
      8.98399      6.66262     11.69844         0.179819     -0.310377     -0.287004
      8.97479      2.21956     11.69844        -0.358704     -0.000539     -0.287004
      6.41878      2.21956     11.69844         0.358704     -0.000539     -0.287004
     10.26199      4.44905     11.69844        -0.178885      0.310916     -0.287004
      5.13158      4.44905     11.69844         0.178885      0.310916     -0.287004
      7.69679      4.44374     11.67118         0.000000      0.000000     -0.017098
      3.84839      2.22187     11.59207         0.000000      0.000000      2.634380
      3.84839      2.22187     13.34144         0.000000      0.000000      0.003251
    total drift:                                0.006423      0.012165     -0.107706

  FREE ENERGIE OF THE ION-ELECTRON SYSTEM (eV)
  free  energy   TOTEN  =      -140.91710177 eV

  energy  without entropy=     -140.91710177  energy(sigma->0) =     -140.91710177

 stress matrix after NEB project (eV)
     -2.29901      0.00000     -0.00000
      0.00000     -2.29901     -0.00000
     -0.00000     -0.00000      1.25127
  FORCES: max atom, RMS     0.003251    0.000535
  FORCE total and by dimension    0.003251    0.003251
  Stress total and by dimension    3.483757    2.299011
|           W    W    AA    RRRRR   N    N  II  N    N   GGGG   !!!           |
|           W    W   A  A   R    R  NN   N  II  NN   N  G    G  !!!           |
|           W    W  A    A  R    R  N N  N  II  N N  N  G       !!!           |
|           W WW W  AAAAAA  RRRRR   N  N N  II  N  N N  G  GGG   !            |
|           WW  WW  A    A  R   R   N   NN  II  N   NN  G    G                |
|           W    W  A    A  R    R  N    N  II  N    N   GGGG   !!!           |
|     Tetrahedron method does not include variations of the Fermi             |
|     occupations, so forces and stress will be inaccurate. We suggest        |
|     using a different smearing scheme ISMEAR = 1 or 2 for metals in         |
|     relaxations.                                                            |

 total charge

# of ion       s       p       d       tot
    1        0.451   0.282   9.190   9.923
    2        0.449   0.285   9.186   9.920
    3        0.449   0.285   9.186   9.920
    4        0.449   0.285   9.186   9.920
    5        0.449   0.285   9.184   9.918
    6        0.449   0.285   9.186   9.920
    7        0.449   0.285   9.186   9.920
    8        0.449   0.285   9.186   9.920
    9        0.447   0.284   9.187   9.919
   10        0.443   0.369   9.179   9.991
   11        0.440   0.369   9.183   9.992
   12        0.443   0.369   9.179   9.991
   13        0.440   0.369   9.183   9.992
   14        0.440   0.369   9.183   9.992
   15        0.437   0.368   9.178   9.983
   16        0.443   0.369   9.179   9.991
   17        0.437   0.368   9.178   9.983
   18        0.437   0.368   9.178   9.983
   19        0.441   0.362   9.183   9.986
   20        0.472   0.404   9.162  10.037
   21        0.472   0.404   9.162  10.037
   22        0.430   0.370   9.177   9.978
   23        0.472   0.404   9.162  10.037
   24        0.430   0.370   9.177   9.978
   25        0.441   0.362   9.183   9.986
   26        0.441   0.362   9.183   9.986
   27        0.430   0.370   9.177   9.978
   28        0.453   0.288   9.180   9.922
   29        0.463   0.314   9.174   9.951
   30        0.463   0.314   9.174   9.951
   31        0.463   0.314   9.174   9.951
   32        0.463   0.314   9.174   9.951
   33        0.463   0.314   9.174   9.951
   34        0.463   0.314   9.174   9.951
   35        0.445   0.294   9.179   9.918
   36        0.767   0.733   4.297   5.797
   37        1.606   3.301   0.000   4.907
tot         18.078  15.789 325.567 359.434

 BZINTS: Fermi energy:    0.060610;  397.000000 electrons
         Band energy:-0.115573E+04;  BLOECHL correction:   -0.025366