 vasp.6.2.0 18Jan21 (build Jun 12 2021 23:27:24) complex

 executed on             LinuxIFC date 2022.05.26  20:14:56

 INCAR:
   ISMEAR = -5
   SIGMA = 0.1
   ISPIN = 1
   EDIFF = 1.d-5
   EDIFFG = -0.01
   NSW = 0
   NELM = 150
   ENCUT = 500
   ISIF = 2
   IBRION = 2
   LREAL = Auto
   ALGO = Fast
   ICHARG = 11
   LORBIT = 10
   LCHARG = .F.
   LWAVE = .F.

 POTCAR:    PAW_PBE Au 04Oct2007
 POTCAR:    PAW_PBE Pd 04Jan2005
|           W    W    AA    RRRRR   N    N  II  N    N   GGGG   !!!           |
|           W    W   A  A   R    R  NN   N  II  NN   N  G    G  !!!           |
|           W    W  A    A  R    R  N N  N  II  N N  N  G       !!!           |
|           W WW W  AAAAAA  RRRRR   N  N N  II  N  N N  G  GGG   !            |
|           WW  WW  A    A  R   R   N   NN  II  N   NN  G    G                |
|           W    W  A    A  R    R  N    N  II  N    N   GGGG   !!!           |
|     For optimal performance we recommend to set                             |
|       NCORE = 2 up to number-of-cores-per-socket                            |
|     This setting can greatly improve the performance of VASP for DFT.       |
|     The default, NCORE=1 might be grossly inefficient on modern             |
|     multi-core architectures or massively parallel machines. Do your        |
|     Unfortunately you need to use the default for GW and RPA                |
|     calculations (for HF NCORE is supported but not extensively tested      |
|     yet).                                                                   |

 POTCAR:    PAW_PBE Au 04Oct2007
   VRHFIN =Au: s1d10

   TITEL  = PAW_PBE Au 04Oct2007
   POMASS =  196.966; ZVAL   =   11.000    mass and valenz
   ENMAX  =  229.943; ENMIN  =  172.457 eV

 POTCAR:    PAW_PBE Pd 04Jan2005
   VRHFIN =Pd : s1 d9

   TITEL  = PAW_PBE Pd 04Jan2005
   POMASS =  106.420; ZVAL   =   10.000    mass and valenz
   ENMAX  =  250.925; ENMIN  =  188.194 eV

 Optimization of the real space projectors (new method)

 maximal supplied QI-value         = 15.12
 optimisation between [QCUT,QGAM] = [ 11.34, 22.83] = [ 36.00,145.93] Ry
 Optimized for a Real-space Cutoff    1.39 Angstroem

   l    n(q)    QCUT    max X(q) W(low)/X(q) W(high)/X(q)  e(spline)
   2      9    11.338    60.898    0.39E-03    0.42E-03    0.21E-06
   2      9    11.338    58.894    0.40E-03    0.42E-03    0.22E-06
   0      9    11.338   109.617    0.13E-03    0.20E-04    0.13E-06
   0      9    11.338    75.026    0.13E-03    0.20E-04    0.13E-06
   1      9    11.338    16.344    0.33E-04    0.24E-03    0.18E-06
   1      9    11.338    10.160    0.26E-04    0.19E-03    0.15E-06
 Optimization of the real space projectors (new method)

 maximal supplied QI-value         = 14.36
 optimisation between [QCUT,QGAM] = [ 11.35, 22.84] = [ 36.05,146.02] Ry
 Optimized for a Real-space Cutoff    1.47 Angstroem

   l    n(q)    QCUT    max X(q) W(low)/X(q) W(high)/X(q)  e(spline)
   2      9    11.346    59.108    0.74E-04    0.81E-04    0.26E-06
   2      9    11.346    58.101    0.74E-04    0.83E-04    0.27E-06
   0     10    11.346   102.235    0.26E-04    0.31E-04    0.16E-06
   0     10    11.346    58.388    0.23E-04    0.29E-04    0.15E-06
   1     10    11.346    22.191    0.23E-03    0.26E-03    0.14E-06
   1     10    11.346    15.590    0.19E-03    0.22E-03    0.12E-06
  PAW_PBE Au 04Oct2007                  :
  PAW_PBE Pd 04Jan2005                  :

 POSCAR: Au-Pd
  positions in direct lattice
  velocities in cartesian coordinates
 exchange correlation table for  LEXCH =        8
   RHO(1)=    0.500       N(1)  =     2000
   RHO(2)=  100.500       N(2)  =     4000

 VTST: version 3.2, (02/03/18)

 CHAIN: initializing optimizer

 OPT: Using VASP Conjugate-Gradient optimizer
 CHAIN: Read ICHAIN            0

 POSCAR: Au-Pd
  positions in direct lattice
  velocities in cartesian coordinates

 ion  position               nearest neighbor table
   1  0.000  0.000  0.238-  16 2.94  12 2.94   6 2.94   8 2.94   7 2.94   3 2.94  10 2.94   4 2.94
                             2 2.94
   2  0.333  0.000  0.238-   9 2.94  11 2.94  17 2.94  10 2.94   8 2.94   4 2.94   5 2.94   1 2.94
                             3 2.94
   3  0.667  0.000  0.238-   7 2.94  18 2.94  12 2.94   1 2.94  11 2.94   5 2.94   6 2.94   9 2.94
                             2 2.94
   4  0.000  0.333  0.238-  10 2.94   6 2.94   5 2.94  13 2.94   2 2.94  15 2.94   9 2.94   1 2.94
                             7 2.94
   5  0.333  0.333  0.238-  13 2.94   7 2.94  11 2.94   4 2.94   2 2.94  14 2.94   3 2.94   8 2.94
                             6 2.94
   6  0.667  0.333  0.238-  15 2.94  14 2.94   1 2.94  12 2.94   4 2.94   9 2.94   8 2.94   3 2.94
                             5 2.94
   7  0.000  0.667  0.238-  18 2.94   3 2.94  16 2.94   5 2.94   1 2.94  13 2.94   8 2.94   4 2.94
                             9 2.94
   8  0.333  0.667  0.238-   9 2.94  17 2.94   1 2.94   2 2.94  14 2.94  16 2.94   6 2.94   7 2.94
                             5 2.94
   9  0.667  0.667  0.238-   2 2.94   8 2.94  17 2.94   6 2.94  15 2.94   4 2.94   3 2.94  18 2.94
                             7 2.94
  10  0.111  0.111  0.346-  26 2.92  19 2.92  20 2.93  11 2.94  17 2.94   2 2.94   4 2.94   1 2.94
                            12 2.94  16 2.94  13 2.94  15 2.94
  11  0.444  0.111  0.346-  27 2.93  20 2.93  21 2.93  13 2.94   2 2.94  10 2.94  17 2.94   5 2.94
                             3 2.94  18 2.94  14 2.94  12 2.94
  12  0.778  0.111  0.346-  25 2.92  19 2.92  21 2.93  16 2.94  18 2.94   1 2.94  14 2.94  15 2.94
                             3 2.94   6 2.94  10 2.94  11 2.94
  13  0.111  0.444  0.346-  22 2.93  23 2.93  20 2.93   5 2.94  18 2.94  11 2.94   7 2.94   4 2.94
                            16 2.94  10 2.94  14 2.94  15 2.94
  14  0.444  0.444  0.346-  24 2.93  21 2.93  23 2.93  15 2.94   6 2.94  12 2.94   8 2.94  17 2.94
                             5 2.94  16 2.94  13 2.94  11 2.94
  15  0.778  0.444  0.346-  19 2.93  24 2.93  22 2.93  14 2.94   6 2.94  17 2.94  12 2.94   9 2.94
                             4 2.94  10 2.94  13 2.94  18 2.94
  16  0.111  0.778  0.346-  25 2.92  26 2.92  23 2.93  18 2.94  12 2.94   7 2.94   1 2.94   8 2.94
                            13 2.94  10 2.94  14 2.94  17 2.94
  17  0.444  0.778  0.346-  26 2.93  27 2.93  24 2.93   9 2.94  15 2.94   2 2.94  10 2.94  11 2.94
                             8 2.94  14 2.94  16 2.94  18 2.94
  18  0.778  0.778  0.346-  25 2.93  22 2.93  27 2.93  16 2.94   7 2.94  13 2.94  12 2.94   3 2.94
                            11 2.94   9 2.94  15 2.94  17 2.94
  19  0.889  0.222  0.453-  10 2.92  12 2.92  15 2.93  26 2.93  25 2.93  21 2.94  20 2.94  24 2.94
                            22 2.94  28 2.96  32 2.97  31 2.97
  20  0.222  0.222  0.454-  36 2.83  10 2.93  11 2.93  13 2.93  26 2.94  19 2.94  27 2.94  22 2.94
                            23 2.94  21 2.94  29 2.95  31 2.95
  21  0.556  0.222  0.454-  36 2.83  12 2.93  14 2.93  11 2.93  25 2.94  19 2.94  24 2.94  27 2.94
                            20 2.94  23 2.94  30 2.95  32 2.95
  22  0.889  0.556  0.454-  18 2.93  15 2.93  13 2.93  24 2.94  27 2.94  23 2.94  20 2.94  25 2.94
                            19 2.94  33 2.96  31 2.96  35 2.96
  23  0.222  0.556  0.454-  36 2.83  16 2.93  13 2.93  14 2.93  25 2.94  26 2.94  22 2.94  24 2.94
                            20 2.94  21 2.94  33 2.95  34 2.95
  24  0.556  0.556  0.454-  15 2.93  17 2.93  14 2.93  27 2.94  22 2.94  21 2.94  23 2.94  26 2.94
                            19 2.94  32 2.96  34 2.96  35 2.96
  25  0.889  0.889  0.453-  16 2.92  12 2.92  18 2.93  19 2.93  26 2.93  23 2.94  21 2.94  22 2.94
                            27 2.94  28 2.96  33 2.97  30 2.97
  26  0.222  0.889  0.453-  10 2.92  16 2.92  17 2.93  19 2.93  25 2.93  20 2.94  23 2.94  27 2.94
                            24 2.94  28 2.96  29 2.97  34 2.97
  27  0.556  0.889  0.454-  17 2.93  18 2.93  11 2.93  24 2.94  22 2.94  20 2.94  21 2.94  26 2.94
                            25 2.94  29 2.96  30 2.96  35 2.96
  28  0.000  0.000  0.563-  34 2.94  32 2.94  33 2.94  30 2.94  31 2.94  29 2.94  25 2.96  19 2.96
                            26 2.96
  29  0.333  0.001  0.563-  30 2.93  31 2.93  36 2.93  35 2.94  28 2.94  20 2.95  34 2.95  27 2.96
                            26 2.97
  30  0.666  0.001  0.563-  29 2.93  32 2.93  36 2.93  35 2.94  28 2.94  21 2.95  33 2.95  27 2.96
                            25 2.97
  31  0.001  0.333  0.563-  33 2.93  29 2.93  36 2.93  35 2.94  28 2.94  20 2.95  32 2.95  22 2.96
                            19 2.97
  32  0.666  0.333  0.563-  34 2.93  30 2.93  36 2.93  35 2.94  28 2.94  21 2.95  31 2.95  24 2.96
                            19 2.97
  33  0.001  0.666  0.563-  31 2.93  34 2.93  36 2.93  35 2.94  28 2.94  23 2.95  30 2.95  22 2.96
                            25 2.97
  34  0.333  0.666  0.563-  32 2.93  33 2.93  36 2.93  35 2.94  28 2.94  23 2.95  29 2.95  24 2.96
                            26 2.97
  35  0.667  0.667  0.563-  29 2.94  34 2.94  32 2.94  31 2.94  30 2.94  33 2.94  24 2.96  27 2.96
                            22 2.96
  36  0.333  0.333  0.556-  20 2.83  23 2.83  21 2.83  33 2.93  31 2.93  29 2.93  30 2.93  34 2.93
                            32 2.93

  LATTYP: Found a hexagonal cell.
 ALAT       =     8.8135128021
 C/A-ratio  =     2.5184286595

  Lattice vectors:

 A1 = (  -4.4067569092,  -7.6327256898,   0.0000000000)
 A2 = (   8.8135128021,   0.0000000000,   0.0000000000)
 A3 = (   0.0000000000,   0.0000000000,  22.1962032318)

Analysis of symmetry for initial positions (statically):
 Subroutine PRICEL returns:
 Original cell was already a primitive cell.

 Routine SETGRP: Setting up the symmetry group for a
 hexagonal supercell.

 Subroutine GETGRP returns: Found  6 space group operations
 (whereof  6 operations were pure point group operations)
 out of a pool of 24 trial point group operations.

The static configuration has the point symmetry C_3v.

Analysis of symmetry for dynamics (positions and initial velocities):
 Subroutine PRICEL returns:
 Original cell was already a primitive cell.

[...]

The dynamic configuration has the point symmetry C_3v.

Analysis of constrained symmetry for selective dynamics:
 Subroutine PRICEL returns:
 Original cell was already a primitive cell.

 Routine SETGRP: Setting up the symmetry group for a
 hexagonal supercell.

 Subroutine GETGRP returns: Found  6 space group operations
 (whereof  6 operations were pure point group operations)
 out of a pool of 24 trial point group operations.

The constrained configuration has the point symmetry C_3v.

 Subroutine INISYM returns: Found  6 space group operations
 (whereof  6 operations are pure point group operations),
 and found     1 'primitive' translations

                                     Primitive cell

  volume of cell :    1493.1636

  direct lattice vectors                    reciprocal lattice vectors
     8.813512802  0.000000000  0.000000000     0.113462137 -0.065507406  0.000000000
     4.406756909  7.632725690  0.000000000     0.000000000  0.131014796  0.000000000
[...]
     15      -5.2171      2.00000
     16      -5.2165      2.00000
     17      -5.1923      2.00000
     18      -5.1882      2.00000
     19      -5.1215      2.00000
     20      -5.1172      2.00000
     21      -5.1079      2.00000
     22      -5.0466      2.00000
     23      -5.0157      2.00000
     24      -5.0112      2.00000
     25      -4.9929      2.00000
     26      -4.9686      2.00000
     27      -4.8949      2.00000
     28      -4.8060      2.00000
     29      -4.7389      2.00000
     30      -4.7362      2.00000
     31      -4.7094      2.00000
     32      -4.7061      2.00000
     33      -4.6947      2.00000
     34      -4.6373      2.00000
     35      -4.5468      2.00000
     36      -4.5306      2.00000
     37      -4.5080      2.00000
     38      -4.4757      2.00000
     39      -4.4262      2.00000
     40      -4.3582      2.00000
     41      -4.3286      2.00000
     42      -4.2825      2.00000
     43      -4.2593      2.00000
     44      -4.2514      2.00000
     45      -4.2340      2.00000
     46      -4.1453      2.00000
     47      -4.1047      2.00000
     48      -4.0850      2.00000
     49      -4.0814      2.00000
     50      -4.0667      2.00000
     51      -4.0535      2.00000
     52      -4.0440      2.00000
     53      -4.0064      2.00000
     54      -3.9648      2.00000
     55      -3.9539      2.00000
     56      -3.9097      2.00000
     57      -3.9040      2.00000
     58      -3.8983      2.00000
     59      -3.8889      2.00000
     60      -3.8767      2.00000
[...]
    238       6.7519      0.00000
    239       6.7921      0.00000
    240       6.8457      0.00000
    241       6.8851      0.00000
    242       6.9717      0.00000
    243       7.1769      0.00000
    244       7.2426      0.00000
    245       7.3168      0.00000
    246       7.5953      0.00000
    247       7.6356      0.00000
    248       7.7374      0.00000
    249       7.7447      0.00000
    250       7.9141      0.00000
    251       8.0474      0.00000
    252       8.0872      0.00000

 soft charge-density along one line, spin component           1
         0         1         2         3         4         5         6         7         8         9
 total charge-density along one line

------------------------ aborting loop because EDIFF is reached ----------------------------------------

 total charge

# of ion       s       p       d       tot
    1        0.543   0.241   8.766   9.550
    2        0.545   0.240   8.766   9.551
    3        0.545   0.240   8.766   9.551
    4        0.545   0.240   8.766   9.551
    5        0.540   0.241   8.765   9.546
    6        0.545   0.240   8.766   9.551
    7        0.545   0.240   8.766   9.551
    8        0.545   0.240   8.766   9.551
    9        0.545   0.240   8.766   9.550
   10        0.518   0.308   8.770   9.596
   11        0.520   0.305   8.776   9.600
   12        0.518   0.308   8.770   9.596
   13        0.520   0.305   8.776   9.600
   14        0.520   0.305   8.776   9.600
   15        0.517   0.306   8.775   9.598
   16        0.518   0.308   8.770   9.596
   17        0.517   0.306   8.775   9.598
   18        0.517   0.306   8.775   9.598
   19        0.517   0.302   8.775   9.595
   20        0.524   0.310   8.767   9.600
   21        0.524   0.310   8.767   9.600
   22        0.513   0.304   8.771   9.588
   23        0.524   0.310   8.767   9.600
   24        0.513   0.304   8.771   9.588
   25        0.517   0.302   8.775   9.595
   26        0.517   0.302   8.775   9.595
   27        0.513   0.304   8.771   9.588
   28        0.542   0.233   8.766   9.540
   29        0.548   0.232   8.765   9.544
   30        0.548   0.232   8.765   9.544
   31        0.548   0.232   8.765   9.544
   32        0.548   0.232   8.765   9.544
   33        0.548   0.232   8.765   9.544
   34        0.548   0.232   8.765   9.544
   35        0.541   0.234   8.766   9.541
   36        0.360   0.271   8.566   9.197
tot         18.953   9.796 315.474 344.223

  FORCE on cell =-STRESS in cart. coord.  units (eV):
  Direction    XX          YY          ZZ          XY          YZ          ZX
  Alpha Z   997.66770   997.66770   997.66770
  Ewald  119713.25661119713.25701************    -0.00034    -0.00009    -0.00016
  Hartree128381.75794128381.75794************    -0.00000    -0.00002    -0.00004
  E(xc)   -1779.97478 -1779.97476 -1787.39450    -0.00002    -0.00000    -0.00000
  Local  ************************260779.51781     0.00177     0.00004     0.00008
  n-local   -97.03785   -37.61023   -43.73333    24.53070    -1.38174     1.71403
  augment  2441.12436  2441.12593  2457.09060    -0.00136     0.00002     0.00003
  Kinetic  5474.66473  5491.44099  5537.52401     5.97793    -0.15757     0.64599
  Fock        0.00000     0.00000     0.00000     0.00000     0.00000     0.00000
  Total     -20.76559   -20.76558     0.85347    -0.00000     0.00000     0.00000
  in kB     -22.28165   -22.28165     0.91579    -0.00000     0.00000     0.00000

 VOLUME and BASIS-vectors are now :
  energy-cutoff  :      500.00
  volume of cell :     1493.16
      direct lattice vectors                 reciprocal lattice vectors
     8.813512802  0.000000000  0.000000000     0.113462137 -0.065507406  0.000000000
     4.406756909  7.632725690  0.000000000     0.000000000  0.131014796  0.000000000
     0.000000000  0.000000000 22.196203232     0.000000000  0.000000000  0.045052750

  length of vectors
     8.813512802  8.813512802 22.196203232     0.131014796  0.131014796  0.045052750

 FORCES acting on ions
    electron-ion (+dipol)            ewald-force                    non-local-force                 convergence-correction
   -.198E-04 -.163E-04 0.248E+04   0.518E-04 0.433E-04 -.248E+04   0.374E-17 -.946E-18 -.574E+00   -.254E-03 -.160E-03 -.804E-02
   -.159E+00 0.102E+00 0.248E+04   0.125E+00 -.339E-01 -.248E+04   0.783E-02 -.251E-01 -.326E+00   0.212E-01 -.432E-01 -.400E-01
   0.159E+00 0.102E+00 0.248E+04   -.125E+00 -.339E-01 -.248E+04   -.783E-02 -.251E-01 -.326E+00   -.209E-01 -.413E-01 -.393E-01
   0.897E-02 -.189E+00 0.248E+04   0.332E-01 0.125E+00 -.248E+04   -.178E-01 0.193E-01 -.326E+00   -.267E-01 0.399E-01 -.400E-01
   0.716E-05 -.239E-04 0.248E+04   0.952E-04 0.169E-05 -.248E+04   -.288E-18 0.122E-17 -.398E+00   0.420E-02 0.256E-02 -.820E-01
   -.902E-02 -.189E+00 0.248E+04   -.333E-01 0.125E+00 -.248E+04   0.178E-01 0.193E-01 -.326E+00   0.253E-01 0.407E-01 -.392E-01
   0.168E+00 0.865E-01 0.248E+04   -.921E-01 -.916E-01 -.248E+04   -.257E-01 0.578E-02 -.326E+00   -.462E-01 0.258E-02 -.392E-01
   -.168E+00 0.865E-01 0.248E+04   0.919E-01 -.916E-01 -.248E+04   0.257E-01 0.578E-02 -.326E+00   0.479E-01 0.152E-02 -.393E-01
   0.196E-04 -.416E-04 0.248E+04   0.166E-03 -.200E-04 -.248E+04   -.214E-17 -.363E-17 -.384E+00   -.449E-02 -.232E-02 -.170E-01
   -.713E+00 -.412E+00 0.825E+03   0.931E+00 0.538E+00 -.825E+03   -.773E-01 -.446E-01 -.492E+00   -.855E-01 -.495E-01 0.125E+00
   0.140E-04 0.315E+00 0.824E+03   0.149E-03 -.316E+00 -.824E+03   0.264E-09 0.396E-02 -.381E+00   0.410E-02 -.134E-01 0.140E+00
   0.713E+00 -.412E+00 0.825E+03   -.931E+00 0.538E+00 -.825E+03   0.773E-01 -.446E-01 -.492E+00   0.842E-01 -.490E-01 0.124E+00
   0.273E+00 -.158E+00 0.824E+03   -.274E+00 0.158E+00 -.824E+03   0.343E-02 -.198E-02 -.381E+00   -.928E-02 0.105E-01 0.140E+00
   -.273E+00 -.158E+00 0.824E+03   0.273E+00 0.158E+00 -.824E+03   -.343E-02 -.198E-02 -.381E+00   0.162E-01 0.921E-02 0.138E+00
   0.317E-04 -.998E+00 0.824E+03   0.236E-03 0.950E+00 -.823E+03   0.157E-08 0.235E-01 -.353E+00   -.182E-02 0.313E-01 0.184E+00
   -.211E-04 0.823E+00 0.825E+03   0.162E-03 -.107E+01 -.825E+03   0.594E-08 0.893E-01 -.492E+00   -.636E-03 0.974E-01 0.124E+00
   -.864E+00 0.499E+00 0.824E+03   0.822E+00 -.475E+00 -.823E+03   0.204E-01 -.118E-01 -.353E+00   0.264E-01 -.168E-01 0.184E+00
   0.864E+00 0.499E+00 0.824E+03   -.823E+00 -.475E+00 -.823E+03   -.204E-01 -.118E-01 -.353E+00   -.256E-01 -.150E-01 0.186E+00
   -.400E-04 -.242E+01 -.847E+03   0.536E-04 0.227E+01 0.846E+03   0.322E-08 0.484E-01 0.560E+00   0.718E-03 0.915E-01 -.190E-01
   0.472E+01 0.273E+01 -.845E+03   -.440E+01 -.254E+01 0.845E+03   -.307E+00 -.177E+00 -.199E+00   -.131E-01 -.770E-02 0.144E-01
   -.472E+01 0.273E+01 -.845E+03   0.440E+01 -.254E+01 0.845E+03   0.307E+00 -.177E+00 -.199E+00   0.692E-02 -.957E-02 0.141E-01
   0.112E+01 -.647E+00 -.849E+03   -.122E+01 0.704E+00 0.848E+03   0.137E+00 -.791E-01 0.562E+00   -.417E-01 0.291E-01 -.519E-02
   -.139E-04 -.545E+01 -.845E+03   0.144E-03 0.509E+01 0.845E+03   0.236E-07 0.354E+00 -.199E+00   -.508E-02 0.108E-01 0.141E-01
   -.112E+01 -.647E+00 -.849E+03   0.122E+01 0.704E+00 0.848E+03   -.137E+00 -.791E-01 0.562E+00   0.498E-01 0.288E-01 -.519E-02
   0.209E+01 0.121E+01 -.847E+03   -.197E+01 -.114E+01 0.846E+03   -.419E-01 -.242E-01 0.560E+00   -.809E-01 -.467E-01 -.194E-01
   -.209E+01 0.121E+01 -.847E+03   0.197E+01 -.114E+01 0.846E+03   0.419E-01 -.242E-01 0.560E+00   0.799E-01 -.451E-01 -.190E-01
   0.467E-05 0.129E+01 -.849E+03   0.201E-03 -.141E+01 0.848E+03   0.105E-07 0.158E+00 0.562E+00   0.379E-02 -.507E-01 -.516E-02
   -.788E-05 -.109E-04 -.248E+04   0.256E-04 0.313E-04 0.248E+04   0.403E-18 -.278E-17 0.449E+00   -.783E-04 -.625E-04 0.844E-01
   -.320E+01 -.731E+01 -.249E+04   0.347E+01 0.775E+01 0.249E+04   -.249E+00 -.360E+00 0.396E+00   -.236E-01 -.898E-01 -.393E-01
   0.320E+01 -.731E+01 -.249E+04   -.347E+01 0.775E+01 0.249E+04   0.249E+00 -.360E+00 0.396E+00   0.237E-01 -.890E-01 -.398E-01
   -.793E+01 0.885E+00 -.249E+04   0.845E+01 -.873E+00 0.249E+04   -.436E+00 -.358E-01 0.396E+00   -.895E-01 0.244E-01 -.392E-01
   0.793E+01 0.886E+00 -.249E+04   -.845E+01 -.873E+00 0.249E+04   0.436E+00 -.358E-01 0.396E+00   0.892E-01 0.249E-01 -.384E-01
   -.473E+01 0.642E+01 -.249E+04   0.498E+01 -.688E+01 0.249E+04   -.187E+00 0.396E+00 0.396E+00   -.652E-01 0.650E-01 -.399E-01
   0.473E+01 0.642E+01 -.249E+04   -.498E+01 -.688E+01 0.249E+04   0.187E+00 0.396E+00 0.396E+00   0.662E-01 0.648E-01 -.384E-01
   0.275E-04 -.317E-04 -.248E+04   0.151E-03 -.462E-04 0.248E+04   -.453E-18 -.305E-18 0.463E+00   -.392E-02 -.197E-02 -.252E-01
   -.115E-04 -.218E-04 -.222E+04   0.992E-04 0.867E-05 0.222E+04   -.127E-17 0.856E-18 0.216E+01   0.382E-02 0.235E-02 0.262E-01
   -.774E-03 -.790E-03 -.110E+01   -.178E-13 0.327E-14 -.182E-11   0.260E-16 -.110E-15 0.122E+01   0.912E-02 0.593E-02 0.821E+00

 POSITION                                       TOTAL-FORCE (eV/Angst)
      0.00000      0.00000      5.28038         0.000000      0.000000     -0.058725
      2.93784      0.00000      5.28038        -0.004189      0.000890     -0.083966
      5.87568      0.00000      5.28038         0.004189      0.000890     -0.083966
      1.46892      2.54424      5.28038        -0.001323     -0.004073     -0.083966
      4.40676      2.54424      5.28038         0.000000      0.000000     -0.090617
      7.34459      2.54424      5.28038         0.001323     -0.004073     -0.083966
      2.93784      5.08848      5.28038         0.002865      0.003183     -0.083966
      5.87568      5.08848      5.28038        -0.002865      0.003183     -0.083966
      8.81351      5.08848      5.28038         0.000000      0.000000     -0.079572
      1.46892      0.84808      7.67911         0.055749      0.032187      0.083085
      4.40676      0.84808      7.67911        -0.000000     -0.011817      0.087404
      7.34459      0.84808      7.67911        -0.055749      0.032187      0.083085
      2.93784      3.39232      7.67911        -0.010234      0.005909      0.087404
      5.87568      3.39232      7.67911         0.010234      0.005909      0.087404
      8.81351      3.39232      7.67911         0.000000      0.005781      0.104622
      4.40676      5.93656      7.67911        -0.000000     -0.064373      0.083085
      7.34459      5.93656      7.67911         0.005007     -0.002891      0.104622
     10.28243      5.93656      7.67911        -0.005007     -0.002891      0.104622
      8.81351      1.69299     10.06281        -0.000000     -0.005984      0.008685
      2.93673      1.69552     10.07074        -0.000325     -0.000187      0.001460
      5.87678      1.69552     10.07074         0.000325     -0.000187      0.001460
     10.28200      4.24065     10.07064        -0.007705      0.004449      0.003564
      4.40676      4.24168     10.07074         0.000000      0.000375      0.001460
      7.34503      4.24065     10.07064         0.007705      0.004449      0.003564
     11.75410      6.78623     10.06281         0.005182      0.002992      0.008685
      5.87293      6.78623     10.06281        -0.005182      0.002992      0.008685
      8.81351      6.78414     10.07064        -0.000000     -0.008897      0.003564
      0.00000      0.00000     12.49359         0.000000      0.000000     -0.020858
      2.94266      0.00661     12.49157         0.000278     -0.002204     -0.013507
      5.87086      0.00661     12.49157        -0.000278     -0.002204     -0.013507
      1.47706      2.54511     12.49157        -0.001770      0.001343     -0.013507
      7.33646      2.54511     12.49157         0.001770      0.001343     -0.013507
      2.94116      5.08100     12.49157        -0.002048      0.000862     -0.013507
      5.87236      5.08100     12.49157         0.002048      0.000862     -0.013507
      8.81351      5.08848     12.49778         0.000000      0.000000     -0.023628
      4.40676      2.54424     12.34091         0.000000      0.000000     -0.008222
    total drift:                                0.008351      0.005139      0.937201

  FREE ENERGIE OF THE ION-ELECTRON SYSTEM (eV)
  free  energy   TOTEN  =      -111.96534255 eV

  energy  without entropy=     -111.96534255  energy(sigma->0) =     -111.96534255

 stress matrix after NEB project (eV)
    -20.76559     -0.00000      0.00000
     -0.00000    -20.76558      0.00000
     -0.00000      0.00000      0.85347
  FORCES: max atom, RMS     0.023628    0.008821
  FORCE total and by dimension    0.052926    0.023628
  Stress total and by dimension   29.379370   20.765585
|           W    W    AA    RRRRR   N    N  II  N    N   GGGG   !!!           |
|           W    W   A  A   R    R  NN   N  II  NN   N  G    G  !!!           |
|           W    W  A    A  R    R  N N  N  II  N N  N  G       !!!           |
|           W WW W  AAAAAA  RRRRR   N  N N  II  N  N N  G  GGG   !            |
|           WW  WW  A    A  R   R   N   NN  II  N   NN  G    G                |
|           W    W  A    A  R    R  N    N  II  N    N   GGGG   !!!           |
|     Tetrahedron method does not include variations of the Fermi             |
|     occupations, so forces and stress will be inaccurate. We suggest        |
|     using a different smearing scheme ISMEAR = 1 or 2 for metals in         |
|     relaxations.                                                            |

 total charge

# of ion       s       p       d       tot
    1        0.543   0.241   8.766   9.550
    2        0.545   0.240   8.766   9.551
    3        0.545   0.240   8.766   9.551
    4        0.545   0.240   8.766   9.551
    5        0.540   0.241   8.765   9.546
    6        0.545   0.240   8.766   9.551
    7        0.545   0.240   8.766   9.551
    8        0.545   0.240   8.766   9.551
    9        0.545   0.240   8.766   9.550
   10        0.518   0.308   8.770   9.596
   11        0.520   0.305   8.776   9.600
   12        0.518   0.308   8.770   9.596
   13        0.520   0.305   8.776   9.600
   14        0.520   0.305   8.776   9.600
   15        0.517   0.306   8.775   9.598
   16        0.518   0.308   8.770   9.596
   17        0.517   0.306   8.775   9.598
   18        0.517   0.306   8.775   9.598
   19        0.517   0.302   8.775   9.595
   20        0.524   0.310   8.767   9.600
   21        0.524   0.310   8.767   9.600
   22        0.513   0.304   8.771   9.588
   23        0.524   0.310   8.767   9.600
   24        0.513   0.304   8.771   9.588
   25        0.517   0.302   8.775   9.595
   26        0.517   0.302   8.775   9.595
   27        0.513   0.304   8.771   9.588
   28        0.542   0.233   8.766   9.540
   29        0.548   0.232   8.765   9.544
   30        0.548   0.232   8.765   9.544
   31        0.548   0.232   8.765   9.544
   32        0.548   0.232   8.765   9.544
   33        0.548   0.232   8.765   9.544
   34        0.548   0.232   8.765   9.544
   35        0.541   0.234   8.766   9.541
   36        0.360   0.271   8.566   9.197
tot         18.953   9.796 315.474 344.223

 BZINTS: Fermi energy:    0.669830;  395.000000 electrons
         Band energy:-0.116726E+04;  BLOECHL correction:   -0.115787