 vasp.6.2.0 18Jan21 (build Jun 12 2021 23:27:24) complex

 executed on             LinuxIFC date 2022.05.30  18:25:08

 INCAR:
   ISMEAR = -5
   SIGMA = 0.1
   ISPIN = 1
   EDIFF = 1.d-5
   EDIFFG = -0.01
   NSW = 0
   NELM = 150
   ENCUT = 500
   ISIF = 2
   IBRION = 2
   LREAL = Auto
   ALGO = Fast
   ICHARG = 11
   LORBIT = 10
   LCHARG = .F.
   LWAVE = .F.

 POTCAR:    PAW_PBE Cu 22Jun2005
 POTCAR:    PAW_PBE Rh 04Feb2005
 POTCAR:    PAW_PBE C 08Apr2002
 POTCAR:    PAW_PBE O 08Apr2002
 POTCAR:    PAW_PBE H 15Jun2001
|           W    W    AA    RRRRR   N    N  II  N    N   GGGG   !!!           |
|           W    W   A  A   R    R  NN   N  II  NN   N  G    G  !!!           |
|           W    W  A    A  R    R  N N  N  II  N N  N  G       !!!           |
|           W WW W  AAAAAA  RRRRR   N  N N  II  N  N N  G  GGG   !            |
|           WW  WW  A    A  R   R   N   NN  II  N   NN  G    G                |
|           W    W  A    A  R    R  N    N  II  N    N   GGGG   !!!           |
|     For optimal performance we recommend to set                             |
|       NCORE = 2 up to number-of-cores-per-socket                            |
|     This setting can greatly improve the performance of VASP for DFT.       |
|     The default, NCORE=1 might be grossly inefficient on modern             |
|     multi-core architectures or massively parallel machines. Do your        |
|     Unfortunately you need to use the default for GW and RPA                |
|     calculations (for HF NCORE is supported but not extensively tested      |
|     yet).                                                                   |

 POTCAR:    PAW_PBE Cu 22Jun2005
   VRHFIN =Cu: d10 p1

   TITEL  = PAW_PBE Cu 22Jun2005
   POMASS =   63.546; ZVAL   =   11.000    mass and valenz
   ENMAX  =  295.446; ENMIN  =  221.585 eV

 POTCAR:    PAW_PBE Rh 04Feb2005
   VRHFIN =Rh: s1 d8

   TITEL  = PAW_PBE Rh 04Feb2005
   POMASS =  102.906; ZVAL   =    9.000    mass and valenz
   ENMAX  =  228.996; ENMIN  =  171.747 eV

 POTCAR:    PAW_PBE C 08Apr2002
   VRHFIN =C: s2p2

   TITEL  = PAW_PBE C 08Apr2002
   POMASS =   12.011; ZVAL   =    4.000    mass and valenz
   ENMAX  =  400.000; ENMIN  =  300.000 eV

 POTCAR:    PAW_PBE O 08Apr2002
   VRHFIN =O: s2p4

   TITEL  = PAW_PBE O 08Apr2002
   POMASS =   16.000; ZVAL   =    6.000    mass and valenz
   ENMAX  =  400.000; ENMIN  =  300.000 eV

 POTCAR:    PAW_PBE H 15Jun2001
   VRHFIN =H: ultrasoft test

   TITEL  = PAW_PBE H 15Jun2001
   POMASS =    1.000; ZVAL   =    1.000    mass and valenz
   ENMAX  =  250.000; ENMIN  =  200.000 eV

 Optimization of the real space projectors (new method)

 maximal supplied QI-value         = 16.25
 optimisation between [QCUT,QGAM] = [ 11.38, 22.75] = [ 36.24,144.96] Ry
 Optimized for a Real-space Cutoff    1.52 Angstroem

   l    n(q)    QCUT    max X(q) W(low)/X(q) W(high)/X(q)  e(spline)
   2      9    11.376     4.610    0.21E-03    0.10E-03    0.26E-06
   2      9    11.376     8.522    0.33E-03    0.16E-03    0.37E-06
   0     10    11.376    51.609    0.62E-04    0.20E-04    0.13E-06
   0     10    11.376    27.747    0.54E-04    0.20E-04    0.13E-06
   1     10    11.376    20.408    0.13E-04    0.99E-04    0.19E-06
   1     10    11.376    13.425    0.12E-04    0.87E-04    0.17E-06
 Optimization of the real space projectors (new method)

[...]

   l    n(q)    QCUT    max X(q) W(low)/X(q) W(high)/X(q)  e(spline)
   0      7    11.387    20.381    0.39E-03    0.13E-02    0.15E-06
   0      7    11.387    15.268    0.42E-03    0.14E-02    0.17E-06
   1      6    11.387     5.964    0.41E-03    0.11E-02    0.17E-06
   1      6    11.387     5.382    0.39E-03    0.87E-03    0.15E-06
 Optimization of the real space projectors (new method)

 maximal supplied QI-value         = 34.20
 optimisation between [QCUT,QGAM] = [ 11.29, 22.57] = [ 35.68,142.71] Ry
 Optimized for a Real-space Cutoff    1.16 Angstroem

   l    n(q)    QCUT    max X(q) W(low)/X(q) W(high)/X(q)  e(spline)
   0      8    11.287    19.460    0.40E-03    0.73E-03    0.16E-06
   0      8    11.287    12.209    0.38E-03    0.70E-03    0.15E-06
   1      7    11.287     4.655    0.22E-03    0.25E-04    0.22E-06
  PAW_PBE Cu 22Jun2005                  :
  PAW_PBE Rh 04Feb2005                  :
  PAW_PBE C 08Apr2002                   :
  PAW_PBE O 08Apr2002                   :
  PAW_PBE H 15Jun2001                   :

 POSCAR: Cu-Rh-COH
  positions in direct lattice
  velocities in cartesian coordinates
 exchange correlation table for  LEXCH =        8
   RHO(1)=    0.500       N(1)  =     2000
   RHO(2)=  100.500       N(2)  =     4000

 VTST: version 3.2, (02/03/18)

 CHAIN: initializing optimizer

 OPT: Using VASP Conjugate-Gradient optimizer
 CHAIN: Read ICHAIN            0

 POSCAR: Cu-Rh-COH
  positions in direct lattice
  velocities in cartesian coordinates

 ion  position               nearest neighbor table
   1  0.000  0.000  0.206-   7 2.57   3 2.57   4 2.57   2 2.57   6 2.57   8 2.57  12 2.57  10 2.57
                            16 2.57
   2  0.333  0.000  0.206-   8 2.57   9 2.57   5 2.57   1 2.57   3 2.57  11 2.57   4 2.57  10 2.57
                            17 2.57
   3  0.667  0.000  0.206-   1 2.57   7 2.57   6 2.57   9 2.57   2 2.57  12 2.57   5 2.57  18 2.57
                            11 2.57
   4  0.000  0.333  0.206-   5 2.57   6 2.57   1 2.57   7 2.57   2 2.57  13 2.57   9 2.57  10 2.57
                            15 2.57
   5  0.333  0.333  0.206-   4 2.57   2 2.57   7 2.57  13 2.57   8 2.57   6 2.57   3 2.57  11 2.57
                            14 2.57
   6  0.667  0.333  0.206-   4 2.57   9 2.57  15 2.57   3 2.57   1 2.57   8 2.57  14 2.57   5 2.57
                            12 2.57
   7  0.000  0.667  0.206-   1 2.57   3 2.57  16 2.57  18 2.57   4 2.57   5 2.57   8 2.57   9 2.57
                            13 2.57
   8  0.333  0.667  0.206-   9 2.57   2 2.57  17 2.57   6 2.57   1 2.57   7 2.57   5 2.57  14 2.57
                            16 2.57
   9  0.667  0.667  0.206-   8 2.57   6 2.57   2 2.57  17 2.57   3 2.57   7 2.57   4 2.57  15 2.57
                            18 2.57
  10  0.111  0.111  0.286-  20 2.55  26 2.56  19 2.56  11 2.57  12 2.57  13 2.57   1 2.57   2 2.57
                             4 2.57  15 2.57  16 2.57  17 2.57
  11  0.444  0.111  0.286-  20 2.55  21 2.55  27 2.56  10 2.57  13 2.57   2 2.57  17 2.57  14 2.57
                            12 2.57   5 2.57   3 2.57  18 2.57
  12  0.778  0.111  0.286-  21 2.55  19 2.56  25 2.56  15 2.57  10 2.57  14 2.57  18 2.57   3 2.57
                             1 2.57  16 2.57  11 2.57   6 2.57
  13  0.111  0.444  0.286-  23 2.55  20 2.55  22 2.56  16 2.57  18 2.57  10 2.57  11 2.57  14 2.57
                             5 2.57   4 2.57   7 2.57  15 2.57
  14  0.444  0.444  0.286-  21 2.55  23 2.55  24 2.56  15 2.57  17 2.57  12 2.57  16 2.57  13 2.57
                            11 2.57   6 2.57   8 2.57   5 2.57
  15  0.778  0.444  0.286-  19 2.56  24 2.56  22 2.56  14 2.57  17 2.57  12 2.57   6 2.57  18 2.57
                            10 2.57   9 2.57  13 2.57   4 2.57
  16  0.111  0.778  0.286-  23 2.55  25 2.56  26 2.56  18 2.57  13 2.57   7 2.57  14 2.57  17 2.57
                            12 2.57  10 2.57   8 2.57   1 2.57
  17  0.444  0.778  0.286-  26 2.56  27 2.56  24 2.56  14 2.57  15 2.57   8 2.57   9 2.57  11 2.57
                            16 2.57  18 2.57  10 2.57   2 2.57
  18  0.778  0.778  0.286-  25 2.56  22 2.56  27 2.56  16 2.57  13 2.57   7 2.57  15 2.57  12 2.57
                            17 2.57   9 2.57   3 2.57  11 2.57
  19  0.889  0.223  0.366-  28 2.55  32 2.55  31 2.55  15 2.56  12 2.56  10 2.56  21 2.56  20 2.56
                            22 2.56  24 2.56  25 2.57  26 2.57
  20  0.222  0.222  0.365-  10 2.55  11 2.55  13 2.55  26 2.56  19 2.56  27 2.57  22 2.57  36 2.57
                            29 2.58  31 2.58  23 2.58  21 2.58
  21  0.557  0.222  0.365-  12 2.55  14 2.55  11 2.55  19 2.56  25 2.56  24 2.57  27 2.57  36 2.57
                            32 2.58  30 2.58  20 2.58  23 2.58
  22  0.889  0.556  0.366-  35 2.54  31 2.56  33 2.56  18 2.56  15 2.56  19 2.56  25 2.56  13 2.56
                            24 2.56  27 2.56  23 2.57  20 2.57
  23  0.222  0.557  0.365-  16 2.55  13 2.55  14 2.55  25 2.56  26 2.56  22 2.57  24 2.57  36 2.57
                            33 2.58  34 2.58  20 2.58  21 2.58
  24  0.556  0.556  0.366-  35 2.54  32 2.56  34 2.56  15 2.56  17 2.56  19 2.56  26 2.56  14 2.56
                            22 2.56  27 2.56  21 2.57  23 2.57
  25  0.889  0.889  0.366-  28 2.55  33 2.55  30 2.55  18 2.56  16 2.56  12 2.56  21 2.56  23 2.56
                            22 2.56  27 2.56  19 2.57  26 2.57
  26  0.223  0.889  0.366-  28 2.55  29 2.55  34 2.55  17 2.56  10 2.56  16 2.56  20 2.56  23 2.56
                            27 2.56  24 2.56  25 2.57  19 2.57
  27  0.556  0.889  0.366-  35 2.54  29 2.56  30 2.56  17 2.56  18 2.56  26 2.56  25 2.56  11 2.56
                            24 2.56  22 2.56  20 2.57  21 2.57
  28  0.000  0.000  0.445-  25 2.55  19 2.55  26 2.55  33 2.56  30 2.56  31 2.56  29 2.56  32 2.56
                            34 2.56
  29  0.333  0.998  0.446-  34 2.54  26 2.55  28 2.56  27 2.56  35 2.56  31 2.58  20 2.58  36 2.58
                            30 2.59
  30  0.669  0.998  0.446-  33 2.54  25 2.55  28 2.56  27 2.56  35 2.56  32 2.58  21 2.58  36 2.58
                            29 2.59
  31  0.998  0.333  0.446-  32 2.54  19 2.55  28 2.56  22 2.56  35 2.56  29 2.58  20 2.58  36 2.58
                            33 2.59
  32  0.669  0.333  0.446-  31 2.54  19 2.55  28 2.56  24 2.56  35 2.56  30 2.58  21 2.58  36 2.58
                            34 2.59
  33  0.998  0.669  0.446-  30 2.54  25 2.55  28 2.56  22 2.56  35 2.56  34 2.58  23 2.58  36 2.58
                            31 2.59
  34  0.333  0.669  0.446-  29 2.54  26 2.55  28 2.56  24 2.56  35 2.56  33 2.58  23 2.58  36 2.58
                            32 2.59
  35  0.667  0.667  0.445-  24 2.54  27 2.54  22 2.54  34 2.56  32 2.56  29 2.56  30 2.56  33 2.56
                            31 2.56
  36  0.333  0.333  0.445-  37 1.76  23 2.57  20 2.57  21 2.57  31 2.58  29 2.58  33 2.58  34 2.58
                            32 2.58  30 2.58
  37  0.333  0.333  0.513-  38 1.26  36 1.76
  38  0.333  0.333  0.561-  39 0.97  37 1.26
  39  0.333  0.333  0.598-  38 0.97

  LATTYP: Found a hexagonal cell.
 ALAT       =     7.6967864036
 C/A-ratio  =     3.3950614187

  Lattice vectors:

 A1 = (  -3.8483927580,  -6.6656128093,   0.0000000000)
 A2 = (   7.6967864037,   0.0000000000,   0.0000000000)
 A3 = (   0.0000000000,   0.0000000000,  26.1310625667)

Analysis of symmetry for initial positions (statically):
 Subroutine PRICEL returns:
 Original cell was already a primitive cell.

 Routine SETGRP: Setting up the symmetry group for a
 hexagonal supercell.

 Subroutine GETGRP returns: Found  6 space group operations
 (whereof  6 operations were pure point group operations)
 out of a pool of 24 trial point group operations.

The static configuration has the point symmetry C_3v.

Analysis of symmetry for dynamics (positions and initial velocities):
[...]
     41      -3.8083      2.00000
     42      -3.7635      2.00000
     43      -3.7280      2.00000
     44      -3.6732      2.00000
     45      -3.6703      2.00000
     46      -3.6011      2.00000
     47      -3.5855      2.00000
     48      -3.5636      2.00000
     49      -3.5593      2.00000
     50      -3.5566      2.00000
     51      -3.4243      2.00000
     52      -3.4225      2.00000
     53      -3.3527      2.00000
     54      -3.3425      2.00000
     55      -3.3313      2.00000
     56      -3.3094      2.00000
     57      -3.2765      2.00000
     58      -3.2684      2.00000
     59      -3.2503      2.00000
     60      -3.2409      2.00000
[...]
    238       5.2196      0.00000
    239       5.3418      0.00000
    240       5.4964      0.00000
    241       5.5067      0.00000
    242       5.5405      0.00000
    243       5.6651      0.00000
    244       5.7221      0.00000
    245       5.8585      0.00000
    246       5.8643      0.00000
    247       5.9636      0.00000
    248       6.1030      0.00000
    249       6.2733      0.00000
    250       6.3841      0.00000
    251       6.5757      0.00000
    252       6.8518      0.00000

 soft charge-density along one line, spin component           1
         0         1         2         3         4         5         6         7         8         9
 total charge-density along one line

------------------------ aborting loop because EDIFF is reached ----------------------------------------

 total charge

# of ion       s       p       d       tot
    1        0.447   0.285   9.189   9.921
    2        0.450   0.285   9.187   9.922
    3        0.450   0.285   9.187   9.922
    4        0.450   0.285   9.187   9.922
    5        0.449   0.287   9.185   9.921
    6        0.450   0.285   9.187   9.922
    7        0.450   0.285   9.187   9.922
    8        0.450   0.285   9.187   9.922
    9        0.445   0.287   9.186   9.919
   10        0.441   0.372   9.179   9.992
   11        0.443   0.369   9.181   9.993
   12        0.441   0.372   9.179   9.992
   13        0.443   0.369   9.181   9.993
   14        0.443   0.369   9.181   9.993
   15        0.437   0.371   9.181   9.989
   16        0.441   0.372   9.179   9.992
   17        0.437   0.371   9.181   9.989
   18        0.437   0.371   9.181   9.989
   19        0.443   0.372   9.181   9.996
   20        0.452   0.388   9.172  10.012
   21        0.452   0.388   9.172  10.012
   22        0.435   0.376   9.179   9.989
   23        0.452   0.388   9.172  10.012
   24        0.435   0.376   9.179   9.989
   25        0.443   0.372   9.181   9.996
   26        0.443   0.372   9.181   9.996
   27        0.435   0.376   9.179   9.989
   28        0.457   0.291   9.192   9.940
   29        0.443   0.303   9.193   9.939
   30        0.443   0.303   9.193   9.939
   31        0.443   0.303   9.193   9.939
   32        0.443   0.303   9.193   9.939
   33        0.443   0.303   9.193   9.939
   34        0.443   0.303   9.193   9.939
   35        0.453   0.292   9.193   9.937
   36        0.564   0.746   7.554   8.863
   37        0.933   1.415   0.000   2.348
   38        1.532   3.746   0.000   5.279
   39        0.554   0.129   0.000   0.683
tot         19.143  17.755 328.997 365.895

  FORCE on cell =-STRESS in cart. coord.  units (eV):
  Direction    XX          YY          ZZ          XY          YZ          ZX
  Alpha Z   735.52226   735.52226   735.52226
  Ewald  272124.25163272124.25119************     0.00040     0.00012     0.00019
  Hartree285251.32183285251.32180************     0.00004     0.00006     0.00007
  E(xc)   -2338.32415 -2338.32376 -2340.89415    -0.00034    -0.00003    -0.00005
  Local  ************************570382.61503     0.01892    -0.00060    -0.00099
  n-local  -781.96212  -768.30721  -784.03577     7.35634    -0.01227     0.09890
  augment  3377.70080  3377.72119  3381.26030    -0.01766     0.00037     0.00068
  Kinetic  3464.42426  3466.81281  3410.24289     2.81175     2.04107    -1.48668
  Fock        0.00000     0.00000     0.00000     0.00000     0.00000     0.00000
  Total      -0.22516    -0.22516     3.93751     0.00000    -0.00000    -0.00000
  in kB      -0.26909    -0.26909     4.70572     0.00000    -0.00000    -0.00000

 VOLUME and BASIS-vectors are now :
  energy-cutoff  :      500.00
  volume of cell :     1340.62
      direct lattice vectors                 reciprocal lattice vectors
     7.696786404  0.000000000  0.000000000     0.129924354 -0.075011849  0.000000000
     3.848392758  6.665612809  0.000000000     0.000000000  0.150023716  0.000000000
     0.000000000  0.000000000 26.131062567     0.000000000  0.000000000  0.038268631

  length of vectors
     7.696786404  7.696786404 26.131062567     0.150023716  0.150023716  0.038268631

 FORCES acting on ions
    electron-ion (+dipol)            ewald-force                    non-local-force                 convergence-correction
   -.437E-04 -.108E-05 0.396E+04   0.579E-04 -.438E-05 -.395E+04   0.534E-17 -.806E-18 -.298E+01   -.410E-03 -.204E-03 -.709E+00
   -.174E+00 -.949E-02 0.395E+04   0.192E+00 0.291E-01 -.395E+04   0.181E-02 0.338E-01 -.199E+01   -.116E-01 -.352E-01 -.614E+00
   0.174E+00 -.946E-02 0.395E+04   -.192E+00 0.290E-01 -.395E+04   -.181E-02 0.338E-01 -.199E+01   0.125E-01 -.326E-01 -.613E+00
   -.953E-01 -.146E+00 0.395E+04   0.121E+00 0.152E+00 -.395E+04   0.302E-01 -.153E-01 -.199E+01   -.362E-01 0.755E-02 -.614E+00
   -.697E-04 -.799E-05 0.395E+04   0.116E-03 -.101E-04 -.395E+04   -.366E-17 0.171E-17 -.192E+01   0.123E-01 0.751E-02 -.511E+00
   0.953E-01 -.146E+00 0.395E+04   -.121E+00 0.152E+00 -.395E+04   -.302E-01 -.153E-01 -.199E+01   0.345E-01 0.872E-02 -.613E+00
   0.789E-01 0.156E+00 0.395E+04   -.709E-01 -.181E+00 -.395E+04   0.284E-01 -.185E-01 -.199E+01   -.220E-01 0.271E-01 -.613E+00
   -.788E-01 0.156E+00 0.395E+04   0.706E-01 -.181E+00 -.395E+04   -.284E-01 -.185E-01 -.199E+01   0.255E-01 0.255E-01 -.613E+00
   -.146E-03 -.339E-04 0.395E+04   0.263E-03 0.205E-04 -.395E+04   -.223E-17 -.114E-17 -.251E+01   -.132E-01 -.684E-02 -.611E+00
   0.381E+00 0.220E+00 0.139E+04   0.810E-01 0.467E-01 -.139E+04   -.438E+00 -.253E+00 -.101E+01   -.847E-02 -.490E-02 0.273E-01
   -.900E-04 -.631E+00 0.138E+04   0.190E-03 0.570E+00 -.138E+04   -.318E-08 0.478E-01 -.699E+00   0.123E-01 -.170E-01 0.897E-01
   -.381E+00 0.220E+00 0.139E+04   -.811E-01 0.466E-01 -.139E+04   0.438E+00 -.253E+00 -.101E+01   0.602E-02 -.273E-02 0.292E-01
   -.547E+00 0.316E+00 0.138E+04   0.494E+00 -.285E+00 -.138E+04   0.414E-01 -.239E-01 -.699E+00   -.815E-02 0.200E-01 0.898E-01
   0.547E+00 0.316E+00 0.138E+04   -.494E+00 -.285E+00 -.138E+04   -.414E-01 -.239E-01 -.699E+00   0.328E-01 0.186E-01 0.901E-01
   -.142E-03 -.122E+01 0.139E+04   0.298E-03 0.114E+01 -.138E+04   -.254E-08 0.382E-01 -.791E+00   -.434E-02 0.297E-01 0.361E-03
   -.914E-04 -.440E+00 0.139E+04   0.186E-03 -.934E-01 -.139E+04   -.337E-07 0.505E+00 -.101E+01   -.286E-03 0.536E-02 0.291E-01
   -.105E+01 0.609E+00 0.139E+04   0.988E+00 -.570E+00 -.138E+04   0.331E-01 -.191E-01 -.791E+00   0.243E-01 -.186E-01 0.241E-03
   0.105E+01 0.609E+00 0.139E+04   -.988E+00 -.570E+00 -.138E+04   -.331E-01 -.191E-01 -.791E+00   -.231E-01 -.151E-01 0.173E-02
   -.594E-04 -.277E+00 -.120E+04   0.677E-04 0.293E+00 0.120E+04   0.143E-08 -.214E-01 0.794E+00   -.146E-01 -.693E-02 0.541E+00
   -.184E+02 -.106E+02 -.121E+04   0.191E+02 0.110E+02 0.121E+04   -.818E+00 -.472E+00 -.766E+00   0.740E-01 0.426E-01 0.597E+00
   0.184E+02 -.106E+02 -.121E+04   -.191E+02 0.110E+02 0.121E+04   0.818E+00 -.472E+00 -.766E+00   -.480E-01 0.431E-01 0.597E+00
   -.981E+01 0.566E+01 -.121E+04   0.945E+01 -.546E+01 0.120E+04   0.395E+00 -.228E+00 0.965E+00   0.140E-01 -.704E-02 0.586E+00
   -.793E-04 0.213E+02 -.121E+04   0.146E-03 -.221E+02 0.121E+04   -.629E-07 0.945E+00 -.766E+00   0.122E-01 -.643E-01 0.597E+00
   0.981E+01 0.566E+01 -.121E+04   -.945E+01 -.546E+01 0.120E+04   -.395E+00 -.228E+00 0.965E+00   -.164E-01 -.104E-01 0.586E+00
   0.240E+00 0.138E+00 -.120E+04   -.254E+00 -.147E+00 0.120E+04   0.185E-01 0.107E-01 0.794E+00   -.883E-02 -.508E-02 0.540E+00
   -.240E+00 0.138E+00 -.120E+04   0.254E+00 -.147E+00 0.120E+04   -.185E-01 0.107E-01 0.794E+00   -.129E-01 -.895E-02 0.541E+00
   -.129E-03 -.113E+02 -.121E+04   0.245E-03 0.109E+02 0.120E+04   -.304E-07 0.457E+00 0.965E+00   0.860E-03 0.156E-01 0.586E+00
   -.319E-04 0.193E-04 -.377E+04   0.362E-04 -.343E-04 0.377E+04   0.410E-17 -.427E-17 0.181E+01   -.726E-03 -.368E-03 0.744E+00
   -.178E+01 -.457E-01 -.376E+04   0.129E+01 -.107E+01 0.375E+04   0.354E+00 0.847E+00 0.265E+01   0.181E-01 0.229E-01 0.700E+00
   0.178E+01 -.455E-01 -.376E+04   -.129E+01 -.107E+01 0.375E+04   -.354E+00 0.847E+00 0.265E+01   -.164E-01 0.254E-01 0.698E+00
   -.931E+00 -.152E+01 -.376E+04   -.286E+00 0.165E+01 0.375E+04   0.911E+00 -.117E+00 0.265E+01   0.289E-01 0.412E-02 0.700E+00
   0.931E+00 -.152E+01 -.376E+04   0.286E+00 0.165E+01 0.375E+04   -.911E+00 -.117E+00 0.265E+01   -.307E-01 0.457E-02 0.698E+00
   0.853E+00 0.157E+01 -.376E+04   -.158E+01 -.580E+00 0.375E+04   0.557E+00 -.731E+00 0.265E+01   0.138E-01 -.269E-01 0.698E+00
   -.852E+00 0.157E+01 -.376E+04   0.158E+01 -.580E+00 0.375E+04   -.557E+00 -.731E+00 0.265E+01   -.107E-01 -.289E-01 0.698E+00
   -.157E-03 -.282E-04 -.378E+04   0.258E-03 0.413E-05 0.377E+04   -.113E-17 0.413E-17 0.210E+01   -.131E-01 -.675E-02 0.811E+00
   -.184E-04 -.157E-04 -.288E+04   0.111E-03 0.224E-04 0.288E+04   0.352E-17 0.504E-17 -.282E+01   0.338E-02 0.203E-02 0.501E+00
   -.668E-05 -.745E-04 -.152E+04   0.113E-04 0.523E-05 0.150E+04   -.360E-18 0.171E-19 0.192E+02   0.114E-02 0.685E-03 0.750E-01
   0.229E-03 -.720E-04 -.232E+04   0.256E-05 0.243E-05 0.232E+04   -.585E-18 -.434E-18 -.562E+01   0.339E-02 0.207E-02 -.409E-01
   0.318E-05 -.140E-04 -.414E+03   0.785E-07 0.160E-06 0.422E+03   -.330E-20 0.290E-20 -.835E+01   0.176E-03 0.107E-03 -.102E-01
   -.612E-04 -.192E-03 -.465E+01   -.205E-13 0.202E-12 -.176E-10   -.110E-15 -.213E-15 -.165E+01   0.297E-01 0.143E-01 0.629E+01

 POSITION                                       TOTAL-FORCE (eV/Angst)
      0.00000      0.00000      5.37156        -0.000000     -0.000000      0.061582
      2.56560      0.00000      5.37156         0.008404      0.019319      0.095504
      5.13119      0.00000      5.37156        -0.008404      0.019319      0.095504
      1.28280      2.22187      5.37156         0.020933     -0.002381      0.095504
      3.84839      2.22187      5.37156        -0.000000     -0.000000      0.083615
      6.41399      2.22187      5.37156        -0.020933     -0.002381      0.095504
      2.56560      4.44374      5.37156         0.012528     -0.016938      0.095504
      5.13119      4.44374      5.37156        -0.012528     -0.016938      0.095504
      7.69679      4.44374      5.37156        -0.000000     -0.000000      0.075417
      1.28280      0.74062      7.46636         0.017918      0.010345     -0.073678
      3.84839      0.74062      7.46636         0.000000     -0.037191     -0.119816
      6.41399      0.74062      7.46636        -0.017918      0.010345     -0.073678
      2.56560      2.96249      7.46636        -0.032208      0.018596     -0.119816
      5.13119      2.96249      7.46636         0.032208      0.018596     -0.119816
      7.69679      2.96249      7.46636         0.000000     -0.009279     -0.035577
      3.84839      5.18437      7.46636         0.000000     -0.020690     -0.073678
      6.41399      5.18437      7.46636        -0.008036      0.004640     -0.035577
      8.97958      5.18437      7.46636         0.008036      0.004640     -0.035577
      7.69679      1.48472      9.55134         0.000000     -0.006417      0.008262
      2.55991      1.47796      9.54139        -0.058883     -0.033996     -0.293906
      5.13688      1.47796      9.54139         0.058883     -0.033996     -0.293906
      8.97851      3.70374      9.55759         0.052749     -0.030455     -0.004313
      3.84839      3.70969      9.54139        -0.000000      0.067992     -0.293906
      6.41506      3.70374      9.55759        -0.052749     -0.030455     -0.004313
     10.25938      5.92325      9.55134         0.005557      0.003208      0.008262
      5.13420      5.92325      9.55134        -0.005557      0.003208      0.008262
      7.69679      5.92375      9.55759        -0.000000      0.060910     -0.004313
      0.00000      0.00000     11.61948        -0.000000     -0.000000     -0.018919
      6.40389      6.65412     11.64269        -0.121166     -0.248749     -0.083451
      8.98968      6.65412     11.64269         0.121166     -0.248749     -0.083451
      8.96459      2.21887     11.64269        -0.276006      0.019441     -0.083451
      6.42899      2.21887     11.64269         0.276006      0.019441     -0.083451
     10.25748      4.45823     11.64269        -0.154840      0.229307     -0.083451
      5.13610      4.45823     11.64269         0.154840      0.229307     -0.083451
      7.69679      4.44374     11.62337        -0.000000     -0.000000      0.008681
      3.84839      2.22187     11.63466        -0.000000     -0.000000      1.293280
      3.84839      2.22187     13.39372        -0.000000     -0.000000      0.000614
      3.84839      2.22187     14.65168        -0.000000     -0.000000     -0.003472
      3.84839      2.22187     15.61756        -0.000000     -0.000000     -0.016032
    total drift:                                0.029652      0.014060     -0.003739

  FREE ENERGIE OF THE ION-ELECTRON SYSTEM (eV)
  free  energy   TOTEN  =      -146.95319513 eV

  energy  without entropy=     -146.95319513  energy(sigma->0) =     -146.95319513

 stress matrix after NEB project (eV)
     -0.22516      0.00000     -0.00000
      0.00000     -0.22516     -0.00000
     -0.00000     -0.00000      3.93751
  FORCES: max atom, RMS     0.016032    0.002629
  FORCE total and by dimension    0.016415    0.016032
  Stress total and by dimension    3.950368    3.937514
|           W    W    AA    RRRRR   N    N  II  N    N   GGGG   !!!           |
|           W    W   A  A   R    R  NN   N  II  NN   N  G    G  !!!           |
|           W    W  A    A  R    R  N N  N  II  N N  N  G       !!!           |
|           W WW W  AAAAAA  RRRRR   N  N N  II  N  N N  G  GGG   !            |
|           WW  WW  A    A  R   R   N   NN  II  N   NN  G    G                |
|           W    W  A    A  R    R  N    N  II  N    N   GGGG   !!!           |
|     Tetrahedron method does not include variations of the Fermi             |
|     occupations, so forces and stress will be inaccurate. We suggest        |
|     using a different smearing scheme ISMEAR = 1 or 2 for metals in         |
|     relaxations.                                                            |

 total charge

# of ion       s       p       d       tot
    1        0.447   0.285   9.189   9.921
    2        0.450   0.285   9.187   9.922
    3        0.450   0.285   9.187   9.922
    4        0.450   0.285   9.187   9.922
    5        0.449   0.287   9.185   9.921
    6        0.450   0.285   9.187   9.922
    7        0.450   0.285   9.187   9.922
    8        0.450   0.285   9.187   9.922
    9        0.445   0.287   9.186   9.919
   10        0.441   0.372   9.179   9.992
   11        0.443   0.369   9.181   9.993
   12        0.441   0.372   9.179   9.992
   13        0.443   0.369   9.181   9.993
   14        0.443   0.369   9.181   9.993
   15        0.437   0.371   9.181   9.989
   16        0.441   0.372   9.179   9.992
   17        0.437   0.371   9.181   9.989
   18        0.437   0.371   9.181   9.989
   19        0.443   0.372   9.181   9.996
   20        0.452   0.388   9.172  10.012
   21        0.452   0.388   9.172  10.012
   22        0.435   0.376   9.179   9.989
   23        0.452   0.388   9.172  10.012
   24        0.435   0.376   9.179   9.989
   25        0.443   0.372   9.181   9.996
   26        0.443   0.372   9.181   9.996
   27        0.435   0.376   9.179   9.989
   28        0.457   0.291   9.192   9.940
   29        0.443   0.303   9.193   9.939
   30        0.443   0.303   9.193   9.939
   31        0.443   0.303   9.193   9.939
   32        0.443   0.303   9.193   9.939
   33        0.443   0.303   9.193   9.939
   34        0.443   0.303   9.193   9.939
   35        0.453   0.292   9.193   9.937
   36        0.564   0.746   7.554   8.863
   37        0.933   1.415   0.000   2.348
   38        1.532   3.746   0.000   5.279
   39        0.554   0.129   0.000   0.683
tot         19.143  17.755 328.997 365.895

 BZINTS: Fermi energy:    0.081868;  405.000000 electrons
         Band energy:-0.120007E+04;  BLOECHL correction:   -0.063968