 vasp.6.2.0 18Jan21 (build Jun 12 2021 23:27:24) complex

 executed on             LinuxIFC date 2022.05.26  20:10:47

 INCAR:
   ISMEAR = -5
   SIGMA = 0.1
   ISPIN = 1
   EDIFF = 1.d-5
   EDIFFG = -0.01
   NSW = 0
   NELM = 150
   ENCUT = 500
   ISIF = 2
   IBRION = 2
   LREAL = Auto
   ALGO = Fast
   ICHARG = 11
   LORBIT = 10
   LCHARG = .F.
   LWAVE = .F.

 POTCAR:    PAW_PBE Cu 22Jun2005
 POTCAR:    PAW_PBE Pt 04Feb2005
 POTCAR:    PAW_PBE N 08Apr2002
|           W    W    AA    RRRRR   N    N  II  N    N   GGGG   !!!           |
|           W    W   A  A   R    R  NN   N  II  NN   N  G    G  !!!           |
|           W    W  A    A  R    R  N N  N  II  N N  N  G       !!!           |
|           W WW W  AAAAAA  RRRRR   N  N N  II  N  N N  G  GGG   !            |
|           WW  WW  A    A  R   R   N   NN  II  N   NN  G    G                |
|           W    W  A    A  R    R  N    N  II  N    N   GGGG   !!!           |
|     For optimal performance we recommend to set                             |
|       NCORE = 2 up to number-of-cores-per-socket                            |
|     This setting can greatly improve the performance of VASP for DFT.       |
|     The default, NCORE=1 might be grossly inefficient on modern             |
|     multi-core architectures or massively parallel machines. Do your        |
|     Unfortunately you need to use the default for GW and RPA                |
|     calculations (for HF NCORE is supported but not extensively tested      |
|     yet).                                                                   |

 POTCAR:    PAW_PBE Cu 22Jun2005
   VRHFIN =Cu: d10 p1

   TITEL  = PAW_PBE Cu 22Jun2005
   POMASS =   63.546; ZVAL   =   11.000    mass and valenz
   ENMAX  =  295.446; ENMIN  =  221.585 eV

 POTCAR:    PAW_PBE Pt 04Feb2005
   VRHFIN =Pt: s1d9

   TITEL  = PAW_PBE Pt 04Feb2005
   POMASS =  195.080; ZVAL   =   10.000    mass and valenz
   ENMAX  =  230.283; ENMIN  =  172.712 eV

 POTCAR:    PAW_PBE N 08Apr2002
   VRHFIN =N: s2p3

   TITEL  = PAW_PBE N 08Apr2002
   POMASS =   14.001; ZVAL   =    5.000    mass and valenz
   ENMAX  =  400.000; ENMIN  =  300.000 eV

 Optimization of the real space projectors (new method)

 maximal supplied QI-value         = 16.25
 optimisation between [QCUT,QGAM] = [ 11.38, 22.75] = [ 36.24,144.96] Ry
 Optimized for a Real-space Cutoff    1.52 Angstroem

   l    n(q)    QCUT    max X(q) W(low)/X(q) W(high)/X(q)  e(spline)
   2      9    11.376     4.610    0.21E-03    0.10E-03    0.26E-06
   2      9    11.376     8.522    0.33E-03    0.16E-03    0.37E-06
   0     10    11.376    51.609    0.62E-04    0.20E-04    0.13E-06
   0     10    11.376    27.747    0.54E-04    0.20E-04    0.13E-06
   1     10    11.376    20.408    0.13E-04    0.99E-04    0.19E-06
   1     10    11.376    13.425    0.12E-04    0.87E-04    0.17E-06
 Optimization of the real space projectors (new method)

[...]

   l    n(q)    QCUT    max X(q) W(low)/X(q) W(high)/X(q)  e(spline)
   2      9    11.346    66.195    0.31E-03    0.12E-04    0.29E-06
   2      9    11.346    64.643    0.32E-03    0.12E-04    0.29E-06
   0     10    11.346    95.520    0.90E-04    0.16E-04    0.19E-06
   0     10    11.346    63.403    0.87E-04    0.15E-04    0.19E-06
   1     10    11.346    19.961    0.17E-03    0.21E-03    0.11E-06
   1     10    11.346    13.289    0.14E-03    0.18E-03    0.89E-07
 Optimization of the real space projectors (new method)

 maximal supplied QI-value         = 25.13
 optimisation between [QCUT,QGAM] = [ 11.31, 22.87] = [ 35.82,146.48] Ry
 Optimized for a Real-space Cutoff    1.27 Angstroem

   l    n(q)    QCUT    max X(q) W(low)/X(q) W(high)/X(q)  e(spline)
   0      9    11.310    79.467    0.75E-04    0.16E-03    0.36E-06
   0      9    11.310    66.151    0.74E-04    0.16E-03    0.36E-06
   1      8    11.310    17.416    0.35E-03    0.12E-03    0.95E-06
   1      8    11.310    12.382    0.37E-03    0.13E-03    0.98E-06
  PAW_PBE Cu 22Jun2005                  :
  PAW_PBE Pt 04Feb2005                  :
  PAW_PBE N 08Apr2002                   :

 POSCAR: Cu-Pt-N
  positions in direct lattice
  velocities in cartesian coordinates
 exchange correlation table for  LEXCH =        8
   RHO(1)=    0.500       N(1)  =     2000
   RHO(2)=  100.500       N(2)  =     4000

 VTST: version 3.2, (02/03/18)

 CHAIN: initializing optimizer

 OPT: Using VASP Conjugate-Gradient optimizer
 CHAIN: Read ICHAIN            0

 POSCAR: Cu-Pt-N
  positions in direct lattice
  velocities in cartesian coordinates

 ion  position               nearest neighbor table
   1  0.000  0.000  0.252-   7 2.57   3 2.57   4 2.57   2 2.57   6 2.57   8 2.57  12 2.57  10 2.57
                            16 2.57
   2  0.333  0.000  0.252-   8 2.57   9 2.57   5 2.57   1 2.57   3 2.57  11 2.57   4 2.57  10 2.57
                            17 2.57
   3  0.667  0.000  0.252-   1 2.57   7 2.57   6 2.57   9 2.57   2 2.57  12 2.57   5 2.57  18 2.57
                            11 2.57
   4  0.000  0.333  0.252-   5 2.57   6 2.57   1 2.57   7 2.57   2 2.57  13 2.57   9 2.57  10 2.57
                            15 2.57
   5  0.333  0.333  0.252-   4 2.57   2 2.57   7 2.57  13 2.57   8 2.57   6 2.57   3 2.57  11 2.57
                            14 2.57
   6  0.667  0.333  0.252-   4 2.57   9 2.57  15 2.57   3 2.57   1 2.57   8 2.57  14 2.57   5 2.57
                            12 2.57
   7  0.000  0.667  0.252-   1 2.57   3 2.57  16 2.57  18 2.57   4 2.57   5 2.57   8 2.57   9 2.57
                            13 2.57
   8  0.333  0.667  0.252-   9 2.57   2 2.57  17 2.57   6 2.57   1 2.57   7 2.57   5 2.57  14 2.57
                            16 2.57
   9  0.667  0.667  0.252-   8 2.57   6 2.57   2 2.57  17 2.57   3 2.57   7 2.57   4 2.57  15 2.57
                            18 2.57
  10  0.111  0.111  0.351-  20 2.53  26 2.56  19 2.56  11 2.57  12 2.57  13 2.57   1 2.57   2 2.57
                             4 2.57  15 2.57  16 2.57  17 2.57
  11  0.444  0.111  0.351-  20 2.55  21 2.55  27 2.56  10 2.57  13 2.57   2 2.57  17 2.57  14 2.57
                            12 2.57   5 2.57   3 2.57  18 2.57
  12  0.778  0.111  0.351-  21 2.53  19 2.56  25 2.56  15 2.57  10 2.57  14 2.57  18 2.57   3 2.57
                             1 2.57  16 2.57  11 2.57   6 2.57
  13  0.111  0.444  0.351-  23 2.55  20 2.55  22 2.56  16 2.57  18 2.57  10 2.57  11 2.57  14 2.57
                             5 2.57   4 2.57   7 2.57  15 2.57
  14  0.444  0.444  0.351-  21 2.55  23 2.55  24 2.56  15 2.57  17 2.57  12 2.57  16 2.57  13 2.57
                            11 2.57   6 2.57   8 2.57   5 2.57
  15  0.778  0.444  0.351-  19 2.56  24 2.56  22 2.56  14 2.57  17 2.57  12 2.57   6 2.57  18 2.57
                            10 2.57   9 2.57  13 2.57   4 2.57
  16  0.111  0.778  0.351-  23 2.53  25 2.56  26 2.56  18 2.57  13 2.57   7 2.57  14 2.57  17 2.57
                            12 2.57  10 2.57   8 2.57   1 2.57
  17  0.444  0.778  0.351-  26 2.56  27 2.56  24 2.56  14 2.57  15 2.57   8 2.57   9 2.57  11 2.57
                            16 2.57  18 2.57  10 2.57   2 2.57
  18  0.778  0.778  0.351-  25 2.56  22 2.56  27 2.56  16 2.57  13 2.57   7 2.57  15 2.57  12 2.57
                            17 2.57   9 2.57   3 2.57  11 2.57
  19  0.888  0.223  0.449-  28 2.54  32 2.55  31 2.55  21 2.55  20 2.55  15 2.56  12 2.56  10 2.56
                            22 2.56  24 2.56  25 2.58  26 2.58
  20  0.221  0.221  0.448-  10 2.53  11 2.55  13 2.55  26 2.55  19 2.55  27 2.57  22 2.57  29 2.59
                            31 2.59  36 2.60  23 2.60  21 2.60
  21  0.558  0.221  0.448-  12 2.53  14 2.55  11 2.55  19 2.55  25 2.55  24 2.57  27 2.57  32 2.59
                            30 2.59  36 2.60  20 2.60  23 2.60
  22  0.889  0.556  0.449-  35 2.54  18 2.56  15 2.56  13 2.56  19 2.56  25 2.56  24 2.56  27 2.56
                            31 2.57  33 2.57  23 2.57  20 2.57
  23  0.221  0.558  0.448-  16 2.53  13 2.55  14 2.55  25 2.55  26 2.55  22 2.57  24 2.57  33 2.59
                            34 2.59  36 2.60  20 2.60  21 2.60
  24  0.556  0.556  0.449-  35 2.54  15 2.56  17 2.56  14 2.56  19 2.56  26 2.56  22 2.56  27 2.56
                            32 2.57  34 2.57  21 2.57  23 2.57
  25  0.888  0.888  0.449-  28 2.54  33 2.55  30 2.55  21 2.55  23 2.55  18 2.56  16 2.56  12 2.56
                            22 2.56  27 2.56  19 2.58  26 2.58
  26  0.223  0.888  0.449-  28 2.54  29 2.55  34 2.55  20 2.55  23 2.55  17 2.56  10 2.56  16 2.56
                            27 2.56  24 2.56  25 2.58  19 2.58
  27  0.556  0.889  0.449-  35 2.54  17 2.56  18 2.56  11 2.56  26 2.56  25 2.56  24 2.56  22 2.56
                            29 2.57  30 2.57  20 2.57  21 2.57
  28  0.000  0.000  0.546-  25 2.54  19 2.54  26 2.54  33 2.55  30 2.55  31 2.55  29 2.55  32 2.55
                            34 2.55
  29  0.333  0.997  0.547-  34 2.52  26 2.55  28 2.55  35 2.56  27 2.57  31 2.59  20 2.59  36 2.59
                            30 2.59
  30  0.670  0.997  0.547-  33 2.52  25 2.55  28 2.55  35 2.56  27 2.57  32 2.59  21 2.59  36 2.59
                            29 2.59
  31  0.997  0.333  0.547-  32 2.52  19 2.55  28 2.55  35 2.56  22 2.57  29 2.59  20 2.59  36 2.59
                            33 2.59
  32  0.670  0.333  0.547-  31 2.52  19 2.55  28 2.55  35 2.56  24 2.57  30 2.59  21 2.59  36 2.59
                            34 2.59
  33  0.997  0.670  0.547-  30 2.52  25 2.55  28 2.55  35 2.56  22 2.57  34 2.59  23 2.59  36 2.59
                            31 2.59
  34  0.333  0.670  0.547-  29 2.52  26 2.55  28 2.55  35 2.56  24 2.57  33 2.59  23 2.59  36 2.59
                            32 2.59
  35  0.667  0.667  0.546-  24 2.54  27 2.54  22 2.54  34 2.56  32 2.56  29 2.56  30 2.56  33 2.56
                            31 2.56
  36  0.333  0.333  0.547-  37 1.78  31 2.59  29 2.59  33 2.59  34 2.59  32 2.59  30 2.59  23 2.60
                            20 2.60  21 2.60
  37  0.333  0.333  0.631-  36 1.78

  LATTYP: Found a hexagonal cell.
 ALAT       =     7.6967864036
 C/A-ratio  =     2.7653617908

  Lattice vectors:

 A1 = (  -3.8483927580,  -6.6656128093,   0.0000000000)
 A2 = (   7.6967864037,   0.0000000000,   0.0000000000)
 A3 = (   0.0000000000,   0.0000000000,  21.2843990326)

Analysis of symmetry for initial positions (statically):
 Subroutine PRICEL returns:
 Original cell was already a primitive cell.

 Routine SETGRP: Setting up the symmetry group for a
 hexagonal supercell.

 Subroutine GETGRP returns: Found  6 space group operations
 (whereof  6 operations were pure point group operations)
 out of a pool of 24 trial point group operations.

The static configuration has the point symmetry C_3v.

Analysis of symmetry for dynamics (positions and initial velocities):
 Subroutine PRICEL returns:
 Original cell was already a primitive cell.

[...]

The dynamic configuration has the point symmetry C_3v.

Analysis of constrained symmetry for selective dynamics:
 Subroutine PRICEL returns:
 Original cell was already a primitive cell.

 Routine SETGRP: Setting up the symmetry group for a
 hexagonal supercell.

 Subroutine GETGRP returns: Found  6 space group operations
[...]
     24      -4.3683      2.00000
     25      -4.3411      2.00000
     26      -4.3173      2.00000
     27      -4.2824      2.00000
     28      -4.2317      2.00000
     29      -4.2152      2.00000
     30      -4.1018      2.00000
     31      -4.0670      2.00000
     32      -4.0464      2.00000
     33      -4.0207      2.00000
     34      -4.0186      2.00000
     35      -4.0054      2.00000
     36      -3.9627      2.00000
     37      -3.9490      2.00000
     38      -3.9173      2.00000
     39      -3.8536      2.00000
     40      -3.8270      2.00000
     41      -3.7059      2.00000
     42      -3.6992      2.00000
     43      -3.6536      2.00000
     44      -3.6280      2.00000
     45      -3.6050      2.00000
     46      -3.5966      2.00000
     47      -3.5581      2.00000
     48      -3.5362      2.00000
     49      -3.5204      2.00000
     50      -3.4669      2.00000
     51      -3.3825      2.00000
     52      -3.3668      2.00000
     53      -3.3394      2.00000
     54      -3.3075      2.00000
     55      -3.2943      2.00000
     56      -3.2875      2.00000
     57      -3.2814      2.00000
     58      -3.2582      2.00000
     59      -3.2461      2.00000
     60      -3.2162      2.00000
[...]
    238       6.3075      0.00000
    239       6.4153      0.00000
    240       6.4999      0.00000
    241       7.0271      0.00000
    242       7.0419      0.00000
    243       7.1789      0.00000
    244       7.1878      0.00000
    245       7.2866      0.00000
    246       7.3620      0.00000
    247       7.4295      0.00000
    248       7.5456      0.00000
    249       7.5866      0.00000
    250       7.7606      0.00000
    251       7.8562      0.00000
    252       8.0086      0.00000

 soft charge-density along one line, spin component           1
         0         1         2         3         4         5         6         7         8         9
 total charge-density along one line

------------------------ aborting loop because EDIFF is reached ----------------------------------------

 total charge

# of ion       s       p       d       tot
    1        0.449   0.283   9.190   9.922
    2        0.449   0.284   9.187   9.921
    3        0.449   0.284   9.187   9.921
    4        0.449   0.284   9.187   9.921
    5        0.448   0.287   9.185   9.920
    6        0.449   0.284   9.187   9.921
    7        0.449   0.284   9.187   9.921
    8        0.449   0.284   9.187   9.921
    9        0.447   0.284   9.184   9.915
   10        0.443   0.372   9.179   9.994
   11        0.441   0.372   9.180   9.993
   12        0.443   0.372   9.179   9.994
   13        0.441   0.372   9.180   9.993
   14        0.441   0.372   9.180   9.993
   15        0.439   0.368   9.184   9.991
   16        0.443   0.372   9.179   9.994
   17        0.439   0.368   9.184   9.991
   18        0.439   0.368   9.184   9.991
   19        0.442   0.377   9.178   9.997
   20        0.450   0.385   9.178  10.014
   21        0.450   0.385   9.178  10.014
   22        0.439   0.369   9.186   9.994
   23        0.450   0.385   9.178  10.014
   24        0.439   0.369   9.186   9.994
   25        0.442   0.377   9.178   9.997
   26        0.442   0.377   9.178   9.997
   27        0.439   0.369   9.186   9.994
   28        0.457   0.289   9.197   9.943
   29        0.435   0.302   9.198   9.934
   30        0.435   0.302   9.198   9.934
   31        0.435   0.302   9.198   9.934
   32        0.435   0.302   9.198   9.934
   33        0.435   0.302   9.198   9.934
   34        0.435   0.302   9.198   9.934
   35        0.453   0.292   9.193   9.938
   36        0.829   0.851   8.008   9.688
   37        1.350   2.110   0.000   3.460
tot         17.701  14.641 329.522 361.864

  FORCE on cell =-STRESS in cart. coord.  units (eV):
  Direction    XX          YY          ZZ          XY          YZ          ZX
  Alpha Z   895.10121   895.10121   895.10121
  Ewald  174436.99726174436.99681************     0.00039     0.00011     0.00019
  Hartree187515.05257187515.05253************     0.00004     0.00006     0.00007
  E(xc)   -2312.78170 -2312.78123 -2316.88641    -0.00041    -0.00003    -0.00006
  Local  ************************375360.02475     0.01869    -0.00057    -0.00096
  n-local  -756.46690  -741.77811  -759.87076     8.21105    -0.07351     0.33636
  augment  3360.42495  3360.44506  3371.79667    -0.01741     0.00023     0.00040
  Kinetic  3370.66686  3371.89602  3378.72768     1.94980     1.93602    -1.16349
  Fock        0.00000     0.00000     0.00000     0.00000     0.00000     0.00000
  Total      -1.38326    -1.38326     3.47313     0.00000     0.00000    -0.00000
  in kB      -2.02957    -2.02957     5.09589     0.00000     0.00000    -0.00000

 VOLUME and BASIS-vectors are now :
  energy-cutoff  :      500.00
  volume of cell :     1091.97
      direct lattice vectors                 reciprocal lattice vectors
     7.696786404  0.000000000  0.000000000     0.129924354 -0.075011849  0.000000000
     3.848392758  6.665612809  0.000000000     0.000000000  0.150023716  0.000000000
     0.000000000  0.000000000 21.284399033     0.000000000  0.000000000  0.046982769

  length of vectors
     7.696786404  7.696786404 21.284399033     0.150023716  0.150023716  0.046982769

 FORCES acting on ions
    electron-ion (+dipol)            ewald-force                    non-local-force                 convergence-correction
   -.416E-04 0.205E-06 0.350E+04   0.579E-04 -.441E-05 -.350E+04   0.224E-17 0.360E-17 -.277E+01   -.327E-03 -.156E-03 -.569E+00
   -.233E+00 0.154E+00 0.350E+04   0.103E+00 0.450E-01 -.350E+04   0.519E-01 -.607E-03 -.194E+01   0.783E-01 -.171E+00 -.475E+00
   0.233E+00 0.154E+00 0.350E+04   -.103E+00 0.450E-01 -.350E+04   -.519E-01 -.607E-03 -.194E+01   -.775E-01 -.169E+00 -.474E+00
   0.164E-01 -.279E+00 0.350E+04   0.904E-01 0.668E-01 -.350E+04   0.254E-01 0.452E-01 -.194E+01   -.109E+00 0.153E+00 -.475E+00
   -.640E-04 -.472E-05 0.350E+04   0.116E-03 -.101E-04 -.350E+04   0.103E-17 -.105E-17 -.183E+01   0.121E-01 0.738E-02 -.440E+00
   -.163E-01 -.279E+00 0.350E+04   -.905E-01 0.666E-01 -.350E+04   -.254E-01 0.452E-01 -.194E+01   0.107E+00 0.155E+00 -.474E+00
   0.250E+00 0.125E+00 0.350E+04   -.126E-01 -.112E+00 -.350E+04   -.265E-01 -.446E-01 -.194E+01   -.185E+00 0.172E-01 -.474E+00
   -.250E+00 0.125E+00 0.350E+04   0.123E-01 -.112E+00 -.350E+04   0.265E-01 -.446E-01 -.194E+01   0.188E+00 0.158E-01 -.474E+00
   -.144E-03 -.330E-04 0.350E+04   0.263E-03 0.206E-04 -.350E+04   0.620E-18 0.686E-19 -.232E+01   -.131E-01 -.675E-02 -.444E+00
   0.218E+01 0.126E+01 0.120E+04   -.177E+01 -.102E+01 -.120E+04   -.375E+00 -.217E+00 -.115E+01   -.340E-01 -.196E-01 -.135E+00
   -.917E-04 -.127E+01 0.120E+04   0.191E-03 0.138E+01 -.120E+04   -.208E-08 0.313E-01 -.455E+00   0.118E-01 -.169E+00 -.142E+00
   -.218E+01 0.126E+01 0.120E+04   0.177E+01 -.102E+01 -.120E+04   0.375E+00 -.217E+00 -.115E+01   0.325E-01 -.191E-01 -.136E+00
   -.110E+01 0.633E+00 0.120E+04   0.119E+01 -.689E+00 -.120E+04   0.271E-01 -.156E-01 -.455E+00   -.140E+00 0.955E-01 -.142E+00
   0.110E+01 0.633E+00 0.120E+04   -.119E+01 -.689E+00 -.120E+04   -.271E-01 -.156E-01 -.455E+00   0.163E+00 0.937E-01 -.145E+00
   -.143E-03 -.349E+00 0.120E+04   0.298E-03 0.117E+00 -.120E+04   -.375E-08 0.563E-01 -.787E+00   -.298E-02 0.167E+00 -.217E+00
   -.919E-04 -.252E+01 0.120E+04   0.186E-03 0.205E+01 -.120E+04   -.289E-07 0.433E+00 -.115E+01   -.117E-02 0.365E-01 -.136E+00
   -.302E+00 0.174E+00 0.120E+04   0.101E+00 -.580E-01 -.120E+04   0.487E-01 -.281E-01 -.787E+00   0.144E+00 -.859E-01 -.217E+00
   0.303E+00 0.175E+00 0.120E+04   -.101E+00 -.581E-01 -.120E+04   -.487E-01 -.281E-01 -.787E+00   -.142E+00 -.836E-01 -.214E+00
   -.524E-04 0.826E+00 -.112E+04   0.681E-04 -.940E+00 0.112E+04   -.489E-08 0.734E-01 0.577E+00   0.106E-02 0.150E-01 0.264E+00
   -.227E+02 -.131E+02 -.113E+04   0.234E+02 0.135E+02 0.112E+04   -.542E+00 -.313E+00 0.416E+00   -.380E-01 -.221E-01 0.341E+00
   0.227E+02 -.131E+02 -.113E+04   -.234E+02 0.135E+02 0.112E+04   0.542E+00 -.313E+00 0.416E+00   0.170E-01 -.245E-01 0.340E+00
   -.125E+02 0.721E+01 -.113E+04   0.122E+02 -.705E+01 0.112E+04   0.329E+00 -.190E+00 0.120E+01   -.374E-01 0.348E-01 0.232E+00
   -.801E-04 0.263E+02 -.113E+04   0.147E-03 -.270E+02 0.112E+04   -.417E-07 0.626E+00 0.416E+00   -.139E-01 0.257E-01 0.340E+00
   0.125E+02 0.721E+01 -.113E+04   -.122E+02 -.705E+01 0.112E+04   -.329E+00 -.190E+00 0.120E+01   0.610E-01 0.344E-01 0.232E+00
   -.715E+00 -.413E+00 -.112E+04   0.814E+00 0.470E+00 0.112E+04   -.636E-01 -.367E-01 0.577E+00   -.147E-01 -.847E-02 0.264E+00
   0.716E+00 -.413E+00 -.112E+04   -.814E+00 0.470E+00 0.112E+04   0.636E-01 -.367E-01 0.577E+00   0.138E-01 -.636E-02 0.264E+00
   -.125E-03 -.144E+02 -.113E+04   0.246E-03 0.141E+02 0.112E+04   -.253E-07 0.380E+00 0.120E+01   0.113E-01 -.498E-01 0.232E+00
   -.350E-04 0.181E-04 -.343E+04   0.383E-04 -.335E-04 0.343E+04   -.368E-17 -.745E-18 0.207E+01   -.155E-03 -.381E-04 0.395E+00
   -.542E+01 -.650E+01 -.343E+04   0.424E+01 0.420E+01 0.342E+04   0.103E+01 0.205E+01 0.259E+01   -.648E-02 -.291E-01 0.344E+00
   0.542E+01 -.650E+01 -.343E+04   -.424E+01 0.420E+01 0.342E+04   -.103E+01 0.205E+01 0.259E+01   0.705E-02 -.278E-01 0.343E+00
   -.834E+01 -.144E+01 -.343E+04   0.575E+01 0.157E+01 0.342E+04   0.228E+01 -.134E+00 0.259E+01   -.283E-01 0.885E-02 0.344E+00
   0.834E+01 -.144E+01 -.343E+04   -.575E+01 0.157E+01 0.342E+04   -.228E+01 -.134E+00 0.259E+01   0.281E-01 0.961E-02 0.345E+00
   -.292E+01 0.794E+01 -.343E+04   0.152E+01 -.577E+01 0.342E+04   0.126E+01 -.191E+01 0.259E+01   -.206E-01 0.200E-01 0.343E+00
   0.292E+01 0.795E+01 -.343E+04   -.152E+01 -.577E+01 0.342E+04   -.126E+01 -.191E+01 0.259E+01   0.231E-01 0.195E-01 0.345E+00
   -.164E-03 -.318E-04 -.343E+04   0.258E-03 0.326E-05 0.343E+04   -.435E-17 -.181E-17 0.208E+01   -.124E-01 -.634E-02 0.434E+00
   -.146E-04 -.323E-04 -.292E+04   0.123E-03 0.248E-04 0.292E+04   0.456E-17 -.814E-18 -.182E+01   0.238E-02 0.145E-02 0.345E+00
   0.105E-03 -.512E-04 -.186E+04   0.136E-04 0.628E-05 0.188E+04   0.311E-18 0.103E-17 -.231E+02   0.148E-02 0.896E-03 0.933E-01
   -.111E-03 -.573E-04 0.244E+02   0.167E-12 0.238E-12 0.125E-10   0.889E-15 0.887E-15 -.245E+02   0.267E-01 0.124E-01 0.563E-01

 POSITION                                       TOTAL-FORCE (eV/Angst)
      0.00000      0.00000      5.37156         0.000000      0.000000      0.026776
      2.56560      0.00000      5.37156         0.000194      0.027854      0.062184
      5.13119      0.00000      5.37156        -0.000194      0.027854      0.062184
      1.28280      2.22187      5.37156         0.024219     -0.013759      0.062184
      3.84839      2.22187      5.37156         0.000000      0.000000      0.067125
      6.41399      2.22187      5.37156        -0.024219     -0.013759      0.062184
      2.56560      4.44374      5.37156         0.024025     -0.014095      0.062184
      5.13119      4.44374      5.37156        -0.024025     -0.014095      0.062184
      7.69679      4.44374      5.37156         0.000000      0.000000      0.044607
      1.28280      0.74062      7.46636         0.000297      0.000172     -0.074551
      3.84839      0.74062      7.46636         0.000000     -0.031036     -0.071927
      6.41399      0.74062      7.46636        -0.000297      0.000172     -0.074551
      2.56560      2.96249      7.46636        -0.026878      0.015518     -0.071927
      5.13119      2.96249      7.46636         0.026878      0.015518     -0.071927
      7.69679      2.96249      7.46636         0.000000     -0.010150     -0.054238
      3.84839      5.18437      7.46636         0.000000     -0.000343     -0.074551
      6.41399      5.18437      7.46636        -0.008790      0.005075     -0.054238
      8.97958      5.18437      7.46636         0.008790      0.005075     -0.054238
      7.69679      1.48680      9.55287         0.000000     -0.024691     -0.027082
      2.54973      1.47208      9.52995         0.062061      0.035831     -0.203906
      5.14706      1.47208      9.52995        -0.062061      0.035831     -0.203906
      8.97744      3.70436      9.55084         0.006344     -0.003663     -0.020809
      3.84839      3.72144      9.52995         0.000000     -0.071662     -0.203906
      6.41613      3.70436      9.55084        -0.006344     -0.003663     -0.020809
     10.25757      5.92221      9.55287         0.021383      0.012346     -0.027082
      5.13600      5.92221      9.55287        -0.021383      0.012346     -0.027082
      7.69679      5.92251      9.55084        -0.000000      0.007325     -0.020809
      0.00000      0.00000     11.61595         0.000000      0.000000      0.001428
      6.40108      6.64688     11.64473        -0.161958     -0.291827     -0.072740
      8.99249      6.64688     11.64473         0.161958     -0.291827     -0.072740
      8.95691      2.22006     11.64473        -0.333709      0.005654     -0.072740
      6.43666      2.22006     11.64473         0.333709      0.005654     -0.072740
     10.25261      4.46428     11.64473        -0.171751      0.286173     -0.072740
      5.14096      4.46428     11.64473         0.171751      0.286173     -0.072740
      7.69679      4.44374     11.61500         0.000000      0.000000      0.026156
      3.84839      2.22187     11.65010         0.000000      0.000000      1.220640
      3.84839      2.22187     13.43184         0.000000      0.000000      0.034149
    total drift:                                0.026548      0.012319      0.008092

  FREE ENERGIE OF THE ION-ELECTRON SYSTEM (eV)
  free  energy   TOTEN  =      -134.28122160 eV

  energy  without entropy=     -134.28122160  energy(sigma->0) =     -134.28122160

 stress matrix after NEB project (eV)
     -1.38326      0.00000     -0.00000
      0.00000     -1.38326      0.00000
     -0.00000      0.00000      3.47313
  FORCES: max atom, RMS     0.034149    0.005614
  FORCE total and by dimension    0.034149    0.034149
  Stress total and by dimension    3.986157    3.473126
|           W    W    AA    RRRRR   N    N  II  N    N   GGGG   !!!           |
|           W    W   A  A   R    R  NN   N  II  NN   N  G    G  !!!           |
|           W    W  A    A  R    R  N N  N  II  N N  N  G       !!!           |
|           W WW W  AAAAAA  RRRRR   N  N N  II  N  N N  G  GGG   !            |
|           WW  WW  A    A  R   R   N   NN  II  N   NN  G    G                |
|           W    W  A    A  R    R  N    N  II  N    N   GGGG   !!!           |
|     Tetrahedron method does not include variations of the Fermi             |
|     occupations, so forces and stress will be inaccurate. We suggest        |
|     using a different smearing scheme ISMEAR = 1 or 2 for metals in         |
|     relaxations.                                                            |

 total charge

# of ion       s       p       d       tot
    1        0.449   0.283   9.190   9.922
    2        0.449   0.284   9.187   9.921
    3        0.449   0.284   9.187   9.921
    4        0.449   0.284   9.187   9.921
    5        0.448   0.287   9.185   9.920
    6        0.449   0.284   9.187   9.921
    7        0.449   0.284   9.187   9.921
    8        0.449   0.284   9.187   9.921
    9        0.447   0.284   9.184   9.915
   10        0.443   0.372   9.179   9.994
   11        0.441   0.372   9.180   9.993
   12        0.443   0.372   9.179   9.994
   13        0.441   0.372   9.180   9.993
   14        0.441   0.372   9.180   9.993
   15        0.439   0.368   9.184   9.991
   16        0.443   0.372   9.179   9.994
   17        0.439   0.368   9.184   9.991
   18        0.439   0.368   9.184   9.991
   19        0.442   0.377   9.178   9.997
   20        0.450   0.385   9.178  10.014
   21        0.450   0.385   9.178  10.014
   22        0.439   0.369   9.186   9.994
   23        0.450   0.385   9.178  10.014
   24        0.439   0.369   9.186   9.994
   25        0.442   0.377   9.178   9.997
   26        0.442   0.377   9.178   9.997
   27        0.439   0.369   9.186   9.994
   28        0.457   0.289   9.197   9.943
   29        0.435   0.302   9.198   9.934
   30        0.435   0.302   9.198   9.934
   31        0.435   0.302   9.198   9.934
   32        0.435   0.302   9.198   9.934
   33        0.435   0.302   9.198   9.934
   34        0.435   0.302   9.198   9.934
   35        0.453   0.292   9.193   9.938
   36        0.829   0.851   8.008   9.688
   37        1.350   2.110   0.000   3.460
tot         17.701  14.641 329.522 361.864

 BZINTS: Fermi energy:    0.118152;  400.000000 electrons
         Band energy:-0.113037E+04;  BLOECHL correction:   -0.048990