 vasp.6.2.0 18Jan21 (build Jun 12 2021 23:27:24) complex

 executed on             LinuxIFC date 2022.05.30  16:03:16

 INCAR:
   ISMEAR = -5
   SIGMA = 0.1
   ISPIN = 1
   EDIFF = 1.d-5
   EDIFFG = -0.01
   NSW = 0
   NELM = 150
   ENCUT = 500
   ISIF = 2
   IBRION = 2
   LREAL = Auto
   ALGO = Fast
   ICHARG = 11
   LORBIT = 10
   LCHARG = .F.
   LWAVE = .F.

 POTCAR:    PAW_PBE Au 04Oct2007
 POTCAR:    PAW_PBE Ni 02Aug2007
 POTCAR:    PAW_PBE O 08Apr2002
|           W    W    AA    RRRRR   N    N  II  N    N   GGGG   !!!           |
|           W    W   A  A   R    R  NN   N  II  NN   N  G    G  !!!           |
|           W    W  A    A  R    R  N N  N  II  N N  N  G       !!!           |
|           W WW W  AAAAAA  RRRRR   N  N N  II  N  N N  G  GGG   !            |
|           WW  WW  A    A  R   R   N   NN  II  N   NN  G    G                |
|           W    W  A    A  R    R  N    N  II  N    N   GGGG   !!!           |
|     For optimal performance we recommend to set                             |
|       NCORE = 2 up to number-of-cores-per-socket                            |
|     This setting can greatly improve the performance of VASP for DFT.       |
|     The default, NCORE=1 might be grossly inefficient on modern             |
|     multi-core architectures or massively parallel machines. Do your        |
|     Unfortunately you need to use the default for GW and RPA                |
|     calculations (for HF NCORE is supported but not extensively tested      |
|     yet).                                                                   |

 POTCAR:    PAW_PBE Au 04Oct2007
   VRHFIN =Au: s1d10

   TITEL  = PAW_PBE Au 04Oct2007
   POMASS =  196.966; ZVAL   =   11.000    mass and valenz
   ENMAX  =  229.943; ENMIN  =  172.457 eV

 POTCAR:    PAW_PBE Ni 02Aug2007
   VRHFIN =Ni:

   TITEL  = PAW_PBE Ni 02Aug2007
   POMASS =   58.690; ZVAL   =   10.000    mass and valenz
   ENMAX  =  269.532; ENMIN  =  202.149 eV

 POTCAR:    PAW_PBE O 08Apr2002
   VRHFIN =O: s2p4

   TITEL  = PAW_PBE O 08Apr2002
   POMASS =   16.000; ZVAL   =    6.000    mass and valenz
   ENMAX  =  400.000; ENMIN  =  300.000 eV

 Optimization of the real space projectors (new method)

 maximal supplied QI-value         = 15.12
 optimisation between [QCUT,QGAM] = [ 11.34, 22.83] = [ 36.00,145.93] Ry
 Optimized for a Real-space Cutoff    1.39 Angstroem

   l    n(q)    QCUT    max X(q) W(low)/X(q) W(high)/X(q)  e(spline)
   2      9    11.338    60.898    0.39E-03    0.42E-03    0.21E-06
   2      9    11.338    58.894    0.40E-03    0.42E-03    0.22E-06
   0      9    11.338   109.617    0.13E-03    0.20E-04    0.13E-06
   0      9    11.338    75.026    0.13E-03    0.20E-04    0.13E-06
   1      9    11.338    16.344    0.33E-04    0.24E-03    0.18E-06
   1      9    11.338    10.160    0.26E-04    0.19E-03    0.15E-06
 Optimization of the real space projectors (new method)

[...]

   l    n(q)    QCUT    max X(q) W(low)/X(q) W(high)/X(q)  e(spline)
   2      8    11.376    60.317    0.19E-03    0.33E-04    0.13E-06
   2      8    11.376    55.921    0.20E-03    0.34E-04    0.14E-06
   0      9    11.376    51.690    0.82E-04    0.12E-03    0.20E-06
   0      9    11.376    30.015    0.74E-04    0.11E-03    0.18E-06
   1      9    11.376    18.849    0.39E-03    0.12E-03    0.13E-06
   1      9    11.376    14.624    0.33E-03    0.10E-03    0.11E-06
 Optimization of the real space projectors (new method)

 maximal supplied QI-value         = 24.76
 optimisation between [QCUT,QGAM] = [ 11.39, 22.77] = [ 36.31,145.25] Ry
 Optimized for a Real-space Cutoff    1.00 Angstroem

   l    n(q)    QCUT    max X(q) W(low)/X(q) W(high)/X(q)  e(spline)
   0      7    11.387    20.381    0.39E-03    0.13E-02    0.15E-06
   0      7    11.387    15.268    0.42E-03    0.14E-02    0.17E-06
   1      6    11.387     5.964    0.41E-03    0.11E-02    0.17E-06
   1      6    11.387     5.382    0.39E-03    0.87E-03    0.15E-06
  PAW_PBE Au 04Oct2007                  :
  PAW_PBE Ni 02Aug2007                  :
  PAW_PBE O 08Apr2002                   :

 POSCAR: Au-Ni-O2
  positions in direct lattice
  velocities in cartesian coordinates
 exchange correlation table for  LEXCH =        8
   RHO(1)=    0.500       N(1)  =     2000
   RHO(2)=  100.500       N(2)  =     4000

 VTST: version 3.2, (02/03/18)

 CHAIN: initializing optimizer

 OPT: Using VASP Conjugate-Gradient optimizer
 CHAIN: Read ICHAIN            0

 POSCAR: Au-Ni-O2
  positions in direct lattice
  velocities in cartesian coordinates

 ion  position               nearest neighbor table
   1  0.000  0.000  0.217-  16 2.94  12 2.94   6 2.94   8 2.94   7 2.94   3 2.94  10 2.94   4 2.94
                             2 2.94
   2  0.333  0.000  0.217-   9 2.94  11 2.94  17 2.94  10 2.94   8 2.94   4 2.94   5 2.94   1 2.94
                             3 2.94
   3  0.667  0.000  0.217-   7 2.94  18 2.94  12 2.94   1 2.94  11 2.94   5 2.94   6 2.94   9 2.94
                             2 2.94
   4  0.000  0.333  0.217-  10 2.94   6 2.94   5 2.94  13 2.94   2 2.94  15 2.94   9 2.94   1 2.94
                             7 2.94
   5  0.333  0.333  0.217-  13 2.94   7 2.94  11 2.94   4 2.94   2 2.94  14 2.94   3 2.94   8 2.94
                             6 2.94
   6  0.667  0.333  0.217-  15 2.94  14 2.94   1 2.94  12 2.94   4 2.94   9 2.94   8 2.94   3 2.94
                             5 2.94
   7  0.000  0.667  0.217-  18 2.94   3 2.94  16 2.94   5 2.94   1 2.94  13 2.94   8 2.94   4 2.94
                             9 2.94
   8  0.333  0.667  0.217-   9 2.94  17 2.94   1 2.94   2 2.94  14 2.94  16 2.94   6 2.94   7 2.94
                             5 2.94
   9  0.667  0.667  0.217-   2 2.94   8 2.94  17 2.94   6 2.94  15 2.94   4 2.94   3 2.94  18 2.94
                             7 2.94
  10  0.111  0.111  0.316-  20 2.93  26 2.93  19 2.93  11 2.94  17 2.94   2 2.94   4 2.94   1 2.94
                            12 2.94  16 2.94  13 2.94  15 2.94
  11  0.444  0.111  0.316-  20 2.92  21 2.92  27 2.93  13 2.94   2 2.94  10 2.94  17 2.94   5 2.94
                             3 2.94  18 2.94  14 2.94  12 2.94
  12  0.778  0.111  0.316-  21 2.93  25 2.93  19 2.93  16 2.94  18 2.94   1 2.94  14 2.94  15 2.94
                             3 2.94   6 2.94  10 2.94  11 2.94
  13  0.111  0.444  0.316-  23 2.92  20 2.92  22 2.93   5 2.94  18 2.94  11 2.94   7 2.94   4 2.94
                            16 2.94  10 2.94  14 2.94  15 2.94
  14  0.444  0.444  0.316-  21 2.92  23 2.92  24 2.93  15 2.94   6 2.94  12 2.94   8 2.94  17 2.94
                             5 2.94  16 2.94  13 2.94  11 2.94
  15  0.778  0.444  0.316-  24 2.92  22 2.92  19 2.93  14 2.94   6 2.94  17 2.94  12 2.94   9 2.94
                             4 2.94  10 2.94  13 2.94  18 2.94
  16  0.111  0.778  0.316-  23 2.93  25 2.93  26 2.93  18 2.94  12 2.94   7 2.94   1 2.94   8 2.94
                            13 2.94  10 2.94  14 2.94  17 2.94
  17  0.444  0.778  0.316-  27 2.92  24 2.92  26 2.93   9 2.94  15 2.94   2 2.94  10 2.94  11 2.94
                             8 2.94  14 2.94  16 2.94  18 2.94
  18  0.778  0.778  0.316-  22 2.92  27 2.92  25 2.93  16 2.94   7 2.94  13 2.94  12 2.94   3 2.94
                            11 2.94   9 2.94  15 2.94  17 2.94
  19  0.889  0.222  0.414-  10 2.93  12 2.93  15 2.93  26 2.93  25 2.93  24 2.94  22 2.94  21 2.95
                            20 2.95  28 2.95  32 2.96  31 2.96
  20  0.223  0.223  0.414-  36 2.70  29 2.91  31 2.91  11 2.92  13 2.92  23 2.92  21 2.92  10 2.93
                            27 2.95  22 2.95  26 2.95  19 2.95
  21  0.554  0.223  0.414-  36 2.70  30 2.91  32 2.91  14 2.92  11 2.92  20 2.92  23 2.92  12 2.93
                            27 2.95  24 2.95  25 2.95  19 2.95
  22  0.888  0.556  0.414-  18 2.92  15 2.92  24 2.92  27 2.92  13 2.93  25 2.94  19 2.94  33 2.94
                            31 2.94  23 2.95  20 2.95  35 2.96
  23  0.223  0.554  0.414-  36 2.70  33 2.91  34 2.91  13 2.92  14 2.92  20 2.92  21 2.92  16 2.93
                            22 2.95  24 2.95  25 2.95  26 2.95
  24  0.556  0.556  0.414-  15 2.92  17 2.92  27 2.92  22 2.92  14 2.93  26 2.94  19 2.94  32 2.94
                            34 2.94  21 2.95  23 2.95  35 2.96
  25  0.889  0.889  0.414-  16 2.93  12 2.93  18 2.93  19 2.93  26 2.93  22 2.94  27 2.94  23 2.95
                            21 2.95  28 2.95  33 2.96  30 2.96
  26  0.222  0.889  0.414-  10 2.93  16 2.93  17 2.93  19 2.93  25 2.93  27 2.94  24 2.94  20 2.95
                            23 2.95  28 2.95  29 2.96  34 2.96
  27  0.556  0.888  0.414-  17 2.92  18 2.92  24 2.92  22 2.92  11 2.93  26 2.94  25 2.94  29 2.94
                            30 2.94  20 2.95  21 2.95  35 2.96
  28  0.000  0.000  0.514-  25 2.95  19 2.95  26 2.95  34 2.97  32 2.97  33 2.97  30 2.97  31 2.97
                            29 2.97
  29  0.334  0.007  0.512-  30 2.87  31 2.88  36 2.89  20 2.91  27 2.94  26 2.96  35 2.97  28 2.97
                            34 3.06
  30  0.660  0.007  0.512-  29 2.87  32 2.88  36 2.89  21 2.91  27 2.94  25 2.96  35 2.97  28 2.97
                            33 3.06
  31  0.007  0.334  0.512-  37 2.68  33 2.87  29 2.88  36 2.89  20 2.91  22 2.94  19 2.96  35 2.97
                            28 2.97  32 3.06
  32  0.660  0.334  0.512-  38 2.68  34 2.87  30 2.88  36 2.89  21 2.91  24 2.94  19 2.96  35 2.97
                            28 2.97  31 3.06
  33  0.007  0.660  0.512-  31 2.87  34 2.88  36 2.89  23 2.91  22 2.94  25 2.96  35 2.97  28 2.97
                            30 3.06
  34  0.334  0.660  0.512-  32 2.87  33 2.88  36 2.89  23 2.91  24 2.94  26 2.96  35 2.97  28 2.97
                            29 3.06
  35  0.667  0.667  0.514-  24 2.96  27 2.96  22 2.96  29 2.97  34 2.97  32 2.97  31 2.97  30 2.97
                            33 2.97
  36  0.333  0.333  0.500-  37 1.96  38 1.96  20 2.70  23 2.70  21 2.70  33 2.89  31 2.89  29 2.89
                            30 2.89  34 2.89  32 2.89
  37  0.256  0.333  0.576-  38 1.37  36 1.96  31 2.68
  38  0.411  0.333  0.576-  37 1.37  36 1.96  32 2.68

  LATTYP: Found a hexagonal cell.
 ALAT       =     8.8135128021
 C/A-ratio  =     2.7586513333

  Lattice vectors:

 A1 = (  -4.4067569092,  -7.6327256898,   0.0000000000)
 A2 = (   8.8135128021,   0.0000000000,   0.0000000000)
 A3 = (   0.0000000000,   0.0000000000,  24.3134088421)

Analysis of symmetry for initial positions (statically):
 Subroutine PRICEL returns:
 Original cell was already a primitive cell.

 Routine SETGRP: Setting up the symmetry group for a
 hexagonal supercell.

 Subroutine GETGRP returns: Found  2 space group operations
 (whereof  2 operations were pure point group operations)
 out of a pool of 24 trial point group operations.

The static configuration has the point symmetry C_1h.

Analysis of symmetry for dynamics (positions and initial velocities):
 Subroutine PRICEL returns:
 Original cell was already a primitive cell.

[...]

The dynamic configuration has the point symmetry C_1h.

Analysis of constrained symmetry for selective dynamics:
 Subroutine PRICEL returns:
 Original cell was already a primitive cell.

 Routine SETGRP: Setting up the symmetry group for a
[...]
     33      -5.3779      2.00000
     34      -5.2947      2.00000
     35      -5.2839      2.00000
     36      -5.2699      2.00000
     37      -5.2620      2.00000
     38      -5.2473      2.00000
     39      -5.0980      2.00000
     40      -5.0745      2.00000
     41      -5.0670      2.00000
     42      -5.0327      2.00000
     43      -5.0266      2.00000
     44      -4.9907      2.00000
     45      -4.9212      2.00000
     46      -4.8851      2.00000
     47      -4.8207      2.00000
     48      -4.8078      2.00000
     49      -4.8004      2.00000
     50      -4.7866      2.00000
     51      -4.6916      2.00000
     52      -4.6780      2.00000
     53      -4.6407      2.00000
     54      -4.6349      2.00000
     55      -4.6214      2.00000
     56      -4.6187      2.00000
     57      -4.5960      2.00000
     58      -4.5638      2.00000
     59      -4.5209      2.00000
     60      -4.4852      2.00000
[...]
    238       5.5598      0.00000
    239       5.7152      0.00000
    240       5.9289      0.00000
    241       5.9598      0.00000
    242       5.9879      0.00000
    243       6.0287      0.00000
    244       6.0804      0.00000
    245       6.2559      0.00000
    246       6.3231      0.00000
    247       6.3485      0.00000
    248       6.3817      0.00000
    249       6.4815      0.00000
    250       6.6450      0.00000
    251       6.6917      0.00000
    252       6.8009      0.00000

 soft charge-density along one line, spin component           1
         0         1         2         3         4         5         6         7         8         9
 total charge-density along one line

------------------------ aborting loop because EDIFF is reached ----------------------------------------

 total charge

# of ion       s       p       d       tot
    1        0.542   0.239   8.765   9.546
    2        0.545   0.240   8.764   9.549
    3        0.545   0.240   8.764   9.549
    4        0.545   0.240   8.765   9.550
    5        0.542   0.240   8.766   9.549
    6        0.545   0.240   8.765   9.550
    7        0.544   0.240   8.764   9.548
    8        0.544   0.240   8.764   9.548
    9        0.542   0.240   8.766   9.549
   10        0.520   0.307   8.773   9.600
   11        0.522   0.307   8.777   9.606
   12        0.520   0.307   8.773   9.600
   13        0.520   0.308   8.776   9.605
   14        0.520   0.308   8.776   9.605
   15        0.515   0.311   8.772   9.598
   16        0.520   0.307   8.774   9.601
   17        0.515   0.310   8.775   9.599
   18        0.515   0.310   8.775   9.599
   19        0.514   0.302   8.779   9.595
   20        0.535   0.327   8.754   9.617
   21        0.535   0.327   8.754   9.617
   22        0.513   0.309   8.775   9.598
   23        0.532   0.327   8.761   9.620
   24        0.513   0.309   8.775   9.598
   25        0.515   0.302   8.777   9.595
   26        0.515   0.302   8.777   9.595
   27        0.514   0.310   8.772   9.596
   28        0.537   0.225   8.768   9.530
   29        0.539   0.227   8.778   9.544
   30        0.539   0.227   8.778   9.544
   31        0.529   0.231   8.785   9.544
   32        0.529   0.231   8.785   9.544
   33        0.538   0.227   8.780   9.545
   34        0.538   0.227   8.780   9.545
   35        0.539   0.224   8.770   9.533
   36        0.358   0.395   8.325   9.078
   37        1.609   3.254   0.000   4.863
   38        1.609   3.254   0.000   4.863
tot         22.109  16.475 315.329 353.913

  FORCE on cell =-STRESS in cart. coord.  units (eV):
  Direction    XX          YY          ZZ          XY          YZ          ZX
  Alpha Z   946.45894   946.45894   946.45894
  Ewald  154227.73049153791.86489************    -0.00030     0.42347    -0.00009
  Hartree162875.11141162658.73840************     0.00002     0.21915    -0.00002
  E(xc)   -1841.40270 -1842.54921 -1848.42323    -0.00001     0.01147     0.00000
  Local  ************************328864.10832     0.00296    -0.68683    -0.00005
  n-local  -114.23735  -117.26084   -96.20864     4.07998    -0.29078     0.29552
  augment  2552.73933  2566.09802  2563.94140    -0.00154    -0.00826     0.00002
  Kinetic  5662.39136  5718.27382  5728.59920     0.72216     0.24791     0.14808
  Fock        0.00000     0.00000     0.00000     0.00000     0.00000     0.00000
  Total     -19.26829   -20.15303    -1.20875    -0.00000    -0.08386    -0.00000
  in kB     -18.87466   -19.74133    -1.18405    -0.00000    -0.08215    -0.00000

 VOLUME and BASIS-vectors are now :
  energy-cutoff  :      500.00
  volume of cell :     1635.59
      direct lattice vectors                 reciprocal lattice vectors
     8.813512802  0.000000000  0.000000000     0.113462137 -0.065507406  0.000000000
     4.406756909  7.632725690  0.000000000     0.000000000  0.131014796  0.000000000
     0.000000000  0.000000000 24.313408842     0.000000000  0.000000000  0.041129568

  length of vectors
     8.813512802  8.813512802 24.313408842     0.131014796  0.131014796  0.041129568

 FORCES acting on ions
    electron-ion (+dipol)            ewald-force                    non-local-force                 convergence-correction
   -.200E-04 0.312E-01 0.270E+04   0.519E-04 -.274E-01 -.270E+04   0.456E-09 0.685E-02 -.840E+00   -.261E-03 -.102E-01 -.503E+00
   0.681E+00 0.757E+00 0.270E+04   -.661E+00 -.735E+00 -.270E+04   -.452E-02 -.121E-01 -.329E+00   -.958E-02 -.246E-02 -.519E+00
   -.681E+00 0.757E+00 0.270E+04   0.661E+00 -.735E+00 -.270E+04   0.452E-02 -.121E-01 -.329E+00   0.992E-02 -.472E-03 -.518E+00
   0.885E+00 0.210E+00 0.270E+04   -.944E+00 -.219E+00 -.270E+04   0.426E-01 0.157E-02 -.360E+00   0.186E-01 -.161E-03 -.535E+00
   0.857E-05 0.213E-01 0.270E+04   0.951E-04 -.193E-03 -.270E+04   -.126E-08 -.189E-01 -.354E+00   0.434E-02 -.903E-03 -.492E+00
   -.885E+00 0.210E+00 0.270E+04   0.943E+00 -.219E+00 -.270E+04   -.426E-01 0.157E-02 -.360E+00   -.202E-01 0.761E-03 -.534E+00
   0.327E+00 -.949E+00 0.270E+04   -.281E+00 0.954E+00 -.270E+04   -.201E-01 -.207E-01 -.362E+00   -.654E-02 0.152E-01 -.566E+00
   -.327E+00 -.950E+00 0.270E+04   0.281E+00 0.954E+00 -.270E+04   0.201E-01 -.207E-01 -.362E+00   0.842E-02 0.140E-01 -.566E+00
   0.197E-04 -.298E-02 0.270E+04   0.166E-03 0.277E-01 -.270E+04   -.172E-08 -.259E-01 -.470E+00   -.462E-02 -.330E-02 -.526E+00
   0.580E+01 0.352E+01 0.966E+03   -.547E+01 -.338E+01 -.965E+03   -.258E+00 -.112E+00 -.636E+00   -.265E-01 -.942E-02 -.311E+00
   0.184E-04 0.817E+01 0.978E+03   0.147E-03 -.813E+01 -.977E+03   -.361E-08 -.542E-01 -.525E+00   0.417E-02 -.179E-01 -.232E+00
   -.580E+01 0.352E+01 0.966E+03   0.547E+01 -.338E+01 -.965E+03   0.258E+00 -.112E+00 -.636E+00   0.249E-01 -.785E-02 -.310E+00
   0.681E+01 -.401E+01 0.978E+03   -.683E+01 0.410E+01 -.977E+03   0.998E-02 -.375E-01 -.463E+00   0.164E-02 -.445E-01 -.257E+00
   -.681E+01 -.401E+01 0.978E+03   0.683E+01 0.410E+01 -.977E+03   -.998E-02 -.375E-01 -.463E+00   0.637E-02 -.453E-01 -.257E+00
   0.306E-04 0.141E+01 0.967E+03   0.237E-03 -.139E+01 -.966E+03   0.259E-09 0.390E-02 -.521E+00   -.262E-02 -.254E-01 -.354E+00
   -.220E-04 -.674E+01 0.966E+03   0.163E-03 0.638E+01 -.965E+03   0.153E-07 0.230E+00 -.638E+00   0.190E-03 0.801E-01 -.339E+00
   0.136E+01 -.917E+00 0.966E+03   -.133E+01 0.849E+00 -.966E+03   -.383E-01 0.310E-01 -.423E+00   -.436E-02 0.442E-01 -.327E+00
   -.136E+01 -.917E+00 0.966E+03   0.133E+01 0.849E+00 -.966E+03   0.383E-01 0.310E-01 -.423E+00   0.460E-02 0.465E-01 -.327E+00
   -.387E-04 0.537E+01 -.811E+03   0.519E-04 -.552E+01 0.810E+03   0.129E-07 0.194E+00 0.735E+00   -.463E-02 -.457E-01 0.191E+00
   0.506E+02 0.309E+02 -.733E+03   -.502E+02 -.305E+02 0.733E+03   -.724E+00 -.473E+00 -.767E+00   0.334E+00 0.129E+00 0.579E+00
   -.506E+02 0.309E+02 -.733E+03   0.502E+02 -.305E+02 0.733E+03   0.724E+00 -.473E+00 -.767E+00   -.332E+00 0.130E+00 0.579E+00
   0.215E+02 -.139E+02 -.793E+03   -.218E+02 0.140E+02 0.792E+03   0.259E+00 -.147E+00 0.645E+00   0.718E-01 -.229E-01 0.247E+00
   -.938E-05 -.603E+02 -.736E+03   0.146E-03 0.601E+02 0.735E+03   0.461E-07 0.693E+00 -.546E+00   0.195E-02 -.409E+00 0.646E+00
   -.215E+02 -.139E+02 -.793E+03   0.218E+02 0.140E+02 0.792E+03   -.259E+00 -.147E+00 0.645E+00   -.787E-01 -.240E-01 0.247E+00
   -.399E+01 -.167E+01 -.813E+03   0.405E+01 0.173E+01 0.812E+03   -.347E-01 -.923E-01 0.653E+00   -.211E-01 0.260E-01 0.251E+00
   0.399E+01 -.167E+01 -.813E+03   -.405E+01 0.173E+01 0.812E+03   0.347E-01 -.923E-01 0.653E+00   0.163E-01 0.237E-01 0.251E+00
   0.123E-04 0.248E+02 -.795E+03   0.195E-03 -.251E+02 0.794E+03   0.192E-07 0.289E+00 0.676E+00   -.297E-02 0.137E+00 0.277E+00
   -.156E-04 0.539E+01 -.261E+04   0.314E-04 -.527E+01 0.260E+04   -.513E-08 -.771E-01 0.425E+00   -.267E-03 -.572E-01 0.230E+00
   0.609E+02 0.118E+03 -.256E+04   -.609E+02 -.119E+03 0.256E+04   -.313E+00 -.410E-01 0.105E+01   0.178E+00 0.192E+00 0.909E-01
   -.609E+02 0.118E+03 -.256E+04   0.609E+02 -.119E+03 0.256E+04   0.313E+00 -.410E-01 0.105E+01   -.178E+00 0.194E+00 0.908E-01
   0.146E+03 0.129E+01 -.254E+04   -.147E+03 -.129E+01 0.254E+04   0.288E+00 0.940E-02 0.138E+01   0.336E+00 0.439E-03 0.121E+00
   -.146E+03 0.129E+01 -.254E+04   0.147E+03 -.129E+01 0.254E+04   -.288E+00 0.940E-02 0.138E+01   -.338E+00 0.116E-02 0.121E+00
   0.587E+02 -.120E+03 -.256E+04   -.587E+02 0.120E+03 0.256E+04   -.283E+00 0.491E-01 0.106E+01   0.146E+00 -.207E+00 0.139E+00
   -.587E+02 -.120E+03 -.256E+04   0.587E+02 0.120E+03 0.256E+04   0.283E+00 0.491E-01 0.106E+01   -.144E+00 -.208E+00 0.139E+00
   0.336E-04 -.551E+01 -.261E+04   0.141E-03 0.530E+01 0.261E+04   0.885E-08 0.133E+00 0.405E+00   -.468E-02 0.806E-01 0.257E+00
   -.398E-04 0.404E-01 -.188E+04   0.105E-03 -.130E+00 0.188E+04   -.272E-08 -.408E-01 0.268E+01   0.105E-01 0.423E-02 -.614E+00
   0.241E+03 0.138E+00 -.179E+04   -.278E+03 0.104E-01 0.181E+04   0.371E+02 -.147E+00 -.144E+02   -.610E-01 -.182E-03 -.539E+00
   -.241E+03 0.138E+00 -.179E+04   0.278E+03 0.104E-01 0.181E+04   -.371E+02 -.147E+00 -.144E+02   0.663E-01 -.101E-03 -.540E+00
   -.450E-03 0.653E+00 0.297E+02   0.568E-13 0.106E-12 -.455E-12   -.433E-07 -.651E+00 -.249E+02   0.483E-02 -.237E-01 -.471E+01

 POSITION                                       TOTAL-FORCE (eV/Angst)
      0.00000      0.00000      5.28038         0.000000      0.000967     -0.010959
      2.93784      0.00000      5.28038         0.005440      0.009385     -0.025406
      5.87568      0.00000      5.28038        -0.005440      0.009385     -0.025406
      1.46892      2.54424      5.28038         0.003001     -0.007204     -0.020058
      4.40676      2.54424      5.28038         0.000000      0.001812     -0.056812
      7.34459      2.54424      5.28038        -0.003001     -0.007204     -0.020058
      2.93784      5.08848      5.28038         0.018251     -0.001068     -0.010098
      5.87568      5.08848      5.28038        -0.018251     -0.001068     -0.010098
      8.81351      5.08848      5.28038        -0.000000     -0.003935     -0.026021
      1.46892      0.84808      7.67911         0.045741      0.023917      0.086473
      4.40676      0.84808      7.67911        -0.000000     -0.032548     -0.000300
      7.34459      0.84808      7.67911        -0.045741      0.023917      0.086473
      2.93784      3.39232      7.67911        -0.016114      0.014653      0.001638
      5.87568      3.39232      7.67911         0.016114      0.014653      0.001638
      8.81351      3.39232      7.67911        -0.000000     -0.000922      0.071175
      4.40676      5.93656      7.67911        -0.000000     -0.047029      0.073249
      7.34459      5.93656      7.67911        -0.008327      0.008877      0.065869
     10.28243      5.93656      7.67911         0.008327      0.008877      0.065869
      8.81351      1.69394     10.07055         0.000000      0.003678     -0.008158
      2.94670      1.70128     10.05847        -0.013091      0.031104      0.055088
      5.86681      1.70128     10.05847         0.013091      0.031104      0.055088
     10.27376      4.24541     10.05945         0.061559     -0.041036      0.035650
      4.40676      4.23017     10.05847         0.000000      0.038772     -0.029790
      7.35327      4.24541     10.05945        -0.061559     -0.041036      0.035650
     11.75328      6.78576     10.07055         0.006439     -0.010458      0.000275
      5.87375      6.78576     10.07055        -0.006439     -0.010458      0.000275
      8.81351      6.77463     10.05945         0.000000      0.074434      0.064901
      0.00000      0.00000     12.48855        -0.000000     -0.010633     -0.058060
      2.97006      0.05170     12.45862        -0.166339     -0.355207     -0.152406
      5.84345      0.05170     12.45862         0.166339     -0.355207     -0.152406
      1.52981      2.54630     12.45862        -0.699930      0.007543     -0.330661
      7.28371      2.54630     12.45862         0.699930      0.007543     -0.330661
      2.96650      5.03473     12.45862        -0.195009      0.363517     -0.145075
      5.84701      5.03473     12.45862         0.195009      0.363517     -0.145075
      8.81351      5.08848     12.49203         0.000000      0.009570     -0.032244
      4.40676      2.54424     12.16149        -0.000000     -0.125214      1.069559
      3.72172      2.54484     13.99417        -0.020386      0.001501     -0.089558
      5.09180      2.54484     13.99417         0.020386      0.001501     -0.089558
    total drift:                                0.004378     -0.021813      0.124848

  FREE ENERGIE OF THE ION-ELECTRON SYSTEM (eV)
  free  energy   TOTEN  =      -121.25300242 eV

  energy  without entropy=     -121.25300242  energy(sigma->0) =     -121.25300242

 stress matrix after NEB project (eV)
    -19.26829     -0.00000     -0.00000
     -0.00000    -20.15303     -0.08386
     -0.00000     -0.08386     -1.20875
  FORCES: max atom, RMS     0.091861    0.021074
  FORCE total and by dimension    0.129912    0.089558
  Stress total and by dimension   27.908541   20.153031
|           W    W    AA    RRRRR   N    N  II  N    N   GGGG   !!!           |
|           W    W   A  A   R    R  NN   N  II  NN   N  G    G  !!!           |
|           W    W  A    A  R    R  N N  N  II  N N  N  G       !!!           |
|           W WW W  AAAAAA  RRRRR   N  N N  II  N  N N  G  GGG   !            |
|           WW  WW  A    A  R   R   N   NN  II  N   NN  G    G                |
|           W    W  A    A  R    R  N    N  II  N    N   GGGG   !!!           |
|     Tetrahedron method does not include variations of the Fermi             |
|     occupations, so forces and stress will be inaccurate. We suggest        |
|     using a different smearing scheme ISMEAR = 1 or 2 for metals in         |
|     relaxations.                                                            |

 total charge

# of ion       s       p       d       tot
    1        0.542   0.239   8.765   9.546
    2        0.545   0.240   8.764   9.549
    3        0.545   0.240   8.764   9.549
    4        0.545   0.240   8.765   9.550
    5        0.542   0.240   8.766   9.549
    6        0.545   0.240   8.765   9.550
    7        0.544   0.240   8.764   9.548
    8        0.544   0.240   8.764   9.548
    9        0.542   0.240   8.766   9.549
   10        0.520   0.307   8.773   9.600
   11        0.522   0.307   8.777   9.606
   12        0.520   0.307   8.773   9.600
   13        0.520   0.308   8.776   9.605
   14        0.520   0.308   8.776   9.605
   15        0.515   0.311   8.772   9.598
   16        0.520   0.307   8.774   9.601
   17        0.515   0.310   8.775   9.599
   18        0.515   0.310   8.775   9.599
   19        0.514   0.302   8.779   9.595
   20        0.535   0.327   8.754   9.617
   21        0.535   0.327   8.754   9.617
   22        0.513   0.309   8.775   9.598
   23        0.532   0.327   8.761   9.620
   24        0.513   0.309   8.775   9.598
   25        0.515   0.302   8.777   9.595
   26        0.515   0.302   8.777   9.595
   27        0.514   0.310   8.772   9.596
   28        0.537   0.225   8.768   9.530
   29        0.539   0.227   8.778   9.544
   30        0.539   0.227   8.778   9.544
   31        0.529   0.231   8.785   9.544
   32        0.529   0.231   8.785   9.544
   33        0.538   0.227   8.780   9.545
   34        0.538   0.227   8.780   9.545
   35        0.539   0.224   8.770   9.533
   36        0.358   0.395   8.325   9.078
   37        1.609   3.254   0.000   4.863
   38        1.609   3.254   0.000   4.863
tot         22.109  16.475 315.329 353.913

 BZINTS: Fermi energy:    0.137600;  407.000000 electrons
         Band energy:-0.149898E+04;  BLOECHL correction:   -0.054079