 vasp.6.2.0 18Jan21 (build Jun 12 2021 23:27:24) complex

 executed on             LinuxIFC date 2022.05.27  06:11:45

 INCAR:
   ISMEAR = -5
   SIGMA = 0.1
   ISPIN = 1
   EDIFF = 1.d-5
   EDIFFG = -0.01
   NSW = 0
   NELM = 150
   ENCUT = 500
   ISIF = 2
   IBRION = 2
   LREAL = Auto
   ALGO = Fast
   ICHARG = 11
   LORBIT = 10
   LCHARG = .F.
   LWAVE = .F.

 POTCAR:    PAW_PBE Cu 22Jun2005
 POTCAR:    PAW_PBE Rh 04Feb2005
 POTCAR:    PAW_PBE C 08Apr2002
 POTCAR:    PAW_PBE O 08Apr2002
|           W    W    AA    RRRRR   N    N  II  N    N   GGGG   !!!           |
|           W    W   A  A   R    R  NN   N  II  NN   N  G    G  !!!           |
|           W    W  A    A  R    R  N N  N  II  N N  N  G       !!!           |
|           W WW W  AAAAAA  RRRRR   N  N N  II  N  N N  G  GGG   !            |
|           WW  WW  A    A  R   R   N   NN  II  N   NN  G    G                |
|           W    W  A    A  R    R  N    N  II  N    N   GGGG   !!!           |
|     For optimal performance we recommend to set                             |
|       NCORE = 2 up to number-of-cores-per-socket                            |
|     This setting can greatly improve the performance of VASP for DFT.       |
|     The default, NCORE=1 might be grossly inefficient on modern             |
|     multi-core architectures or massively parallel machines. Do your        |
|     Unfortunately you need to use the default for GW and RPA                |
|     calculations (for HF NCORE is supported but not extensively tested      |
|     yet).                                                                   |

 POTCAR:    PAW_PBE Cu 22Jun2005
   VRHFIN =Cu: d10 p1

   TITEL  = PAW_PBE Cu 22Jun2005
   POMASS =   63.546; ZVAL   =   11.000    mass and valenz
   ENMAX  =  295.446; ENMIN  =  221.585 eV

 POTCAR:    PAW_PBE Rh 04Feb2005
   VRHFIN =Rh: s1 d8

   TITEL  = PAW_PBE Rh 04Feb2005
   POMASS =  102.906; ZVAL   =    9.000    mass and valenz
   ENMAX  =  228.996; ENMIN  =  171.747 eV

 POTCAR:    PAW_PBE C 08Apr2002
   VRHFIN =C: s2p2

   TITEL  = PAW_PBE C 08Apr2002
   POMASS =   12.011; ZVAL   =    4.000    mass and valenz
   ENMAX  =  400.000; ENMIN  =  300.000 eV

 POTCAR:    PAW_PBE O 08Apr2002
   VRHFIN =O: s2p4

   TITEL  = PAW_PBE O 08Apr2002
   POMASS =   16.000; ZVAL   =    6.000    mass and valenz
   ENMAX  =  400.000; ENMIN  =  300.000 eV

 Optimization of the real space projectors (new method)

 maximal supplied QI-value         = 16.25
 optimisation between [QCUT,QGAM] = [ 11.38, 22.75] = [ 36.24,144.96] Ry
 Optimized for a Real-space Cutoff    1.52 Angstroem

   l    n(q)    QCUT    max X(q) W(low)/X(q) W(high)/X(q)  e(spline)
   2      9    11.376     4.610    0.21E-03    0.10E-03    0.26E-06
   2      9    11.376     8.522    0.33E-03    0.16E-03    0.37E-06
   0     10    11.376    51.609    0.62E-04    0.20E-04    0.13E-06
   0     10    11.376    27.747    0.54E-04    0.20E-04    0.13E-06
   1     10    11.376    20.408    0.13E-04    0.99E-04    0.19E-06
   1     10    11.376    13.425    0.12E-04    0.87E-04    0.17E-06
 Optimization of the real space projectors (new method)

[...]

   l    n(q)    QCUT    max X(q) W(low)/X(q) W(high)/X(q)  e(spline)
   0      7    11.310   115.676    0.43E-03    0.13E-02    0.19E-06
   0      7    11.310    87.132    0.43E-03    0.13E-02    0.18E-06
   1      6    11.310     4.429    0.42E-03    0.74E-03    0.11E-06
   1      6    11.310     2.733    0.34E-03    0.55E-03    0.92E-07
 Optimization of the real space projectors (new method)

 maximal supplied QI-value         = 24.76
 optimisation between [QCUT,QGAM] = [ 11.39, 22.77] = [ 36.31,145.25] Ry
 Optimized for a Real-space Cutoff    1.00 Angstroem

   l    n(q)    QCUT    max X(q) W(low)/X(q) W(high)/X(q)  e(spline)
   0      7    11.387    20.381    0.39E-03    0.13E-02    0.15E-06
   0      7    11.387    15.268    0.42E-03    0.14E-02    0.17E-06
   1      6    11.387     5.964    0.41E-03    0.11E-02    0.17E-06
   1      6    11.387     5.382    0.39E-03    0.87E-03    0.15E-06
  PAW_PBE Cu 22Jun2005                  :
  PAW_PBE Rh 04Feb2005                  :
  PAW_PBE C 08Apr2002                   :
  PAW_PBE O 08Apr2002                   :

 POSCAR: Cu-Rh-CO
  positions in direct lattice
  velocities in cartesian coordinates
 exchange correlation table for  LEXCH =        8
   RHO(1)=    0.500       N(1)  =     2000
   RHO(2)=  100.500       N(2)  =     4000

 VTST: version 3.2, (02/03/18)

 CHAIN: initializing optimizer

 OPT: Using VASP Conjugate-Gradient optimizer
 CHAIN: Read ICHAIN            0

 POSCAR: Cu-Rh-CO
  positions in direct lattice
  velocities in cartesian coordinates

 ion  position               nearest neighbor table
   1  0.000  0.000  0.218-   7 2.57   3 2.57   4 2.57   2 2.57   6 2.57   8 2.57  12 2.57  10 2.57
                            16 2.57
   2  0.333  0.000  0.218-   8 2.57   9 2.57   5 2.57   1 2.57   3 2.57  11 2.57   4 2.57  10 2.57
                            17 2.57
   3  0.667  0.000  0.218-   1 2.57   7 2.57   6 2.57   9 2.57   2 2.57  12 2.57   5 2.57  18 2.57
                            11 2.57
   4  0.000  0.333  0.218-   5 2.57   6 2.57   1 2.57   7 2.57   2 2.57  13 2.57   9 2.57  10 2.57
                            15 2.57
   5  0.333  0.333  0.218-   4 2.57   2 2.57   7 2.57  13 2.57   8 2.57   6 2.57   3 2.57  11 2.57
                            14 2.57
   6  0.667  0.333  0.218-   4 2.57   9 2.57  15 2.57   3 2.57   1 2.57   8 2.57  14 2.57   5 2.57
                            12 2.57
   7  0.000  0.667  0.218-   1 2.57   3 2.57  16 2.57  18 2.57   4 2.57   5 2.57   8 2.57   9 2.57
                            13 2.57
   8  0.333  0.667  0.218-   9 2.57   2 2.57  17 2.57   6 2.57   1 2.57   7 2.57   5 2.57  14 2.57
                            16 2.57
   9  0.667  0.667  0.218-   8 2.57   6 2.57   2 2.57  17 2.57   3 2.57   7 2.57   4 2.57  15 2.57
                            18 2.57
  10  0.111  0.111  0.303-  20 2.55  26 2.56  19 2.56  11 2.57  12 2.57  13 2.57   1 2.57   2 2.57
                             4 2.57  15 2.57  16 2.57  17 2.57
  11  0.444  0.111  0.303-  20 2.55  21 2.55  27 2.56  10 2.57  13 2.57   2 2.57  17 2.57  14 2.57
                            12 2.57   5 2.57   3 2.57  18 2.57
  12  0.778  0.111  0.303-  21 2.55  19 2.56  25 2.56  15 2.57  10 2.57  14 2.57  18 2.57   3 2.57
                             1 2.57  16 2.57  11 2.57   6 2.57
  13  0.111  0.444  0.303-  23 2.55  20 2.55  22 2.56  16 2.57  18 2.57  10 2.57  11 2.57  14 2.57
                             5 2.57   4 2.57   7 2.57  15 2.57
  14  0.444  0.444  0.303-  21 2.55  23 2.55  24 2.56  15 2.57  17 2.57  12 2.57  16 2.57  13 2.57
                            11 2.57   6 2.57   8 2.57   5 2.57
  15  0.778  0.444  0.303-  19 2.56  24 2.56  22 2.56  14 2.57  17 2.57  12 2.57   6 2.57  18 2.57
                            10 2.57   9 2.57  13 2.57   4 2.57
  16  0.111  0.778  0.303-  23 2.55  25 2.56  26 2.56  18 2.57  13 2.57   7 2.57  14 2.57  17 2.57
                            12 2.57  10 2.57   8 2.57   1 2.57
  17  0.444  0.778  0.303-  26 2.56  27 2.56  24 2.56  14 2.57  15 2.57   8 2.57   9 2.57  11 2.57
                            16 2.57  18 2.57  10 2.57   2 2.57
  18  0.778  0.778  0.303-  25 2.56  22 2.56  27 2.56  16 2.57  13 2.57   7 2.57  15 2.57  12 2.57
                            17 2.57   9 2.57   3 2.57  11 2.57
  19  0.889  0.223  0.387-  28 2.55  32 2.55  31 2.55  15 2.56  12 2.56  10 2.56  21 2.56  20 2.56
                            22 2.56  24 2.56  25 2.57  26 2.57
  20  0.222  0.222  0.387-  10 2.55  11 2.55  13 2.55  26 2.56  19 2.56  27 2.57  22 2.57  36 2.57
                            29 2.58  31 2.58  23 2.58  21 2.58
  21  0.557  0.222  0.387-  12 2.55  14 2.55  11 2.55  19 2.56  25 2.56  24 2.57  27 2.57  36 2.57
                            32 2.58  30 2.58  20 2.58  23 2.58
  22  0.889  0.556  0.388-  35 2.54  31 2.56  33 2.56  18 2.56  15 2.56  19 2.56  25 2.56  13 2.56
                            24 2.56  27 2.56  23 2.57  20 2.57
  23  0.222  0.557  0.387-  16 2.55  13 2.55  14 2.55  25 2.56  26 2.56  22 2.57  24 2.57  36 2.57
                            33 2.58  34 2.58  20 2.58  21 2.58
  24  0.556  0.556  0.388-  35 2.54  32 2.56  34 2.56  15 2.56  17 2.56  19 2.56  26 2.56  14 2.56
                            22 2.56  27 2.56  21 2.57  23 2.57
  25  0.889  0.889  0.387-  28 2.55  33 2.55  30 2.55  18 2.56  16 2.56  12 2.56  21 2.56  23 2.56
                            22 2.56  27 2.56  19 2.57  26 2.57
  26  0.223  0.889  0.387-  28 2.55  29 2.55  34 2.55  17 2.56  10 2.56  16 2.56  20 2.56  23 2.56
                            27 2.56  24 2.56  25 2.57  19 2.57
  27  0.556  0.889  0.388-  35 2.54  29 2.56  30 2.56  17 2.56  18 2.56  26 2.56  25 2.56  11 2.56
                            24 2.56  22 2.56  20 2.57  21 2.57
  28  0.000  0.000  0.471-  25 2.55  19 2.55  26 2.55  33 2.56  30 2.56  31 2.56  29 2.56  32 2.56
                            34 2.56
  29  0.333  0.998  0.472-  34 2.54  26 2.55  28 2.56  27 2.56  35 2.56  31 2.58  20 2.58  36 2.58
                            30 2.59
  30  0.669  0.998  0.472-  33 2.54  25 2.55  28 2.56  27 2.56  35 2.56  32 2.58  21 2.58  36 2.58
                            29 2.59
  31  0.998  0.333  0.472-  32 2.54  19 2.55  28 2.56  22 2.56  35 2.56  29 2.58  20 2.58  36 2.58
                            33 2.59
  32  0.669  0.333  0.472-  31 2.54  19 2.55  28 2.56  24 2.56  35 2.56  30 2.58  21 2.58  36 2.58
                            34 2.59
  33  0.998  0.669  0.472-  30 2.54  25 2.55  28 2.56  22 2.56  35 2.56  34 2.58  23 2.58  36 2.58
                            31 2.59
  34  0.333  0.669  0.472-  29 2.54  26 2.55  28 2.56  24 2.56  35 2.56  33 2.58  23 2.58  36 2.58
                            32 2.59
  35  0.667  0.667  0.471-  24 2.54  27 2.54  22 2.54  34 2.56  32 2.56  29 2.56  30 2.56  33 2.56
                            31 2.56
  36  0.333  0.333  0.472-  37 1.86  23 2.57  20 2.57  21 2.57  31 2.58  29 2.58  33 2.58  34 2.58
                            32 2.58  30 2.58
  37  0.333  0.333  0.547-  38 1.17  36 1.86
  38  0.333  0.333  0.595-  37 1.17

  LATTYP: Found a hexagonal cell.
 ALAT       =     7.6967864036
 C/A-ratio  =     3.2035062624

  Lattice vectors:

 A1 = (  -3.8483927580,  -6.6656128093,   0.0000000000)
 A2 = (   7.6967864037,   0.0000000000,   0.0000000000)
 A3 = (   0.0000000000,   0.0000000000,  24.6567034444)

Analysis of symmetry for initial positions (statically):
 Subroutine PRICEL returns:
 Original cell was already a primitive cell.

 Routine SETGRP: Setting up the symmetry group for a
 hexagonal supercell.

 Subroutine GETGRP returns: Found  6 space group operations
 (whereof  6 operations were pure point group operations)
 out of a pool of 24 trial point group operations.

The static configuration has the point symmetry C_3v.

Analysis of symmetry for dynamics (positions and initial velocities):
 Subroutine PRICEL returns:
 Original cell was already a primitive cell.

[...]

The dynamic configuration has the point symmetry C_3v.

Analysis of constrained symmetry for selective dynamics:
 Subroutine PRICEL returns:
[...]
     33      -4.6102      2.00000
     34      -4.6042      2.00000
     35      -4.5953      2.00000
     36      -4.5838      2.00000
     37      -4.5660      2.00000
     38      -4.5539      2.00000
     39      -4.4967      2.00000
     40      -4.4629      2.00000
     41      -4.3860      2.00000
     42      -4.2841      2.00000
     43      -4.2720      2.00000
     44      -4.2403      2.00000
     45      -4.2097      2.00000
     46      -4.1992      2.00000
     47      -4.1832      2.00000
     48      -4.1615      2.00000
     49      -4.1546      2.00000
     50      -4.1475      2.00000
     51      -3.9568      2.00000
     52      -3.9512      2.00000
     53      -3.9374      2.00000
     54      -3.9283      2.00000
     55      -3.8737      2.00000
     56      -3.8662      2.00000
     57      -3.8613      2.00000
     58      -3.8513      2.00000
     59      -3.8460      2.00000
     60      -3.8258      2.00000
[...]
    238       5.2958      0.00000
    239       5.4983      0.00000
    240       5.5433      0.00000
    241       5.6311      0.00000
    242       5.7931      0.00000
    243       5.8720      0.00000
    244       5.8888      0.00000
    245       5.9005      0.00000
    246       6.0975      0.00000
    247       6.1548      0.00000
    248       6.3038      0.00000
    249       6.5117      0.00000
    250       6.6893      0.00000
    251       6.7816      0.00000
    252       7.0687      0.00000

 soft charge-density along one line, spin component           1
         0         1         2         3         4         5         6         7         8         9
 total charge-density along one line

------------------------ aborting loop because EDIFF is reached ----------------------------------------

 total charge

# of ion       s       p       d       tot
    1        0.447   0.284   9.188   9.919
    2        0.450   0.285   9.186   9.920
    3        0.450   0.285   9.186   9.920
    4        0.450   0.285   9.186   9.920
    5        0.448   0.288   9.182   9.917
    6        0.450   0.285   9.186   9.920
    7        0.450   0.285   9.186   9.920
    8        0.450   0.285   9.186   9.920
    9        0.446   0.284   9.191   9.920
   10        0.440   0.373   9.175   9.987
   11        0.444   0.366   9.183   9.994
   12        0.440   0.373   9.175   9.987
   13        0.444   0.366   9.183   9.994
   14        0.444   0.366   9.183   9.994
   15        0.436   0.372   9.177   9.985
   16        0.440   0.373   9.175   9.987
   17        0.436   0.372   9.177   9.985
   18        0.436   0.372   9.177   9.985
   19        0.443   0.373   9.181   9.997
   20        0.452   0.384   9.175  10.011
   21        0.452   0.384   9.175  10.011
   22        0.434   0.376   9.178   9.988
   23        0.452   0.384   9.175  10.011
   24        0.434   0.376   9.178   9.988
   25        0.443   0.373   9.181   9.997
   26        0.443   0.373   9.181   9.997
   27        0.434   0.376   9.178   9.988
   28        0.454   0.289   9.196   9.939
   29        0.448   0.299   9.191   9.938
   30        0.448   0.299   9.191   9.938
   31        0.448   0.299   9.191   9.938
   32        0.448   0.299   9.191   9.938
   33        0.448   0.299   9.191   9.938
   34        0.448   0.299   9.191   9.938
   35        0.449   0.291   9.197   9.937
   36        0.531   0.650   7.562   8.744
   37        0.958   1.549   0.000   2.506
   38        1.615   3.529   0.000   5.144
tot         18.680  17.395 328.989 365.064

  FORCE on cell =-STRESS in cart. coord.  units (eV):
  Direction    XX          YY          ZZ          XY          YZ          ZX
  Alpha Z   776.80042   776.80042   776.80042
  Ewald  240983.36148240983.36104************     0.00040     0.00012     0.00019
  Hartree253879.70009253879.70006************     0.00004     0.00006     0.00007
  E(xc)   -2335.06892 -2335.06845 -2338.09231    -0.00040    -0.00003    -0.00005
  Local  ************************507892.98650     0.01884    -0.00058    -0.00096
  n-local  -780.30171  -764.85126  -789.59482     7.90746    -0.01162     0.12050
  augment  3374.51483  3374.53521  3384.49513    -0.01765     0.00035     0.00064
  Kinetic  3441.98021  3446.90218  3426.96122     3.59162     1.91452    -1.55408
  Fock        0.00000     0.00000     0.00000     0.00000     0.00000     0.00000
  Total      -3.01093    -3.01093     2.02178     0.00000     0.00000    -0.00000
  in kB      -3.81353    -3.81353     2.56071     0.00000     0.00000    -0.00000

 VOLUME and BASIS-vectors are now :
  energy-cutoff  :      500.00
  volume of cell :     1264.98
      direct lattice vectors                 reciprocal lattice vectors
     7.696786404  0.000000000  0.000000000     0.129924354 -0.075011849  0.000000000
     3.848392758  6.665612809  0.000000000     0.000000000  0.150023716  0.000000000
     0.000000000  0.000000000 24.656703444     0.000000000  0.000000000  0.040556922

  length of vectors
     7.696786404  7.696786404 24.656703444     0.150023716  0.150023716  0.040556922

 FORCES acting on ions
    electron-ion (+dipol)            ewald-force                    non-local-force                 convergence-correction
   -.426E-04 -.440E-06 0.383E+04   0.579E-04 -.438E-05 -.383E+04   -.109E-16 -.189E-17 -.313E+01   -.410E-03 -.204E-03 -.564E+00
   -.184E+00 0.311E-01 0.383E+04   0.199E+00 0.418E-01 -.383E+04   0.385E-01 0.521E-01 -.199E+01   -.426E-01 -.100E+00 -.485E+00
   0.184E+00 0.311E-01 0.383E+04   -.199E+00 0.417E-01 -.383E+04   -.385E-01 0.521E-01 -.199E+01   0.435E-01 -.978E-01 -.484E+00
   -.648E-01 -.175E+00 0.383E+04   0.136E+00 0.152E+00 -.383E+04   0.643E-01 0.728E-02 -.199E+01   -.108E+00 0.133E-01 -.485E+00
   -.677E-04 -.686E-05 0.383E+04   0.116E-03 -.101E-04 -.383E+04   0.252E-17 0.122E-18 -.165E+01   0.123E-01 0.751E-02 -.385E+00
   0.649E-01 -.175E+00 0.383E+04   -.136E+00 0.152E+00 -.383E+04   -.643E-01 0.728E-02 -.199E+01   0.106E+00 0.145E-01 -.484E+00
   0.119E+00 0.143E+00 0.383E+04   -.636E-01 -.193E+00 -.383E+04   0.259E-01 -.593E-01 -.199E+01   -.629E-01 0.865E-01 -.484E+00
   -.119E+00 0.143E+00 0.383E+04   0.633E-01 -.193E+00 -.383E+04   -.259E-01 -.593E-01 -.199E+01   0.664E-01 0.849E-01 -.484E+00
   -.145E-03 -.336E-04 0.383E+04   0.263E-03 0.205E-04 -.383E+04   0.784E-18 -.671E-18 -.268E+01   -.132E-01 -.684E-02 -.550E+00
   0.329E+00 0.190E+00 0.134E+04   0.160E+00 0.926E-01 -.134E+04   -.435E+00 -.251E+00 -.101E+01   -.485E-01 -.280E-01 -.781E+00
   -.893E-04 -.694E+00 0.133E+04   0.190E-03 0.688E+00 -.133E+04   -.874E-08 0.131E+00 -.502E+00   0.123E-01 -.149E+00 -.728E+00
   -.329E+00 0.190E+00 0.134E+04   -.161E+00 0.925E-01 -.134E+04   0.435E+00 -.251E+00 -.101E+01   0.461E-01 -.258E-01 -.779E+00
   -.601E+00 0.347E+00 0.133E+04   0.596E+00 -.344E+00 -.133E+04   0.114E+00 -.656E-01 -.502E+00   -.123E+00 0.861E-01 -.728E+00
   0.602E+00 0.347E+00 0.133E+04   -.597E+00 -.344E+00 -.133E+04   -.114E+00 -.656E-01 -.502E+00   0.147E+00 0.847E-01 -.728E+00
   -.142E-03 -.129E+01 0.134E+04   0.298E-03 0.112E+01 -.133E+04   -.618E-08 0.929E-01 -.887E+00   -.434E-02 0.664E-01 -.784E+00
   -.909E-04 -.380E+00 0.134E+04   0.186E-03 -.185E+00 -.134E+04   -.335E-07 0.502E+00 -.101E+01   -.286E-03 0.516E-01 -.779E+00
   -.112E+01 0.645E+00 0.134E+04   0.971E+00 -.560E+00 -.133E+04   0.804E-01 -.464E-01 -.887E+00   0.561E-01 -.370E-01 -.784E+00
   0.112E+01 0.645E+00 0.134E+04   -.971E+00 -.560E+00 -.133E+04   -.804E-01 -.464E-01 -.887E+00   -.549E-01 -.334E-01 -.783E+00
   -.580E-04 -.391E+00 -.117E+04   0.678E-04 0.406E+00 0.117E+04   0.236E-08 -.354E-01 0.880E+00   -.146E-01 0.174E-01 -.651E+00
   -.188E+02 -.109E+02 -.119E+04   0.199E+02 0.115E+02 0.119E+04   -.107E+01 -.619E+00 -.854E+00   -.396E-01 -.230E-01 -.522E+00
   0.188E+02 -.109E+02 -.119E+04   -.199E+02 0.115E+02 0.119E+04   0.107E+01 -.619E+00 -.854E+00   0.656E-01 -.225E-01 -.523E+00
   -.103E+02 0.597E+01 -.118E+04   0.997E+01 -.576E+01 0.118E+04   0.392E+00 -.226E+00 0.823E+00   0.120E-01 -.591E-02 -.638E+00
   -.810E-04 0.217E+02 -.119E+04   0.146E-03 -.230E+02 0.119E+04   -.825E-07 0.124E+01 -.854E+00   0.121E-01 0.668E-01 -.523E+00
   0.103E+02 0.597E+01 -.118E+04   -.997E+01 -.576E+01 0.118E+04   -.392E+00 -.226E+00 0.823E+00   -.144E-01 -.922E-02 -.638E+00
   0.338E+00 0.195E+00 -.117E+04   -.352E+00 -.203E+00 0.117E+04   0.307E-01 0.177E-01 0.880E+00   -.299E-01 -.173E-01 -.652E+00
   -.338E+00 0.195E+00 -.117E+04   0.352E+00 -.203E+00 0.117E+04   -.307E-01 0.177E-01 0.880E+00   0.814E-02 -.211E-01 -.651E+00
   -.127E-03 -.119E+02 -.118E+04   0.245E-03 0.115E+02 0.118E+04   -.302E-07 0.453E+00 0.823E+00   0.860E-03 0.133E-01 -.638E+00
   -.317E-04 0.195E-04 -.367E+04   0.366E-04 -.342E-04 0.367E+04   0.259E-17 0.363E-17 0.231E+01   -.722E-03 -.366E-03 0.422E+00
   -.332E+01 -.285E+01 -.366E+04   0.324E+01 0.229E+01 0.366E+04   0.307E-01 0.376E+00 0.260E+01   -.175E-02 0.613E-01 0.201E+00
   0.332E+01 -.285E+01 -.366E+04   -.324E+01 0.229E+01 0.366E+04   -.307E-01 0.376E+00 0.260E+01   0.338E-02 0.638E-01 0.200E+00
   -.413E+01 -.145E+01 -.366E+04   0.360E+01 0.166E+01 0.366E+04   0.341E+00 -.162E+00 0.260E+01   0.523E-01 -.322E-01 0.201E+00
   0.413E+01 -.145E+01 -.366E+04   -.360E+01 0.166E+01 0.366E+04   -.341E+00 -.162E+00 0.260E+01   -.541E-01 -.318E-01 0.199E+00
   -.810E+00 0.431E+01 -.366E+04   0.363E+00 -.395E+01 0.366E+04   0.310E+00 -.215E+00 0.260E+01   0.569E-01 -.290E-01 0.200E+00
   0.811E+00 0.431E+01 -.366E+04   -.363E+00 -.395E+01 0.366E+04   -.310E+00 -.215E+00 0.260E+01   -.538E-01 -.309E-01 0.199E+00
   -.156E-03 -.276E-04 -.368E+04   0.258E-03 0.403E-05 0.368E+04   -.188E-17 -.731E-18 0.264E+01   -.131E-01 -.674E-02 0.322E+00
   -.230E-04 -.167E-04 -.282E+04   0.111E-03 0.224E-04 0.282E+04   0.248E-17 -.140E-17 -.363E+01   0.335E-02 0.201E-02 0.143E+00
   -.574E-05 -.790E-04 -.140E+04   0.990E-05 0.480E-05 0.139E+04   -.141E-18 -.917E-19 0.155E+02   0.113E-02 0.684E-03 0.113E+00
   0.225E-03 -.743E-04 -.227E+04   0.253E-05 0.241E-05 0.233E+04   -.229E-19 0.343E-19 -.593E+02   0.328E-02 0.200E-02 0.111E+00
   -.384E-04 -.168E-03 0.655E+02   0.984E-13 -.105E-12 0.182E-11   -.222E-15 -.141E-15 -.510E+02   0.294E-01 0.141E-01 -.144E+02

 POSITION                                       TOTAL-FORCE (eV/Angst)
      0.00000      0.00000      5.37156         0.000000      0.000000      0.038882
      2.56560      0.00000      5.37156         0.011978      0.025604      0.090914
      5.13119      0.00000      5.37156        -0.011978      0.025604      0.090914
      1.28280      2.22187      5.37156         0.028162     -0.002429      0.090914
      3.84839      2.22187      5.37156        -0.000000     -0.000000      0.079578
      6.41399      2.22187      5.37156        -0.028162     -0.002429      0.090914
      2.56560      4.44374      5.37156         0.016185     -0.023175      0.090914
      5.13119      4.44374      5.37156        -0.016185     -0.023175      0.090914
      7.69679      4.44374      5.37156         0.000000      0.000000      0.055165
      1.28280      0.74062      7.46636         0.008079      0.004664     -0.087665
      3.84839      0.74062      7.46636         0.000000     -0.030909     -0.100642
      6.41399      0.74062      7.46636        -0.008079      0.004664     -0.087665
      2.56560      2.96249      7.46636        -0.026768      0.015455     -0.100642
      5.13119      2.96249      7.46636         0.026768      0.015455     -0.100642
      7.69679      2.96249      7.46636         0.000000     -0.010969     -0.044401
      3.84839      5.18437      7.46636         0.000000     -0.009328     -0.087665
      6.41399      5.18437      7.46636        -0.009500      0.005485     -0.044401
      8.97958      5.18437      7.46636         0.009500      0.005485     -0.044401
      7.69679      1.48472      9.55134        -0.000000      0.003516      0.037212
      2.55991      1.47796      9.54139        -0.051672     -0.029833     -0.284933
      5.13688      1.47796      9.54139         0.051672     -0.029833     -0.284933
      8.97851      3.70374      9.55759         0.039103     -0.022576      0.000093
      3.84839      3.70969      9.54139        -0.000000      0.059666     -0.284933
      6.41506      3.70374      9.55759        -0.039103     -0.022576      0.000093
     10.25938      5.92325      9.55134        -0.003045     -0.001758      0.037212
      5.13420      5.92325      9.55134         0.003045     -0.001758      0.037212
      7.69679      5.92375      9.55759        -0.000000      0.045152      0.000093
      0.00000      0.00000     11.61948         0.000000      0.000000     -0.041197
      6.40389      6.65412     11.64269        -0.056451     -0.127046     -0.043864
      8.98968      6.65412     11.64269         0.056451     -0.127046     -0.043864
      8.96459      2.21887     11.64269        -0.138251      0.014636     -0.043864
      6.42899      2.21887     11.64269         0.138251      0.014636     -0.043864
     10.25748      4.45823     11.64269        -0.081800      0.112411     -0.043864
      5.13610      4.45823     11.64269         0.081800      0.112411     -0.043864
      7.69679      4.44374     11.62337         0.000000      0.000000     -0.024277
      3.84839      2.22187     11.63466         0.000000      0.000000      1.084197
      3.84839      2.22187     13.49196         0.000000      0.000000     -0.004418
      3.84839      2.22187     14.65852         0.000000      0.000000     -0.029221
    total drift:                                0.029381      0.013906      0.104253

  FREE ENERGIE OF THE ION-ELECTRON SYSTEM (eV)
  free  energy   TOTEN  =      -146.00298433 eV

  energy  without entropy=     -146.00298433  energy(sigma->0) =     -146.00298433

 stress matrix after NEB project (eV)
     -3.01093      0.00000     -0.00000
      0.00000     -3.01093     -0.00000
      0.00000      0.00000      2.02178
  FORCES: max atom, RMS     0.029221    0.004794
  FORCE total and by dimension    0.029553    0.029221
  Stress total and by dimension    4.713707    3.010933
|           W    W    AA    RRRRR   N    N  II  N    N   GGGG   !!!           |
|           W    W   A  A   R    R  NN   N  II  NN   N  G    G  !!!           |
|           W    W  A    A  R    R  N N  N  II  N N  N  G       !!!           |
|           W WW W  AAAAAA  RRRRR   N  N N  II  N  N N  G  GGG   !            |
|           WW  WW  A    A  R   R   N   NN  II  N   NN  G    G                |
|           W    W  A    A  R    R  N    N  II  N    N   GGGG   !!!           |
|     Tetrahedron method does not include variations of the Fermi             |
|     occupations, so forces and stress will be inaccurate. We suggest        |
|     using a different smearing scheme ISMEAR = 1 or 2 for metals in         |
|     relaxations.                                                            |

 total charge

# of ion       s       p       d       tot
    1        0.447   0.284   9.188   9.919
    2        0.450   0.285   9.186   9.920
    3        0.450   0.285   9.186   9.920
    4        0.450   0.285   9.186   9.920
    5        0.448   0.288   9.182   9.917
    6        0.450   0.285   9.186   9.920
    7        0.450   0.285   9.186   9.920
    8        0.450   0.285   9.186   9.920
    9        0.446   0.284   9.191   9.920
   10        0.440   0.373   9.175   9.987
   11        0.444   0.366   9.183   9.994
   12        0.440   0.373   9.175   9.987
   13        0.444   0.366   9.183   9.994
   14        0.444   0.366   9.183   9.994
   15        0.436   0.372   9.177   9.985
   16        0.440   0.373   9.175   9.987
   17        0.436   0.372   9.177   9.985
   18        0.436   0.372   9.177   9.985
   19        0.443   0.373   9.181   9.997
   20        0.452   0.384   9.175  10.011
   21        0.452   0.384   9.175  10.011
   22        0.434   0.376   9.178   9.988
   23        0.452   0.384   9.175  10.011
   24        0.434   0.376   9.178   9.988
   25        0.443   0.373   9.181   9.997
   26        0.443   0.373   9.181   9.997
   27        0.434   0.376   9.178   9.988
   28        0.454   0.289   9.196   9.939
   29        0.448   0.299   9.191   9.938
   30        0.448   0.299   9.191   9.938
   31        0.448   0.299   9.191   9.938
   32        0.448   0.299   9.191   9.938
   33        0.448   0.299   9.191   9.938
   34        0.448   0.299   9.191   9.938
   35        0.449   0.291   9.197   9.937
   36        0.531   0.650   7.562   8.744
   37        0.958   1.549   0.000   2.506
   38        1.615   3.529   0.000   5.144
tot         18.680  17.395 328.989 365.064

 BZINTS: Fermi energy:   -0.536463;  404.000000 electrons
         Band energy:-0.140836E+04;  BLOECHL correction:   -0.059243