 vasp.6.2.0 18Jan21 (build Jun 12 2021 23:27:24) complex

 executed on             LinuxIFC date 2022.05.28  02:42:42

 INCAR:
   ISMEAR = -5
   SIGMA = 0.1
   ISPIN = 1
   EDIFF = 1.d-5
   EDIFFG = -0.01
   NSW = 0
   NELM = 150
   ENCUT = 500
   ISIF = 2
   IBRION = 2
   LREAL = Auto
   ALGO = Fast
   ICHARG = 11
   LORBIT = 10
   LCHARG = .F.
   LWAVE = .F.

 POTCAR:    PAW_PBE Cu 22Jun2005
 POTCAR:    PAW_PBE Hf 20Jan2003
 POTCAR:    PAW_PBE O 08Apr2002
 POTCAR:    PAW_PBE H 15Jun2001
|           W    W    AA    RRRRR   N    N  II  N    N   GGGG   !!!           |
|           W    W   A  A   R    R  NN   N  II  NN   N  G    G  !!!           |
|           W    W  A    A  R    R  N N  N  II  N N  N  G       !!!           |
|           W WW W  AAAAAA  RRRRR   N  N N  II  N  N N  G  GGG   !            |
|           WW  WW  A    A  R   R   N   NN  II  N   NN  G    G                |
|           W    W  A    A  R    R  N    N  II  N    N   GGGG   !!!           |
|     For optimal performance we recommend to set                             |
|       NCORE = 2 up to number-of-cores-per-socket                            |
|     This setting can greatly improve the performance of VASP for DFT.       |
|     The default, NCORE=1 might be grossly inefficient on modern             |
|     multi-core architectures or massively parallel machines. Do your        |
|     Unfortunately you need to use the default for GW and RPA                |
|     calculations (for HF NCORE is supported but not extensively tested      |
|     yet).                                                                   |

 POTCAR:    PAW_PBE Cu 22Jun2005
   VRHFIN =Cu: d10 p1

   TITEL  = PAW_PBE Cu 22Jun2005
   POMASS =   63.546; ZVAL   =   11.000    mass and valenz
   ENMAX  =  295.446; ENMIN  =  221.585 eV

 POTCAR:    PAW_PBE Hf 20Jan2003
   VRHFIN =Hf: 6s5d

   TITEL  = PAW_PBE Hf 20Jan2003
   POMASS =  178.490; ZVAL   =    4.000    mass and valenz
   ENMAX  =  220.334; ENMIN  =  165.250 eV

 POTCAR:    PAW_PBE O 08Apr2002
   VRHFIN =O: s2p4

   TITEL  = PAW_PBE O 08Apr2002
   POMASS =   16.000; ZVAL   =    6.000    mass and valenz
   ENMAX  =  400.000; ENMIN  =  300.000 eV

 POTCAR:    PAW_PBE H 15Jun2001
   VRHFIN =H: ultrasoft test

   TITEL  = PAW_PBE H 15Jun2001
   POMASS =    1.000; ZVAL   =    1.000    mass and valenz
   ENMAX  =  250.000; ENMIN  =  200.000 eV

 Optimization of the real space projectors (new method)

 maximal supplied QI-value         = 16.25
 optimisation between [QCUT,QGAM] = [ 11.38, 22.75] = [ 36.24,144.96] Ry
 Optimized for a Real-space Cutoff    1.52 Angstroem

   l    n(q)    QCUT    max X(q) W(low)/X(q) W(high)/X(q)  e(spline)
   2      9    11.376     4.610    0.21E-03    0.10E-03    0.26E-06
   2      9    11.376     8.522    0.33E-03    0.16E-03    0.37E-06
   0     10    11.376    51.609    0.62E-04    0.20E-04    0.13E-06
   0     10    11.376    27.747    0.54E-04    0.20E-04    0.13E-06
   1     10    11.376    20.408    0.13E-04    0.99E-04    0.19E-06
   1     10    11.376    13.425    0.12E-04    0.87E-04    0.17E-06
 Optimization of the real space projectors (new method)

[...]

   l    n(q)    QCUT    max X(q) W(low)/X(q) W(high)/X(q)  e(spline)
   0      7    11.387    20.381    0.39E-03    0.13E-02    0.15E-06
   0      7    11.387    15.268    0.42E-03    0.14E-02    0.17E-06
   1      6    11.387     5.964    0.41E-03    0.11E-02    0.17E-06
   1      6    11.387     5.382    0.39E-03    0.87E-03    0.15E-06
 Optimization of the real space projectors (new method)

 maximal supplied QI-value         = 34.20
 optimisation between [QCUT,QGAM] = [ 11.29, 22.57] = [ 35.68,142.71] Ry
 Optimized for a Real-space Cutoff    1.16 Angstroem

   l    n(q)    QCUT    max X(q) W(low)/X(q) W(high)/X(q)  e(spline)
   0      8    11.287    19.460    0.40E-03    0.73E-03    0.16E-06
   0      8    11.287    12.209    0.38E-03    0.70E-03    0.15E-06
   1      7    11.287     4.655    0.22E-03    0.25E-04    0.22E-06
  PAW_PBE Cu 22Jun2005                  :
  PAW_PBE Hf 20Jan2003                  :
  PAW_PBE O 08Apr2002                   :
  PAW_PBE H 15Jun2001                   :

 POSCAR: Cu-Hf-OOH
  positions in direct lattice
  velocities in cartesian coordinates
 exchange correlation table for  LEXCH =        8
   RHO(1)=    0.500       N(1)  =     2000
   RHO(2)=  100.500       N(2)  =     4000

 VTST: version 3.2, (02/03/18)

 CHAIN: initializing optimizer

 OPT: Using VASP Conjugate-Gradient optimizer
 CHAIN: Read ICHAIN            0

 POSCAR: Cu-Hf-OOH
  positions in direct lattice
  velocities in cartesian coordinates

 ion  position               nearest neighbor table
   1  0.000  0.000  0.212-   7 2.57   3 2.57   4 2.57   2 2.57   6 2.57   8 2.57  12 2.57  10 2.57
                            16 2.57
   2  0.333  0.000  0.212-   8 2.57   9 2.57   5 2.57   1 2.57   3 2.57  11 2.57   4 2.57  10 2.57
                            17 2.57
   3  0.667  0.000  0.212-   1 2.57   7 2.57   6 2.57   9 2.57   2 2.57  12 2.57   5 2.57  18 2.57
                            11 2.57
   4  0.000  0.333  0.212-   5 2.57   6 2.57   1 2.57   7 2.57   2 2.57  13 2.57   9 2.57  10 2.57
                            15 2.57
   5  0.333  0.333  0.212-   4 2.57   2 2.57   7 2.57  13 2.57   8 2.57   6 2.57   3 2.57  11 2.57
                            14 2.57
   6  0.667  0.333  0.212-   4 2.57   9 2.57  15 2.57   3 2.57   1 2.57   8 2.57  14 2.57   5 2.57
                            12 2.57
   7  0.000  0.667  0.212-   1 2.57   3 2.57  16 2.57  18 2.57   4 2.57   5 2.57   8 2.57   9 2.57
                            13 2.57
   8  0.333  0.667  0.212-   9 2.57   2 2.57  17 2.57   6 2.57   1 2.57   7 2.57   5 2.57  14 2.57
                            16 2.57
   9  0.667  0.667  0.212-   8 2.57   6 2.57   2 2.57  17 2.57   3 2.57   7 2.57   4 2.57  15 2.57
                            18 2.57
  10  0.111  0.111  0.294-  26 2.54  19 2.54  11 2.57  12 2.57  13 2.57   1 2.57   2 2.57   4 2.57
                            15 2.57  16 2.57  17 2.57  20 2.58
  11  0.444  0.111  0.294-  27 2.56  10 2.57  13 2.57   2 2.57  17 2.57  14 2.57  12 2.57   5 2.57
                             3 2.57  18 2.57  20 2.57  21 2.57
  12  0.778  0.111  0.294-  19 2.54  25 2.54  15 2.57  10 2.57  14 2.57  18 2.57   3 2.57   1 2.57
                            16 2.57  11 2.57   6 2.57  21 2.58
  13  0.111  0.444  0.294-  22 2.56  16 2.57  18 2.57  10 2.57  11 2.57  14 2.57   5 2.57   4 2.57
                             7 2.57  15 2.57  23 2.57  20 2.57
  14  0.444  0.444  0.294-  24 2.56  15 2.57  17 2.57  12 2.57  16 2.57  13 2.57  11 2.57   6 2.57
                             8 2.57   5 2.57  21 2.57  23 2.57
  15  0.778  0.444  0.294-  19 2.55  24 2.56  22 2.56  14 2.57  17 2.57  12 2.57   6 2.57  18 2.57
                            10 2.57   9 2.57  13 2.57   4 2.57
  16  0.111  0.778  0.294-  25 2.54  26 2.54  18 2.57  13 2.57   7 2.57  14 2.57  17 2.57  12 2.57
                            10 2.57   8 2.57   1 2.57  23 2.58
  17  0.444  0.778  0.294-  26 2.55  27 2.56  24 2.56  14 2.57  15 2.57   8 2.57   9 2.57  11 2.57
                            16 2.57  18 2.57  10 2.57   2 2.57
  18  0.778  0.778  0.294-  25 2.55  22 2.56  27 2.56  16 2.57  13 2.57   7 2.57  15 2.57  12 2.57
                            17 2.57   9 2.57   3 2.57  11 2.57
  19  0.889  0.221  0.376-  12 2.54  10 2.54  15 2.55  25 2.56  26 2.56  32 2.57  31 2.57  22 2.57
                            24 2.57  21 2.57  20 2.57  28 2.57
  20  0.223  0.223  0.377-  23 2.55  21 2.55  27 2.57  22 2.57  26 2.57  19 2.57  11 2.57  13 2.57
                            10 2.58  29 2.58  31 2.58  36 2.77
  21  0.555  0.223  0.377-  20 2.55  23 2.55  24 2.57  27 2.57  19 2.57  25 2.57  14 2.57  11 2.57
                            12 2.58  32 2.58  30 2.58  36 2.77
  22  0.889  0.556  0.376-  18 2.56  15 2.56  13 2.56  24 2.56  27 2.56  23 2.57  20 2.57  31 2.57
                            33 2.57  19 2.57  25 2.57  35 2.58
  23  0.223  0.555  0.377-  20 2.55  21 2.55  22 2.57  24 2.57  25 2.57  26 2.57  13 2.57  14 2.57
                            16 2.58  33 2.58  34 2.58  36 2.77
  24  0.556  0.556  0.376-  15 2.56  17 2.56  14 2.56  22 2.56  27 2.56  21 2.57  23 2.57  32 2.57
                            34 2.57  19 2.57  26 2.57  35 2.58
  25  0.889  0.889  0.376-  12 2.54  16 2.54  18 2.55  19 2.56  26 2.56  33 2.57  30 2.57  22 2.57
                            27 2.57  21 2.57  23 2.57  28 2.57
  26  0.221  0.889  0.376-  10 2.54  16 2.54  17 2.55  25 2.56  19 2.56  29 2.57  34 2.57  27 2.57
                            24 2.57  20 2.57  23 2.57  28 2.57
  27  0.556  0.889  0.376-  17 2.56  18 2.56  11 2.56  24 2.56  22 2.56  20 2.57  21 2.57  29 2.57
                            30 2.57  26 2.57  25 2.57  35 2.58
  28  0.000  0.000  0.459-  33 2.55  30 2.55  31 2.55  29 2.55  32 2.55  34 2.55  25 2.57  19 2.57
                            26 2.57
  29  0.334  0.994  0.459-  34 2.48  35 2.54  28 2.55  26 2.57  27 2.57  20 2.58  30 2.60  31 2.61
                            36 2.62
  30  0.672  0.994  0.459-  33 2.48  35 2.54  28 2.55  25 2.57  27 2.57  21 2.58  29 2.60  32 2.61
                            36 2.62
  31  0.994  0.334  0.459-  32 2.48  35 2.54  28 2.55  19 2.57  22 2.57  20 2.58  33 2.60  29 2.61
                            36 2.62
  32  0.672  0.334  0.459-  31 2.48  35 2.54  28 2.55  19 2.57  24 2.57  21 2.58  34 2.60  30 2.61
                            36 2.62
  33  0.994  0.672  0.459-  30 2.48  35 2.54  28 2.55  25 2.57  22 2.57  23 2.58  31 2.60  34 2.61
                            36 2.62
  34  0.334  0.672  0.459-  29 2.48  35 2.54  28 2.55  26 2.57  24 2.57  23 2.58  32 2.60  33 2.61
                            36 2.62
  35  0.667  0.667  0.460-  34 2.54  32 2.54  29 2.54  30 2.54  33 2.54  31 2.54  24 2.58  27 2.58
                            22 2.58
  36  0.333  0.333  0.470-  37 1.91  31 2.62  29 2.62  33 2.62  32 2.62  34 2.62  30 2.62  23 2.77
                            20 2.77  21 2.77
  37  0.334  0.333  0.545-  38 1.42  36 1.91
  38  0.311  0.333  0.600-  39 0.98  37 1.42
  39  0.432  0.334  0.612-  38 0.98

  LATTYP: Found a hexagonal cell.
 ALAT       =     7.6967864036
 C/A-ratio  =     3.2973366172

  Lattice vectors:

 A1 = (  -3.8483927580,  -6.6656128093,   0.0000000000)
 A2 = (   7.6967864037,   0.0000000000,   0.0000000000)
 A3 = (   0.0000000000,   0.0000000000,  25.3788956434)

Analysis of symmetry for initial positions (statically):
 Subroutine PRICEL returns:
 Original cell was already a primitive cell.

 Routine SETGRP: Setting up the symmetry group for a
 hexagonal supercell.

 Subroutine GETGRP returns: Found  1 space group operations
 (whereof  1 operations were pure point group operations)
 out of a pool of 24 trial point group operations.

The static configuration has the point symmetry C_1 .

Analysis of symmetry for dynamics (positions and initial velocities):
 Subroutine PRICEL returns:
 Original cell was already a primitive cell.

[...]

The dynamic configuration has the point symmetry C_1 .

Analysis of constrained symmetry for selective dynamics:
 Subroutine PRICEL returns:
[...]
     41      -4.4253      2.00000
     42      -4.2797      2.00000
     43      -4.2667      2.00000
     44      -4.2215      2.00000
     45      -4.2128      2.00000
     46      -4.2098      2.00000
     47      -4.1761      2.00000
     48      -4.1667      2.00000
     49      -4.1580      2.00000
     50      -4.1496      2.00000
     51      -4.0215      2.00000
     52      -3.9949      2.00000
     53      -3.9777      2.00000
     54      -3.9597      2.00000
     55      -3.9128      2.00000
     56      -3.8948      2.00000
     57      -3.8767      2.00000
     58      -3.8709      2.00000
     59      -3.8555      2.00000
     60      -3.8424      2.00000
[...]
    238       5.3056      0.00000
    239       5.4273      0.00000
    240       5.5054      0.00000
    241       5.5680      0.00000
    242       5.5888      0.00000
    243       5.6807      0.00000
    244       5.7226      0.00000
    245       5.8486      0.00000
    246       5.8868      0.00000
    247       6.0229      0.00000
    248       6.1648      0.00000
    249       6.2577      0.00000
    250       6.3725      0.00000
    251       6.7600      0.00000
    252       6.8851      0.00000

 soft charge-density along one line, spin component           1
         0         1         2         3         4         5         6         7         8         9
 total charge-density along one line

------------------------ aborting loop because EDIFF is reached ----------------------------------------

 total charge

# of ion       s       p       d       tot
    1        0.449   0.284   9.187   9.919
    2        0.448   0.285   9.186   9.918
    3        0.448   0.285   9.186   9.919
    4        0.448   0.285   9.185   9.918
    5        0.448   0.285   9.183   9.917
    6        0.448   0.285   9.185   9.918
    7        0.448   0.285   9.186   9.919
    8        0.448   0.285   9.185   9.918
    9        0.448   0.284   9.188   9.920
   10        0.443   0.371   9.178   9.991
   11        0.441   0.365   9.182   9.988
   12        0.442   0.371   9.178   9.991
   13        0.441   0.365   9.182   9.988
   14        0.441   0.365   9.182   9.988
   15        0.439   0.372   9.177   9.989
   16        0.442   0.371   9.178   9.991
   17        0.439   0.372   9.177   9.989
   18        0.439   0.372   9.177   9.989
   19        0.445   0.371   9.181   9.997
   20        0.456   0.385   9.165  10.006
   21        0.456   0.384   9.165  10.006
   22        0.435   0.374   9.178   9.987
   23        0.456   0.385   9.165  10.006
   24        0.435   0.374   9.178   9.987
   25        0.445   0.371   9.181   9.997
   26        0.445   0.371   9.181   9.997
   27        0.435   0.374   9.178   9.987
   28        0.448   0.300   9.178   9.925
   29        0.485   0.317   9.170   9.971
   30        0.485   0.318   9.170   9.972
   31        0.485   0.317   9.169   9.971
   32        0.485   0.319   9.169   9.973
   33        0.485   0.317   9.170   9.971
   34        0.485   0.318   9.169   9.972
   35        0.448   0.303   9.177   9.928
   36        0.630   0.638   2.216   3.484
   37        1.568   3.390   0.000   4.959
   38        1.587   3.399   0.000   4.986
   39        0.616   0.113   0.000   0.730
tot         20.217  19.325 323.441 362.983

  FORCE on cell =-STRESS in cart. coord.  units (eV):
  Direction    XX          YY          ZZ          XY          YZ          ZX
  Alpha Z   758.97690   758.97690   758.97690
  Ewald  248341.87509248250.48586************     0.36705    -0.26522     0.01540
  Hartree261129.93005261111.01706************     0.03563    -0.11791    -8.81542
  E(xc)   -2325.84396 -2326.29373 -2330.52132     0.00261    -0.00042     0.06324
  Local  ************************521722.35828    -0.25509     0.34655    12.01677
  n-local  -797.73627  -798.14236  -800.09817     0.02036    -0.00265    -0.71228
  augment  3321.51189  3323.36414  3340.96262    -0.03418     0.00653     0.02763
  Kinetic  3439.78001  3464.72993  3426.63173    -0.12673     0.05246    -2.61059
  Fock        0.00000     0.00000     0.00000     0.00000     0.00000     0.00000
  Total      -2.88850    -2.91390     0.93669     0.00965     0.01935    -0.01524
  in kB      -3.55435    -3.58561     1.15262     0.01187     0.02381    -0.01875

 VOLUME and BASIS-vectors are now :
  energy-cutoff  :      500.00
  volume of cell :     1302.03
      direct lattice vectors                 reciprocal lattice vectors
     7.696786404  0.000000000  0.000000000     0.129924354 -0.075011849  0.000000000
     3.848392758  6.665612809  0.000000000     0.000000000  0.150023716  0.000000000
     0.000000000  0.000000000 25.378895643     0.000000000  0.000000000  0.039402818

  length of vectors
     7.696786404  7.696786404 25.378895643     0.150023716  0.150023716  0.039402818

 FORCES acting on ions
    electron-ion (+dipol)            ewald-force                    non-local-force                 convergence-correction
   0.243E-02 0.206E-02 0.385E+04   -.118E-02 -.712E-03 -.385E+04   -.550E-02 0.253E-02 -.211E+01   0.463E-02 -.295E-02 -.557E+00
   -.118E+01 -.149E+01 0.385E+04   0.113E+01 0.141E+01 -.384E+04   0.341E-01 0.707E-01 -.190E+01   0.130E-01 0.132E-01 -.497E+00
   0.118E+01 -.150E+01 0.385E+04   -.113E+01 0.142E+01 -.384E+04   -.306E-01 0.724E-01 -.190E+01   -.179E-01 0.223E-01 -.479E+00
   -.189E+01 -.268E+00 0.385E+04   0.179E+01 0.273E+00 -.384E+04   0.831E-01 -.467E-02 -.188E+01   0.171E-01 -.245E-02 -.492E+00
   -.158E-02 -.582E-02 0.384E+04   0.259E-02 0.155E-03 -.384E+04   -.130E-01 -.569E-02 -.184E+01   0.135E-01 0.116E-01 -.455E+00
   0.188E+01 -.277E+00 0.385E+04   -.179E+01 0.273E+00 -.384E+04   -.787E-01 -.587E-02 -.188E+01   -.173E-01 0.774E-02 -.465E+00
   -.722E+00 0.177E+01 0.385E+04   0.660E+00 -.169E+01 -.384E+04   0.414E-01 -.674E-01 -.190E+01   0.246E-01 -.209E-01 -.481E+00
   0.701E+00 0.177E+01 0.385E+04   -.659E+00 -.169E+01 -.384E+04   -.367E-01 -.659E-01 -.190E+01   -.923E-02 -.176E-01 -.476E+00
   0.227E-01 0.317E-02 0.385E+04   -.959E-03 0.564E-03 -.385E+04   0.632E-02 0.352E-02 -.204E+01   -.280E-01 -.825E-02 -.477E+00
   -.122E+02 -.701E+01 0.131E+04   0.124E+02 0.713E+01 -.131E+04   -.212E+00 -.131E+00 -.792E+00   0.422E-01 0.200E-01 -.643E+00
   -.266E-01 -.133E+02 0.129E+04   0.139E-01 0.130E+02 -.129E+04   -.948E-02 0.249E+00 -.441E+00   0.221E-01 0.539E-01 -.631E+00
   0.122E+02 -.703E+01 0.131E+04   -.124E+02 0.714E+01 -.131E+04   0.211E+00 -.127E+00 -.759E+00   -.504E-01 0.293E-01 -.639E+00
   -.115E+02 0.663E+01 0.129E+04   0.113E+02 -.648E+01 -.129E+04   0.216E+00 -.134E+00 -.427E+00   0.623E-01 -.236E-02 -.631E+00
   0.115E+02 0.664E+01 0.129E+04   -.112E+02 -.649E+01 -.129E+04   -.226E+00 -.131E+00 -.430E+00   -.230E-01 -.511E-02 -.630E+00
   0.299E-01 -.774E+00 0.131E+04   -.163E-01 0.743E+00 -.131E+04   0.148E-03 0.463E-01 -.815E+00   -.129E-01 -.659E-02 -.628E+00
   -.800E-02 0.141E+02 0.131E+04   0.328E-02 -.143E+02 -.131E+04   0.101E-02 0.252E+00 -.788E+00   0.365E-02 -.657E-01 -.636E+00
   -.652E+00 0.398E+00 0.131E+04   0.638E+00 -.377E+00 -.131E+04   0.355E-01 -.157E-01 -.824E+00   -.149E-01 -.824E-02 -.632E+00
   0.664E+00 0.372E+00 0.131E+04   -.642E+00 -.360E+00 -.131E+04   -.413E-01 -.198E-01 -.829E+00   0.116E-01 0.355E-02 -.632E+00
   0.992E-01 -.938E+01 -.120E+04   -.114E+00 0.932E+01 0.120E+04   0.142E-01 -.871E-02 0.109E+01   -.322E-03 0.559E-01 -.395E+00
   -.742E+02 -.427E+02 -.133E+04   0.749E+02 0.432E+02 0.133E+04   -.877E+00 -.524E+00 -.890E-01   0.297E-01 0.156E-01 -.368E+00
   0.741E+02 -.428E+02 -.133E+04   -.748E+02 0.432E+02 0.133E+04   0.835E+00 -.499E+00 -.350E-01   -.581E-01 0.229E-01 -.384E+00
   -.353E+02 0.203E+02 -.123E+04   0.351E+02 -.202E+02 0.123E+04   0.245E+00 -.120E+00 0.801E+00   -.196E-01 -.955E-02 -.343E+00
   -.111E+00 0.855E+02 -.133E+04   0.103E+00 -.864E+02 0.133E+04   -.314E-02 0.993E+00 -.429E-01   0.831E-02 -.211E-01 -.382E+00
   0.354E+02 0.204E+02 -.123E+04   -.352E+02 -.203E+02 0.123E+04   -.220E+00 -.115E+00 0.792E+00   -.156E-01 -.438E-03 -.349E+00
   0.814E+01 0.468E+01 -.120E+04   -.809E+01 -.463E+01 0.120E+04   0.296E-02 -.845E-02 0.111E+01   -.313E-01 -.296E-01 -.391E+00
   -.813E+01 0.479E+01 -.120E+04   0.807E+01 -.475E+01 0.120E+04   -.108E-02 0.389E-02 0.111E+01   0.425E-01 -.404E-01 -.387E+00
   -.118E-01 -.407E+02 -.123E+04   0.242E-01 0.405E+02 0.123E+04   0.100E-01 0.270E+00 0.809E+00   -.225E-01 -.162E-01 -.342E+00
   0.341E+00 0.253E+00 -.368E+04   -.343E+00 -.230E+00 0.368E+04   0.212E-02 -.537E-02 0.150E+01   0.754E-03 -.148E-01 0.188E+00
   -.529E+02 -.100E+03 -.365E+04   0.530E+02 0.999E+02 0.365E+04   -.193E+00 -.622E-01 0.138E+01   -.344E-01 -.326E-01 0.425E-01
   0.526E+02 -.101E+03 -.365E+04   -.527E+02 0.101E+03 0.365E+04   0.184E+00 -.673E-01 0.135E+01   0.600E-01 -.299E-01 0.386E-01
   -.113E+03 0.464E+01 -.365E+04   0.113E+03 -.447E+01 0.365E+04   -.135E+00 -.140E+00 0.133E+01   -.392E-01 -.195E-01 0.370E-01
   0.114E+03 0.464E+01 -.365E+04   -.114E+03 -.448E+01 0.365E+04   0.140E+00 -.142E+00 0.124E+01   0.830E-01 -.145E-01 0.187E-01
   -.611E+02 0.954E+02 -.365E+04   0.609E+02 -.955E+02 0.365E+04   0.386E-01 0.187E+00 0.137E+01   0.258E-01 0.741E-01 0.354E-01
   0.607E+02 0.962E+02 -.365E+04   -.606E+02 -.963E+02 0.365E+04   -.510E-01 0.194E+00 0.134E+01   0.151E-01 0.869E-01 0.252E-01
   0.363E+00 -.200E+00 -.370E+04   -.345E+00 0.193E+00 0.369E+04   0.755E-02 0.961E-02 0.160E+01   -.263E-01 -.630E-02 0.119E+00
   -.704E+00 -.505E-01 -.129E+04   0.584E+00 0.523E-01 0.129E+04   0.113E+00 0.629E-02 -.413E-01   -.308E-02 -.299E-03 0.156E-01
   -.187E+02 -.307E+00 -.205E+04   0.219E+02 0.354E+00 0.203E+04   -.323E+01 -.360E-01 0.211E+02   -.167E-01 -.359E-02 0.135E+00
   0.705E+02 0.484E+00 -.212E+04   -.114E+03 -.704E+00 0.214E+04   0.435E+02 0.220E+00 -.242E+02   -.207E-02 -.172E-02 0.108E+00
   -.850E+02 -.344E+00 -.352E+03   0.928E+02 0.378E+00 0.355E+03   -.779E+01 -.331E-01 -.272E+01   0.757E-03 -.147E-03 0.183E-01
   -.326E+02 -.138E+00 0.251E+02   0.000E+00 0.291E-12 -.153E-11   0.326E+02 0.111E+00 -.127E+02   0.377E-01 0.360E-01 -.126E+02

 POSITION                                       TOTAL-FORCE (eV/Angst)
      0.00000      0.00000      5.37156         0.000112      0.000701      0.014041
      2.56560      0.00000      5.37156        -0.000134      0.005319      0.060212
      5.13119      0.00000      5.37156        -0.000747      0.005379      0.060836
      1.28280      2.22187      5.37156         0.003507     -0.002669      0.061601
      3.84839      2.22187      5.37156         0.001226      0.000067      0.064617
      6.41399      2.22187      5.37156        -0.005096     -0.002240      0.061491
      2.56560      4.44374      5.37156         0.003677     -0.003220      0.060713
      5.13119      4.44374      5.37156        -0.004346     -0.004092      0.060942
      7.69679      4.44374      5.37156        -0.000203     -0.001222      0.032949
      1.28280      0.74062      7.46636         0.021073      0.011314     -0.100662
      3.84839      0.74062      7.46636        -0.000313     -0.018961     -0.036235
      6.41399      0.74062      7.46636        -0.020755      0.011155     -0.098895
      2.56560      2.96249      7.46636        -0.016625      0.009388     -0.036262
      5.13119      2.96249      7.46636         0.017264      0.009778     -0.035491
      7.69679      2.96249      7.46636         0.000577      0.007959     -0.025893
      3.84839      5.18437      7.46636        -0.000325     -0.023960     -0.100373
      6.41399      5.18437      7.46636         0.006413     -0.003329     -0.026491
      8.97958      5.18437      7.46636        -0.007128     -0.004679     -0.026792
      7.69679      1.47625      9.53578        -0.000797     -0.020447      0.018099
      2.57143      1.48462      9.57247        -0.117307     -0.066116     -0.174264
      5.12535      1.48462      9.57247         0.121533     -0.073595     -0.191661
      8.97869      3.70363      9.55450         0.026933     -0.016557      0.040927
      3.84839      3.69638      9.57247        -0.003233      0.135105     -0.179953
      6.41488      3.70363      9.55450        -0.028703     -0.017323      0.037580
     10.26671      5.92749      9.53578         0.017009      0.010234      0.023830
      5.12686      5.92749      9.53578        -0.017947      0.009890      0.024060
      7.69679      5.92396      9.55450        -0.000316      0.029965      0.042365
      0.00000      0.00000     11.64309        -0.000146      0.002901     -0.054020
      6.39641      6.62889     11.65568        -0.102127     -0.184384     -0.161668
      8.99717      6.62889     11.65568         0.105004     -0.183416     -0.161840
      8.93899      2.22500     11.65568        -0.213995      0.004543     -0.168520
      6.45458      2.22500     11.65568         0.215038      0.003690     -0.174112
     10.23937      4.47733     11.65568        -0.109120      0.181282     -0.158886
      5.15420      4.47733     11.65568         0.110423      0.179312     -0.161295
      7.69679      4.44374     11.66757        -0.000946     -0.004499     -0.041584
      3.84839      2.22187     11.91603        -0.010419      0.007606      1.457859
      3.84963      2.22113     13.82360         0.008101      0.006726     -0.011779
      3.67305      2.21908     15.22811         0.000043     -0.001919      0.002698
      4.60636      2.22308     15.53333         0.002796      0.000313      0.001856
    total drift:                                0.010545      0.008786     -0.171576

  FREE ENERGIE OF THE ION-ELECTRON SYSTEM (eV)
  free  energy   TOTEN  =      -148.20106751 eV

  energy  without entropy=     -148.20106751  energy(sigma->0) =     -148.20106751

 stress matrix after NEB project (eV)
     -2.88850      0.00965     -0.01524
      0.00965     -2.91390      0.01935
     -0.01524      0.01935      0.93669
  FORCES: max atom, RMS     0.015799    0.002641
  FORCE total and by dimension    0.016491    0.011779
  Stress total and by dimension    4.208681    2.913897
|           W    W    AA    RRRRR   N    N  II  N    N   GGGG   !!!           |
|           W    W   A  A   R    R  NN   N  II  NN   N  G    G  !!!           |
|           W    W  A    A  R    R  N N  N  II  N N  N  G       !!!           |
|           W WW W  AAAAAA  RRRRR   N  N N  II  N  N N  G  GGG   !            |
|           WW  WW  A    A  R   R   N   NN  II  N   NN  G    G                |
|           W    W  A    A  R    R  N    N  II  N    N   GGGG   !!!           |
|     Tetrahedron method does not include variations of the Fermi             |
|     occupations, so forces and stress will be inaccurate. We suggest        |
|     using a different smearing scheme ISMEAR = 1 or 2 for metals in         |
|     relaxations.                                                            |

 total charge

# of ion       s       p       d       tot
    1        0.449   0.284   9.187   9.919
    2        0.448   0.285   9.186   9.918
    3        0.448   0.285   9.186   9.919
    4        0.448   0.285   9.185   9.918
    5        0.448   0.285   9.183   9.917
    6        0.448   0.285   9.185   9.918
    7        0.448   0.285   9.186   9.919
    8        0.448   0.285   9.185   9.918
    9        0.448   0.284   9.188   9.920
   10        0.443   0.371   9.178   9.991
   11        0.441   0.365   9.182   9.988
   12        0.442   0.371   9.178   9.991
   13        0.441   0.365   9.182   9.988
   14        0.441   0.365   9.182   9.988
   15        0.439   0.372   9.177   9.989
   16        0.442   0.371   9.178   9.991
   17        0.439   0.372   9.177   9.989
   18        0.439   0.372   9.177   9.989
   19        0.445   0.371   9.181   9.997
   20        0.456   0.385   9.165  10.006
   21        0.456   0.384   9.165  10.006
   22        0.435   0.374   9.178   9.987
   23        0.456   0.385   9.165  10.006
   24        0.435   0.374   9.178   9.987
   25        0.445   0.371   9.181   9.997
   26        0.445   0.371   9.181   9.997
   27        0.435   0.374   9.178   9.987
   28        0.448   0.300   9.178   9.925
   29        0.485   0.317   9.170   9.971
   30        0.485   0.318   9.170   9.972
   31        0.485   0.317   9.169   9.971
   32        0.485   0.319   9.169   9.973
   33        0.485   0.317   9.170   9.971
   34        0.485   0.318   9.169   9.972
   35        0.448   0.303   9.177   9.928
   36        0.630   0.638   2.216   3.484
   37        1.568   3.390   0.000   4.959
   38        1.587   3.399   0.000   4.986
   39        0.616   0.113   0.000   0.730
tot         20.217  19.325 323.441 362.983

 BZINTS: Fermi energy:   -0.420304;  402.000000 electrons
         Band energy:-0.143562E+04;  BLOECHL correction:   -0.072387