 vasp.6.2.0 18Jan21 (build Jun 12 2021 23:27:24) complex

 executed on             LinuxIFC date 2022.05.30  17:03:35

 INCAR:
   ISMEAR = -5
   SIGMA = 0.1
   ISPIN = 1
   EDIFF = 1.d-5
   EDIFFG = -0.01
   NSW = 0
   NELM = 150
   ENCUT = 500
   ISIF = 2
   IBRION = 2
   LREAL = Auto
   ALGO = Fast
   ICHARG = 11
   LORBIT = 10
   LCHARG = .F.
   LWAVE = .F.

 POTCAR:    PAW_PBE Ag 02Apr2005
 POTCAR:    PAW_PBE Co 02Aug2007
 POTCAR:    PAW_PBE C 08Apr2002
|           W    W    AA    RRRRR   N    N  II  N    N   GGGG   !!!           |
|           W    W   A  A   R    R  NN   N  II  NN   N  G    G  !!!           |
|           W    W  A    A  R    R  N N  N  II  N N  N  G       !!!           |
|           W WW W  AAAAAA  RRRRR   N  N N  II  N  N N  G  GGG   !            |
|           WW  WW  A    A  R   R   N   NN  II  N   NN  G    G                |
|           W    W  A    A  R    R  N    N  II  N    N   GGGG   !!!           |
|     For optimal performance we recommend to set                             |
|       NCORE = 2 up to number-of-cores-per-socket                            |
|     This setting can greatly improve the performance of VASP for DFT.       |
|     The default, NCORE=1 might be grossly inefficient on modern             |
|     multi-core architectures or massively parallel machines. Do your        |
|     Unfortunately you need to use the default for GW and RPA                |
|     calculations (for HF NCORE is supported but not extensively tested      |
|     yet).                                                                   |

 POTCAR:    PAW_PBE Ag 02Apr2005
   VRHFIN =Ag : s1 d10

   TITEL  = PAW_PBE Ag 02Apr2005
   POMASS =  107.868; ZVAL   =   11.000    mass and valenz
   ENMAX  =  249.844; ENMIN  =  187.383 eV

 POTCAR:    PAW_PBE Co 02Aug2007
   VRHFIN =Co: d8 s1

   TITEL  = PAW_PBE Co 02Aug2007
   POMASS =   58.933; ZVAL   =    9.000    mass and valenz
   ENMAX  =  267.968; ENMIN  =  200.976 eV

 POTCAR:    PAW_PBE C 08Apr2002
   VRHFIN =C: s2p2

   TITEL  = PAW_PBE C 08Apr2002
   POMASS =   12.011; ZVAL   =    4.000    mass and valenz
   ENMAX  =  400.000; ENMIN  =  300.000 eV

 Optimization of the real space projectors (new method)

 maximal supplied QI-value         = 15.12
 optimisation between [QCUT,QGAM] = [ 11.34, 22.83] = [ 36.00,145.93] Ry
 Optimized for a Real-space Cutoff    1.43 Angstroem

   l    n(q)    QCUT    max X(q) W(low)/X(q) W(high)/X(q)  e(spline)
   2      9    11.338    53.897    0.16E-03    0.20E-03    0.28E-06
   2      9    11.338    52.416    0.16E-03    0.20E-03    0.29E-06
   0     10    11.338   122.045    0.31E-04    0.76E-04    0.15E-06
   0     10    11.338    73.629    0.30E-04    0.72E-04    0.15E-06
   1      9    11.338    15.255    0.20E-03    0.19E-04    0.17E-06
   1      9    11.338     9.562    0.16E-03    0.15E-04    0.14E-06
 Optimization of the real space projectors (new method)

[...]

   l    n(q)    QCUT    max X(q) W(low)/X(q) W(high)/X(q)  e(spline)
   2      8    11.376    65.824    0.20E-03    0.32E-04    0.13E-06
   2      8    11.376    61.429    0.20E-03    0.33E-04    0.14E-06
   0      9    11.376    56.174    0.76E-04    0.11E-03    0.19E-06
   0      9    11.376    31.263    0.69E-04    0.99E-04    0.17E-06
   1      9    11.376    19.828    0.35E-03    0.11E-03    0.12E-06
   1      9    11.376    15.139    0.29E-03    0.94E-04    0.10E-06
 Optimization of the real space projectors (new method)

 maximal supplied QI-value         = 25.13
 optimisation between [QCUT,QGAM] = [ 11.31, 22.87] = [ 35.82,146.48] Ry
 Optimized for a Real-space Cutoff    1.00 Angstroem

   l    n(q)    QCUT    max X(q) W(low)/X(q) W(high)/X(q)  e(spline)
   0      7    11.310   115.676    0.43E-03    0.13E-02    0.19E-06
   0      7    11.310    87.132    0.43E-03    0.13E-02    0.18E-06
   1      6    11.310     4.429    0.42E-03    0.74E-03    0.11E-06
   1      6    11.310     2.733    0.34E-03    0.55E-03    0.92E-07
  PAW_PBE Ag 02Apr2005                  :
  PAW_PBE Co 02Aug2007                  :
  PAW_PBE C 08Apr2002                   :

 POSCAR: Ag-Co-C
  positions in direct lattice
  velocities in cartesian coordinates
 exchange correlation table for  LEXCH =        8
   RHO(1)=    0.500       N(1)  =     2000
   RHO(2)=  100.500       N(2)  =     4000

 VTST: version 3.2, (02/03/18)

 CHAIN: initializing optimizer

 OPT: Using VASP Conjugate-Gradient optimizer
 CHAIN: Read ICHAIN            0

 POSCAR: Ag-Co-C
  positions in direct lattice
  velocities in cartesian coordinates

 ion  position               nearest neighbor table
   1  0.000  0.000  0.217-   2 2.93   8 2.93   7 2.93   6 2.93   4 2.93  12 2.93  16 2.93  10 2.93
                             3 2.93
   2  0.333  0.000  0.217-   1 2.93   8 2.93   9 2.93   3 2.93   4 2.93   5 2.93  10 2.93  17 2.93
                            11 2.93
   3  0.667  0.000  0.217-   9 2.93   2 2.93   5 2.93  11 2.93   7 2.93  18 2.93   1 2.93   6 2.93
                            12 2.93
   4  0.000  0.333  0.217-   5 2.93   6 2.93   2 2.93   1 2.93   7 2.93  13 2.93  15 2.93   9 2.93
                            10 2.93
   5  0.333  0.333  0.217-   4 2.93   3 2.93   7 2.93   2 2.93   8 2.93  14 2.93  13 2.93  11 2.93
                             6 2.93
   6  0.667  0.333  0.217-   4 2.93   9 2.93   1 2.93  15 2.93   8 2.93  12 2.93   3 2.93   5 2.93
                            14 2.93
   7  0.000  0.667  0.217-   8 2.93   1 2.93   5 2.93   3 2.93   4 2.93  16 2.93  18 2.93  13 2.93
                             9 2.93
   8  0.333  0.667  0.217-   7 2.93   1 2.93   2 2.93   9 2.93   5 2.93  16 2.93   6 2.93  17 2.93
                            14 2.93
   9  0.667  0.667  0.217-   3 2.93   2 2.93   8 2.93   6 2.93  17 2.93   4 2.93  15 2.93   7 2.93
                            18 2.93
  10  0.111  0.111  0.315-  20 2.92  19 2.93  26 2.93  12 2.93  16 2.93  15 2.93  17 2.93  13 2.93
                            11 2.93   2 2.93   1 2.93   4 2.93
  11  0.444  0.111  0.315-  21 2.90  20 2.90  27 2.92  14 2.93  17 2.93  18 2.93   3 2.93  12 2.93
                            13 2.93  10 2.93   5 2.93   2 2.93
  12  0.778  0.111  0.315-  21 2.92  25 2.93  19 2.93  10 2.93  16 2.93  18 2.93  15 2.93  11 2.93
                             1 2.93  14 2.93   6 2.93   3 2.93
  13  0.111  0.444  0.315-  20 2.90  23 2.90  22 2.92  15 2.93  14 2.93  18 2.93  10 2.93  11 2.93
                            16 2.93   4 2.93   5 2.93   7 2.93
  14  0.444  0.444  0.315-  23 2.90  21 2.90  24 2.92  13 2.93  11 2.93  16 2.93   5 2.93  12 2.93
                            17 2.93   8 2.93  15 2.93   6 2.93
  15  0.778  0.444  0.315-  24 2.91  22 2.91  19 2.92  13 2.93  10 2.93  12 2.93  17 2.93  18 2.93
                             4 2.93   6 2.93   9 2.93  14 2.93
  16  0.111  0.778  0.315-  23 2.92  26 2.93  25 2.93  18 2.93  12 2.93  10 2.93  14 2.93  17 2.93
                            13 2.93   7 2.93   8 2.93   1 2.93
  17  0.444  0.778  0.315-  27 2.91  24 2.91  26 2.92  11 2.93  10 2.93   9 2.93  18 2.93  15 2.93
                            16 2.93   2 2.93  14 2.93   8 2.93
  18  0.778  0.778  0.315-  22 2.91  27 2.91  25 2.92  16 2.93  12 2.93  13 2.93  11 2.93  17 2.93
                            15 2.93   7 2.93   3 2.93   9 2.93
  19  0.889  0.222  0.413-  28 2.91  15 2.92  10 2.93  12 2.93  24 2.93  22 2.93  26 2.93  25 2.93
                            32 2.94  31 2.94  20 2.94  21 2.94
  20  0.223  0.223  0.412-  36 2.69  31 2.89  29 2.89  13 2.90  11 2.90  21 2.91  23 2.91  10 2.92
                            27 2.93  22 2.93  19 2.94  26 2.94
  21  0.554  0.223  0.412-  36 2.69  30 2.89  32 2.89  11 2.90  14 2.90  20 2.91  23 2.91  12 2.92
                            27 2.93  24 2.93  25 2.94  19 2.94
  22  0.888  0.556  0.413-  35 2.91  33 2.91  31 2.91  18 2.91  15 2.91  13 2.92  24 2.92  27 2.92
                            25 2.93  19 2.93  23 2.93  20 2.93
  23  0.223  0.554  0.412-  36 2.69  34 2.89  33 2.89  14 2.90  13 2.90  21 2.91  20 2.91  16 2.92
                            22 2.93  24 2.93  26 2.94  25 2.94
  24  0.556  0.556  0.413-  35 2.91  32 2.91  34 2.91  15 2.91  17 2.91  14 2.92  27 2.92  22 2.92
                            19 2.93  26 2.93  23 2.93  21 2.93
  25  0.889  0.889  0.413-  28 2.91  18 2.92  16 2.93  12 2.93  22 2.93  27 2.93  26 2.93  19 2.93
                            33 2.94  30 2.94  23 2.94  21 2.94
  26  0.222  0.889  0.413-  28 2.91  17 2.92  16 2.93  10 2.93  27 2.93  24 2.93  25 2.93  19 2.93
                            34 2.94  29 2.94  23 2.94  20 2.94
  27  0.556  0.888  0.413-  35 2.91  29 2.91  30 2.91  17 2.91  18 2.91  11 2.92  24 2.92  22 2.92
                            26 2.93  25 2.93  20 2.93  21 2.93
  28  0.000  0.000  0.510-  26 2.91  25 2.91  19 2.91  29 2.97  34 2.97  33 2.97  32 2.97  31 2.97
                            30 2.97
  29  0.333  0.008  0.510-  31 2.86  30 2.86  36 2.87  20 2.89  27 2.91  26 2.94  28 2.97  35 2.97
                            34 3.07
  30  0.659  0.008  0.510-  32 2.86  29 2.86  36 2.87  21 2.89  27 2.91  25 2.94  28 2.97  35 2.97
                            33 3.07
  31  0.008  0.333  0.510-  29 2.86  33 2.86  36 2.87  20 2.89  22 2.91  19 2.94  28 2.97  35 2.97
                            32 3.07
  32  0.659  0.333  0.510-  30 2.86  34 2.86  36 2.87  21 2.89  24 2.91  19 2.94  28 2.97  35 2.97
                            31 3.07
  33  0.008  0.659  0.510-  34 2.86  31 2.86  36 2.87  23 2.89  22 2.91  25 2.94  28 2.97  35 2.97
                            30 3.07
  34  0.333  0.659  0.510-  33 2.86  32 2.86  36 2.87  23 2.89  24 2.91  26 2.94  28 2.97  35 2.97
                            29 3.07
  35  0.667  0.667  0.510-  24 2.91  27 2.91  22 2.91  32 2.97  30 2.97  29 2.97  34 2.97  31 2.97
                            33 2.97
  36  0.333  0.333  0.498-  37 1.59  21 2.69  20 2.69  23 2.69  31 2.87  30 2.87  33 2.87  29 2.87
                            34 2.87  32 2.87
  37  0.333  0.333  0.564-  36 1.59

  LATTYP: Found a hexagonal cell.
 ALAT       =     8.7913665772
 C/A-ratio  =     2.7711238095

  Lattice vectors:

 A1 = (  -4.3956832886,  -7.6135467898,   0.0000000000)
 A2 = (   8.7913665771,   0.0000000000,   0.0000000000)
 A3 = (   0.0000000000,   0.0000000000,  24.3619652401)

Analysis of symmetry for initial positions (statically):
 Subroutine PRICEL returns:
 Original cell was already a primitive cell.

 Routine SETGRP: Setting up the symmetry group for a
 hexagonal supercell.

 Subroutine GETGRP returns: Found  6 space group operations
 (whereof  6 operations were pure point group operations)
 out of a pool of 24 trial point group operations.

The static configuration has the point symmetry C_3v.

Analysis of symmetry for dynamics (positions and initial velocities):
 Subroutine PRICEL returns:
 Original cell was already a primitive cell.

[...]

The dynamic configuration has the point symmetry C_3v.

Analysis of constrained symmetry for selective dynamics:
 Subroutine PRICEL returns:
 Original cell was already a primitive cell.

 Routine SETGRP: Setting up the symmetry group for a
 hexagonal supercell.

 Subroutine GETGRP returns: Found  6 space group operations
[...]
     24      -5.1242      2.00000
     25      -5.1096      2.00000
     26      -5.0872      2.00000
     27      -5.0665      2.00000
     28      -5.0575      2.00000
     29      -5.0510      2.00000
     30      -5.0269      2.00000
     31      -5.0218      2.00000
     32      -5.0143      2.00000
     33      -4.9813      2.00000
     34      -4.9245      2.00000
     35      -4.9124      2.00000
     36      -4.8835      2.00000
     37      -4.8693      2.00000
     38      -4.8520      2.00000
     39      -4.8238      2.00000
     40      -4.8170      2.00000
     41      -4.8045      2.00000
     42      -4.7917      2.00000
     43      -4.7686      2.00000
     44      -4.7158      2.00000
     45      -4.6783      2.00000
     46      -4.6723      2.00000
     47      -4.6668      2.00000
     48      -4.6555      2.00000
     49      -4.6503      2.00000
     50      -4.6340      2.00000
     51      -4.6274      2.00000
     52      -4.6157      2.00000
     53      -4.6064      2.00000
     54      -4.5450      2.00000
     55      -4.5352      2.00000
     56      -4.5247      2.00000
     57      -4.5192      2.00000
     58      -4.5038      2.00000
     59      -4.4857      2.00000
     60      -4.4543      2.00000
[...]
    238       5.7951      0.00000
    239       5.9009      0.00000
    240       5.9366      0.00000
    241       6.3929      0.00000
    242       6.4116      0.00000
    243       6.6173      0.00000
    244       6.6207      0.00000
    245       6.6436      0.00000
    246       6.7228      0.00000
    247       6.7661      0.00000
    248       6.8762      0.00000
    249       6.9376      0.00000
    250       7.1152      0.00000
    251       7.1533      0.00000
    252       7.2223      0.00000

 soft charge-density along one line, spin component           1
         0         1         2         3         4         5         6         7         8         9
 total charge-density along one line

------------------------ aborting loop because EDIFF is reached ----------------------------------------

 total charge

# of ion       s       p       d       tot
    1        0.415   0.204   9.176   9.796
    2        0.416   0.204   9.177   9.796
    3        0.416   0.204   9.177   9.796
    4        0.416   0.204   9.177   9.796
    5        0.418   0.202   9.177   9.797
    6        0.416   0.204   9.177   9.796
    7        0.416   0.204   9.177   9.796
    8        0.416   0.204   9.177   9.796
    9        0.414   0.205   9.176   9.794
   10        0.407   0.268   9.164   9.840
   11        0.402   0.273   9.164   9.839
   12        0.407   0.268   9.164   9.840
   13        0.402   0.273   9.164   9.839
   14        0.402   0.273   9.164   9.839
   15        0.404   0.269   9.165   9.838
   16        0.407   0.268   9.164   9.840
   17        0.404   0.269   9.165   9.838
   18        0.404   0.269   9.165   9.838
   19        0.405   0.265   9.167   9.836
   20        0.420   0.292   9.152   9.865
   21        0.420   0.292   9.152   9.865
   22        0.399   0.275   9.165   9.839
   23        0.420   0.292   9.152   9.865
   24        0.399   0.275   9.165   9.839
   25        0.405   0.265   9.167   9.836
   26        0.405   0.265   9.167   9.836
   27        0.399   0.275   9.165   9.839
   28        0.415   0.193   9.182   9.789
   29        0.404   0.207   9.179   9.790
   30        0.404   0.207   9.179   9.790
   31        0.404   0.207   9.179   9.790
   32        0.404   0.207   9.179   9.790
   33        0.404   0.207   9.179   9.790
   34        0.404   0.207   9.179   9.790
   35        0.415   0.192   9.183   9.790
   36        0.485   0.477   7.536   8.498
   37        1.026   1.183   0.000   2.209
tot         15.819  10.050 328.497 354.366

  FORCE on cell =-STRESS in cart. coord.  units (eV):
  Direction    XX          YY          ZZ          XY          YZ          ZX
  Alpha Z   677.06683   677.06683   677.06683
  Ewald  154833.16243154833.16250************     0.00004     0.00000     0.00002
  Hartree164852.80243164852.80246************     0.00002    -0.00000     0.00001
  E(xc)   -2088.97197 -2088.97194 -2094.16137    -0.00003     0.00000     0.00000
  Local  ************************331075.17176     0.00032    -0.00004    -0.00011
  n-local  -335.19688  -318.06187  -327.07169    10.83087    -0.40720     0.55875
  augment  3380.44965  3380.44984  3373.48238    -0.00017     0.00000     0.00006
  Kinetic  4901.45419  4902.56620  4912.81897     3.63859     1.20908    -0.48142
  Fock        0.00000     0.00000     0.00000     0.00000     0.00000     0.00000
  Total      -9.08126    -9.08126    -1.05288    -0.00000    -0.00000     0.00000
  in kB      -8.92279    -8.92279    -1.03451    -0.00000    -0.00000     0.00000

 VOLUME and BASIS-vectors are now :
  energy-cutoff  :      500.00
  volume of cell :     1630.63
      direct lattice vectors                 reciprocal lattice vectors
     8.791366577  0.000000000  0.000000000     0.113747958 -0.065672414  0.000000000
     4.395683289  7.613546790  0.000000000     0.000000000  0.131344829  0.000000000
     0.000000000  0.000000000 24.361965240     0.000000000  0.000000000  0.041047592

  length of vectors
     8.791366577  8.791366577 24.361965240     0.131344829  0.131344829  0.041047592

 FORCES acting on ions
    electron-ion (+dipol)            ewald-force                    non-local-force                 convergence-correction
   0.464E-04 -.280E-04 0.269E+04   -.954E-04 0.593E-04 -.268E+04   -.763E-17 -.337E-18 -.173E+01   -.201E-03 -.223E-03 0.901E-01
   0.580E+00 0.692E+00 0.269E+04   -.622E+00 -.620E+00 -.269E+04   -.407E-03 -.264E-01 -.165E+01   0.424E-01 -.455E-01 0.186E+00
   -.580E+00 0.692E+00 0.269E+04   0.622E+00 -.620E+00 -.269E+04   0.407E-03 -.264E-01 -.165E+01   -.429E-01 -.437E-01 0.186E+00
   0.890E+00 0.156E+00 0.269E+04   -.848E+00 -.229E+00 -.269E+04   -.231E-01 0.129E-01 -.165E+01   -.180E-01 0.597E-01 0.186E+00
   -.692E-05 -.194E-04 0.269E+04   0.981E-04 -.199E-05 -.269E+04   -.130E-18 0.222E-17 -.185E+01   0.626E-02 0.382E-02 0.195E+00
   -.890E+00 0.156E+00 0.269E+04   0.848E+00 -.229E+00 -.269E+04   0.231E-01 0.129E-01 -.165E+01   0.166E-01 0.605E-01 0.186E+00
   0.309E+00 -.849E+00 0.269E+04   -.226E+00 0.849E+00 -.269E+04   -.227E-01 0.136E-01 -.165E+01   -.588E-01 -.148E-01 0.186E+00
   -.309E+00 -.849E+00 0.269E+04   0.226E+00 0.849E+00 -.269E+04   0.227E-01 0.136E-01 -.165E+01   0.603E-01 -.158E-01 0.186E+00
   0.363E-04 -.131E-04 0.269E+04   0.792E-04 -.643E-04 -.269E+04   -.491E-17 0.230E-17 -.162E+01   -.659E-02 -.339E-02 0.191E+00
   0.524E+01 0.302E+01 0.911E+03   -.527E+01 -.304E+01 -.911E+03   -.961E-01 -.555E-01 -.564E+00   0.113E+00 0.653E-01 0.230E+00
   -.293E-04 0.681E+01 0.922E+03   0.418E-04 -.691E+01 -.922E+03   0.513E-12 0.780E-01 -.652E+00   0.686E-02 0.127E-01 0.227E+00
   -.524E+01 0.302E+01 0.911E+03   0.527E+01 -.304E+01 -.911E+03   0.961E-01 -.555E-01 -.564E+00   -.115E+00 0.662E-01 0.231E+00
   0.589E+01 -.340E+01 0.922E+03   -.599E+01 0.346E+01 -.922E+03   0.676E-01 -.390E-01 -.652E+00   0.143E-01 -.393E-03 0.227E+00
   -.589E+01 -.340E+01 0.922E+03   0.599E+01 0.346E+01 -.922E+03   -.676E-01 -.390E-01 -.652E+00   -.380E-02 -.195E-02 0.226E+00
   0.167E-04 0.146E+01 0.913E+03   -.109E-03 -.148E+01 -.912E+03   -.103E-12 -.157E-01 -.466E+00   -.175E-02 0.218E-01 0.213E+00
   -.795E-05 -.605E+01 0.911E+03   0.208E-04 0.608E+01 -.911E+03   0.729E-12 0.111E+00 -.564E+00   -.348E-03 -.133E+00 0.231E+00
   0.126E+01 -.730E+00 0.913E+03   -.128E+01 0.740E+00 -.912E+03   -.136E-01 0.785E-02 -.466E+00   0.180E-01 -.124E-01 0.213E+00
   -.126E+01 -.730E+00 0.913E+03   0.128E+01 0.740E+00 -.912E+03   0.136E-01 0.785E-02 -.466E+00   -.174E-01 -.101E-01 0.215E+00
   0.412E-04 0.282E+01 -.898E+03   -.129E-03 -.276E+01 0.897E+03   -.280E-12 -.426E-01 0.518E+00   -.658E-02 -.389E-02 0.824E-01
   0.333E+02 0.192E+02 -.847E+03   -.328E+02 -.189E+02 0.847E+03   -.694E+00 -.401E+00 -.310E+00   0.901E-01 0.521E-01 0.125E+00
   -.333E+02 0.192E+02 -.847E+03   0.328E+02 -.189E+02 0.847E+03   0.694E+00 -.401E+00 -.310E+00   -.888E-01 0.502E-01 0.125E+00
   0.123E+02 -.711E+01 -.883E+03   -.127E+02 0.732E+01 0.883E+03   0.300E+00 -.173E+00 0.665E+00   0.853E-01 -.403E-01 0.664E-01
   -.610E-04 -.385E+02 -.847E+03   0.466E-04 0.379E+02 0.847E+03   0.526E-11 0.802E+00 -.310E+00   -.621E-03 -.101E+00 0.125E+00
   -.123E+02 -.711E+01 -.883E+03   0.127E+02 0.732E+01 0.883E+03   -.300E+00 -.173E+00 0.665E+00   -.743E-01 -.428E-01 0.666E-01
   -.244E+01 -.141E+01 -.898E+03   0.239E+01 0.138E+01 0.897E+03   0.369E-01 0.213E-01 0.518E+00   -.539E-02 -.326E-02 0.821E-01
   0.244E+01 -.141E+01 -.898E+03   -.239E+01 0.138E+01 0.897E+03   -.369E-01 0.213E-01 0.518E+00   -.697E-02 -.388E-02 0.825E-01
   0.206E-04 0.142E+02 -.883E+03   0.109E-03 -.146E+02 0.883E+03   0.227E-11 0.346E+00 0.665E+00   0.711E-02 0.940E-01 0.665E-01
   0.543E-04 -.373E-04 -.268E+04   -.115E-03 0.777E-04 0.267E+04   -.112E-17 0.167E-17 0.197E+01   -.451E-03 -.396E-03 -.453E-01
   0.309E+02 0.537E+02 -.267E+04   -.307E+02 -.533E+02 0.267E+04   -.284E+00 -.517E+00 0.226E+01   0.376E-01 0.243E-01 -.203E-01
   -.309E+02 0.537E+02 -.267E+04   0.307E+02 -.533E+02 0.267E+04   0.284E+00 -.517E+00 0.226E+01   -.376E-01 0.254E-01 -.218E-01
   0.620E+02 -.109E+00 -.267E+04   -.615E+02 0.811E-01 0.267E+04   -.590E+00 0.125E-01 0.226E+01   0.401E-01 0.206E-01 -.202E-01
   -.620E+02 -.109E+00 -.267E+04   0.615E+02 0.810E-01 0.267E+04   0.590E+00 0.125E-01 0.226E+01   -.409E-01 0.207E-01 -.208E-01
   0.311E+02 -.536E+02 -.267E+04   -.308E+02 0.532E+02 0.267E+04   -.306E+00 0.505E+00 0.226E+01   0.366E-02 -.447E-01 -.219E-01
   -.311E+02 -.536E+02 -.267E+04   0.308E+02 0.532E+02 0.267E+04   0.306E+00 0.505E+00 0.226E+01   -.296E-02 -.457E-01 -.209E-01
   0.225E-04 -.133E-04 -.268E+04   0.106E-03 -.659E-04 0.267E+04   -.390E-17 0.925E-18 0.198E+01   -.608E-02 -.308E-02 -.468E-01
   -.305E-04 -.161E-04 -.191E+04   0.866E-04 0.126E-04 0.191E+04   0.123E-16 -.458E-17 0.474E+01   0.626E-02 0.382E-02 0.110E+00
   0.467E-04 -.249E-04 -.126E+04   0.226E-04 0.416E-06 0.127E+04   -.472E-18 -.808E-18 -.898E+01   0.884E-03 0.541E-03 -.631E-01
   0.387E-03 -.731E-03 -.636E-01   -.291E-13 -.181E-12 0.614E-11   0.119E-15 -.447E-17 -.426E+01   0.132E-01 0.110E-01 0.426E+01

 POSITION                                       TOTAL-FORCE (eV/Angst)
      0.00000      0.00000      5.28219        -0.000000     -0.000000      0.019075
      2.93046      0.00000      5.28219         0.000650      0.001573      0.020598
      5.86091      0.00000      5.28219        -0.000650      0.001573      0.020598
      1.46523      2.53785      5.28219         0.001687     -0.000224      0.020598
      4.39568      2.53785      5.28219        -0.000000     -0.000000     -0.010867
      7.32614      2.53785      5.28219        -0.001687     -0.000224      0.020598
      2.93046      5.07570      5.28219         0.001038     -0.001349      0.020598
      5.86091      5.07570      5.28219        -0.001038     -0.001349      0.020598
      8.79137      5.07570      5.28219        -0.000000     -0.000000      0.029548
      1.46523      0.84595      7.67490        -0.012935     -0.007468      0.006176
      4.39568      0.84595      7.67490        -0.000000     -0.020829     -0.048029
      7.32614      0.84595      7.67490         0.012935     -0.007468      0.006176
      2.93046      3.38380      7.67490        -0.018038      0.010414     -0.048029
      5.86091      3.38380      7.67490         0.018038      0.010414     -0.048029
      8.79137      3.38380      7.67490        -0.000000     -0.014669      0.001168
      4.39568      5.92165      7.67490         0.000000      0.014936      0.006176
      7.32614      5.92165      7.67490        -0.012704      0.007335      0.001168
     10.25659      5.92165      7.67490         0.012704      0.007335      0.001168
      8.79137      1.69398     10.06180         0.000000      0.009818      0.011002
      2.94231      1.69874     10.03918        -0.096553     -0.055745     -0.096830
      5.84906      1.69874     10.03918         0.096553     -0.055745     -0.096830
     10.25255      4.23208     10.04993         0.002827     -0.001632      0.005964
      4.39568      4.21606     10.03918         0.000000      0.111490     -0.096830
      7.33018      4.23208     10.04993        -0.002827     -0.001632      0.005964
     11.72002      6.76656     10.06180        -0.008503     -0.004909      0.011002
      5.86271      6.76656     10.06180         0.008503     -0.004909      0.011002
      8.79137      6.76293     10.04993         0.000000      0.003265      0.005964
      0.00000      0.00000     12.42562        -0.000000     -0.000000      0.001468
      2.96563      0.06260     12.41952        -0.039459     -0.078635     -0.016684
      5.82574      0.06260     12.41952         0.039459     -0.078635     -0.016684
      1.53702      2.53701     12.41952        -0.087829      0.005145     -0.016684
      7.25434      2.53701     12.41952         0.087829      0.005145     -0.016684
      2.96708      5.01394     12.41952        -0.048370      0.073490     -0.016684
      5.82429      5.01394     12.41952         0.048370      0.073490     -0.016684
      8.79137      5.07570     12.42127        -0.000000     -0.000000     -0.021796
      4.39568      2.53785     12.13550        -0.000000     -0.000000      0.339988
      4.39568      2.53785     13.72886        -0.000000     -0.000000     -0.019257
    total drift:                                0.013613      0.010292     -0.069623

  FREE ENERGIE OF THE ION-ELECTRON SYSTEM (eV)
  free  energy   TOTEN  =      -101.16343557 eV

  energy  without entropy=     -101.16343557  energy(sigma->0) =     -101.16343557

 stress matrix after NEB project (eV)
     -9.08126     -0.00000      0.00000
     -0.00000     -9.08126     -0.00000
      0.00000     -0.00000     -1.05288
  FORCES: max atom, RMS     0.019257    0.003166
  FORCE total and by dimension    0.019257    0.019257
  Stress total and by dimension   12.885926    9.081259
|           W    W    AA    RRRRR   N    N  II  N    N   GGGG   !!!           |
|           W    W   A  A   R    R  NN   N  II  NN   N  G    G  !!!           |
|           W    W  A    A  R    R  N N  N  II  N N  N  G       !!!           |
|           W WW W  AAAAAA  RRRRR   N  N N  II  N  N N  G  GGG   !            |
|           WW  WW  A    A  R   R   N   NN  II  N   NN  G    G                |
|           W    W  A    A  R    R  N    N  II  N    N   GGGG   !!!           |
|     Tetrahedron method does not include variations of the Fermi             |
|     occupations, so forces and stress will be inaccurate. We suggest        |
|     using a different smearing scheme ISMEAR = 1 or 2 for metals in         |
|     relaxations.                                                            |

 total charge

# of ion       s       p       d       tot
    1        0.415   0.204   9.176   9.796
    2        0.416   0.204   9.177   9.796
    3        0.416   0.204   9.177   9.796
    4        0.416   0.204   9.177   9.796
    5        0.418   0.202   9.177   9.797
    6        0.416   0.204   9.177   9.796
    7        0.416   0.204   9.177   9.796
    8        0.416   0.204   9.177   9.796
    9        0.414   0.205   9.176   9.794
   10        0.407   0.268   9.164   9.840
   11        0.402   0.273   9.164   9.839
   12        0.407   0.268   9.164   9.840
   13        0.402   0.273   9.164   9.839
   14        0.402   0.273   9.164   9.839
   15        0.404   0.269   9.165   9.838
   16        0.407   0.268   9.164   9.840
   17        0.404   0.269   9.165   9.838
   18        0.404   0.269   9.165   9.838
   19        0.405   0.265   9.167   9.836
   20        0.420   0.292   9.152   9.865
   21        0.420   0.292   9.152   9.865
   22        0.399   0.275   9.165   9.839
   23        0.420   0.292   9.152   9.865
   24        0.399   0.275   9.165   9.839
   25        0.405   0.265   9.167   9.836
   26        0.405   0.265   9.167   9.836
   27        0.399   0.275   9.165   9.839
   28        0.415   0.193   9.182   9.789
   29        0.404   0.207   9.179   9.790
   30        0.404   0.207   9.179   9.790
   31        0.404   0.207   9.179   9.790
   32        0.404   0.207   9.179   9.790
   33        0.404   0.207   9.179   9.790
   34        0.404   0.207   9.179   9.790
   35        0.415   0.192   9.183   9.790
   36        0.485   0.477   7.536   8.498
   37        1.026   1.183   0.000   2.209
tot         15.819  10.050 328.497 354.366

 BZINTS: Fermi energy:    0.325855;  398.000000 electrons
         Band energy:-0.148524E+04;  BLOECHL correction:   -0.089667