 vasp.6.2.0 18Jan21 (build Jun 12 2021 23:27:24) complex

 executed on             LinuxIFC date 2022.05.30  18:20:18

 INCAR:
   ISMEAR = -5
   SIGMA = 0.1
   ISPIN = 1
   EDIFF = 1.d-5
   EDIFFG = -0.01
   NSW = 0
   NELM = 150
   ENCUT = 500
   ISIF = 2
   IBRION = 2
   LREAL = Auto
   ALGO = Fast
   ICHARG = 11
   LORBIT = 10
   LCHARG = .F.
   LWAVE = .F.

 POTCAR:    PAW_PBE Cu 22Jun2005
 POTCAR:    PAW_PBE Ru 04Feb2005
 POTCAR:    PAW_PBE C 08Apr2002
 POTCAR:    PAW_PBE O 08Apr2002
 POTCAR:    PAW_PBE H 15Jun2001
|           W    W    AA    RRRRR   N    N  II  N    N   GGGG   !!!           |
|           W    W   A  A   R    R  NN   N  II  NN   N  G    G  !!!           |
|           W    W  A    A  R    R  N N  N  II  N N  N  G       !!!           |
|           W WW W  AAAAAA  RRRRR   N  N N  II  N  N N  G  GGG   !            |
|           WW  WW  A    A  R   R   N   NN  II  N   NN  G    G                |
|           W    W  A    A  R    R  N    N  II  N    N   GGGG   !!!           |
|     For optimal performance we recommend to set                             |
|       NCORE = 2 up to number-of-cores-per-socket                            |
|     This setting can greatly improve the performance of VASP for DFT.       |
|     The default, NCORE=1 might be grossly inefficient on modern             |
|     multi-core architectures or massively parallel machines. Do your        |
|     Unfortunately you need to use the default for GW and RPA                |
|     calculations (for HF NCORE is supported but not extensively tested      |
|     yet).                                                                   |

 POTCAR:    PAW_PBE Cu 22Jun2005
   VRHFIN =Cu: d10 p1

   TITEL  = PAW_PBE Cu 22Jun2005
   POMASS =   63.546; ZVAL   =   11.000    mass and valenz
   ENMAX  =  295.446; ENMIN  =  221.585 eV

 POTCAR:    PAW_PBE Ru 04Feb2005
   VRHFIN =Ru: s1 d7

   TITEL  = PAW_PBE Ru 04Feb2005
   POMASS =  101.070; ZVAL   =    8.000    mass and valenz
   ENMAX  =  213.271; ENMIN  =  159.953 eV

 POTCAR:    PAW_PBE C 08Apr2002
   VRHFIN =C: s2p2

   TITEL  = PAW_PBE C 08Apr2002
   POMASS =   12.011; ZVAL   =    4.000    mass and valenz
   ENMAX  =  400.000; ENMIN  =  300.000 eV

 POTCAR:    PAW_PBE O 08Apr2002
   VRHFIN =O: s2p4

   TITEL  = PAW_PBE O 08Apr2002
   POMASS =   16.000; ZVAL   =    6.000    mass and valenz
   ENMAX  =  400.000; ENMIN  =  300.000 eV

 POTCAR:    PAW_PBE H 15Jun2001
   VRHFIN =H: ultrasoft test

   TITEL  = PAW_PBE H 15Jun2001
   POMASS =    1.000; ZVAL   =    1.000    mass and valenz
   ENMAX  =  250.000; ENMIN  =  200.000 eV

 Optimization of the real space projectors (new method)

 maximal supplied QI-value         = 16.25
 optimisation between [QCUT,QGAM] = [ 11.38, 22.75] = [ 36.24,144.96] Ry
 Optimized for a Real-space Cutoff    1.52 Angstroem

   l    n(q)    QCUT    max X(q) W(low)/X(q) W(high)/X(q)  e(spline)
   2      9    11.376     4.610    0.21E-03    0.10E-03    0.26E-06
   2      9    11.376     8.522    0.33E-03    0.16E-03    0.37E-06
   0     10    11.376    51.609    0.62E-04    0.20E-04    0.13E-06
   0     10    11.376    27.747    0.54E-04    0.20E-04    0.13E-06
   1     10    11.376    20.408    0.13E-04    0.99E-04    0.19E-06
   1     10    11.376    13.425    0.12E-04    0.87E-04    0.17E-06
 Optimization of the real space projectors (new method)

[...]

   l    n(q)    QCUT    max X(q) W(low)/X(q) W(high)/X(q)  e(spline)
   0      7    11.387    20.381    0.39E-03    0.13E-02    0.15E-06
   0      7    11.387    15.268    0.42E-03    0.14E-02    0.17E-06
   1      6    11.387     5.964    0.41E-03    0.11E-02    0.17E-06
   1      6    11.387     5.382    0.39E-03    0.87E-03    0.15E-06
 Optimization of the real space projectors (new method)

 maximal supplied QI-value         = 34.20
 optimisation between [QCUT,QGAM] = [ 11.29, 22.57] = [ 35.68,142.71] Ry
 Optimized for a Real-space Cutoff    1.16 Angstroem

   l    n(q)    QCUT    max X(q) W(low)/X(q) W(high)/X(q)  e(spline)
   0      8    11.287    19.460    0.40E-03    0.73E-03    0.16E-06
   0      8    11.287    12.209    0.38E-03    0.70E-03    0.15E-06
   1      7    11.287     4.655    0.22E-03    0.25E-04    0.22E-06
  PAW_PBE Cu 22Jun2005                  :
  PAW_PBE Ru 04Feb2005                  :
  PAW_PBE C 08Apr2002                   :
  PAW_PBE O 08Apr2002                   :
  PAW_PBE H 15Jun2001                   :

 POSCAR: Cu-Ru-COH
  positions in direct lattice
  velocities in cartesian coordinates
 exchange correlation table for  LEXCH =        8
   RHO(1)=    0.500       N(1)  =     2000
   RHO(2)=  100.500       N(2)  =     4000

 VTST: version 3.2, (02/03/18)

 CHAIN: initializing optimizer

 OPT: Using VASP Conjugate-Gradient optimizer
 CHAIN: Read ICHAIN            0

 POSCAR: Cu-Ru-COH
  positions in direct lattice
  velocities in cartesian coordinates

 ion  position               nearest neighbor table
   1  0.000  0.000  0.206-   7 2.57   3 2.57   4 2.57   2 2.57   6 2.57   8 2.57  12 2.57  10 2.57
                            16 2.57
   2  0.333  0.000  0.206-   8 2.57   9 2.57   5 2.57   1 2.57   3 2.57  11 2.57   4 2.57  10 2.57
                            17 2.57
   3  0.667  0.000  0.206-   1 2.57   7 2.57   6 2.57   9 2.57   2 2.57  12 2.57   5 2.57  18 2.57
                            11 2.57
   4  0.000  0.333  0.206-   5 2.57   6 2.57   1 2.57   7 2.57   2 2.57  13 2.57   9 2.57  10 2.57
                            15 2.57
   5  0.333  0.333  0.206-   4 2.57   2 2.57   7 2.57  13 2.57   8 2.57   6 2.57   3 2.57  11 2.57
                            14 2.57
   6  0.667  0.333  0.206-   4 2.57   9 2.57  15 2.57   3 2.57   1 2.57   8 2.57  14 2.57   5 2.57
                            12 2.57
   7  0.000  0.667  0.206-   1 2.57   3 2.57  16 2.57  18 2.57   4 2.57   5 2.57   8 2.57   9 2.57
                            13 2.57
   8  0.333  0.667  0.206-   9 2.57   2 2.57  17 2.57   6 2.57   1 2.57   7 2.57   5 2.57  14 2.57
                            16 2.57
   9  0.667  0.667  0.206-   8 2.57   6 2.57   2 2.57  17 2.57   3 2.57   7 2.57   4 2.57  15 2.57
                            18 2.57
  10  0.111  0.111  0.286-  20 2.55  26 2.56  19 2.56  11 2.57  12 2.57  13 2.57   1 2.57   2 2.57
                             4 2.57  15 2.57  16 2.57  17 2.57
  11  0.444  0.111  0.286-  20 2.55  21 2.55  10 2.57  13 2.57   2 2.57  17 2.57  14 2.57  12 2.57
                             5 2.57   3 2.57  18 2.57  27 2.57
  12  0.778  0.111  0.286-  21 2.55  19 2.56  25 2.56  15 2.57  10 2.57  14 2.57  18 2.57   3 2.57
                             1 2.57  16 2.57  11 2.57   6 2.57
  13  0.111  0.444  0.286-  23 2.55  20 2.55  16 2.57  18 2.57  10 2.57  11 2.57  14 2.57   5 2.57
                             4 2.57   7 2.57  15 2.57  22 2.57
  14  0.444  0.444  0.286-  21 2.55  23 2.55  15 2.57  17 2.57  12 2.57  16 2.57  13 2.57  11 2.57
                             6 2.57   8 2.57   5 2.57  24 2.57
  15  0.778  0.444  0.286-  19 2.56  14 2.57  17 2.57  12 2.57   6 2.57  18 2.57  10 2.57   9 2.57
                            13 2.57   4 2.57  24 2.57  22 2.57
  16  0.111  0.778  0.286-  23 2.55  25 2.56  26 2.56  18 2.57  13 2.57   7 2.57  14 2.57  17 2.57
                            12 2.57  10 2.57   8 2.57   1 2.57
  17  0.444  0.778  0.286-  26 2.56  14 2.57  15 2.57   8 2.57   9 2.57  11 2.57  16 2.57  18 2.57
                            10 2.57   2 2.57  27 2.57  24 2.57
  18  0.778  0.778  0.286-  25 2.56  16 2.57  13 2.57   7 2.57  15 2.57  12 2.57  17 2.57   9 2.57
                             3 2.57  11 2.57  22 2.57  27 2.57
  19  0.889  0.223  0.366-  28 2.55  15 2.56  21 2.56  20 2.56  12 2.56  10 2.56  22 2.56  24 2.56
                            32 2.56  31 2.56  25 2.57  26 2.57
  20  0.222  0.222  0.365-  10 2.55  11 2.55  13 2.55  36 2.55  26 2.56  19 2.56  27 2.57  22 2.57
                            23 2.57  21 2.57  29 2.58  31 2.58
  21  0.556  0.222  0.365-  12 2.55  14 2.55  11 2.55  36 2.55  19 2.56  25 2.56  24 2.57  27 2.57
                            20 2.57  23 2.57  32 2.58  30 2.58
  22  0.888  0.556  0.366-  35 2.55  24 2.56  27 2.56  19 2.56  25 2.56  18 2.57  15 2.57  31 2.57
                            33 2.57  23 2.57  20 2.57  13 2.57
  23  0.222  0.556  0.365-  16 2.55  13 2.55  14 2.55  36 2.55  25 2.56  26 2.56  22 2.57  24 2.57
                            20 2.57  21 2.57  33 2.58  34 2.58
  24  0.556  0.556  0.366-  35 2.55  22 2.56  27 2.56  19 2.56  26 2.56  15 2.57  17 2.57  32 2.57
                            34 2.57  21 2.57  23 2.57  14 2.57
  25  0.889  0.889  0.366-  28 2.55  18 2.56  21 2.56  23 2.56  16 2.56  12 2.56  22 2.56  27 2.56
                            33 2.56  30 2.56  19 2.57  26 2.57
  26  0.223  0.889  0.366-  28 2.55  17 2.56  20 2.56  23 2.56  10 2.56  16 2.56  27 2.56  24 2.56
                            29 2.56  34 2.56  25 2.57  19 2.57
  27  0.556  0.888  0.366-  35 2.55  24 2.56  22 2.56  26 2.56  25 2.56  17 2.57  18 2.57  29 2.57
                            30 2.57  20 2.57  21 2.57  11 2.57
  28  0.000  0.000  0.445-  25 2.55  19 2.55  26 2.55  33 2.56  30 2.56  31 2.56  29 2.56  32 2.56
                            34 2.56
  29  0.333  0.999  0.446-  34 2.55  28 2.56  26 2.56  35 2.56  27 2.57  31 2.57  36 2.57  30 2.58
                            20 2.58
  30  0.668  0.999  0.446-  33 2.55  28 2.56  25 2.56  35 2.56  27 2.57  32 2.57  36 2.57  29 2.58
                            21 2.58
  31  0.999  0.333  0.446-  32 2.55  28 2.56  19 2.56  35 2.56  22 2.57  29 2.57  36 2.57  33 2.58
                            20 2.58
  32  0.668  0.333  0.446-  31 2.55  28 2.56  19 2.56  35 2.56  24 2.57  30 2.57  36 2.57  34 2.58
                            21 2.58
  33  0.999  0.668  0.446-  30 2.55  28 2.56  25 2.56  35 2.56  22 2.57  34 2.57  36 2.57  31 2.58
                            23 2.58
  34  0.333  0.668  0.446-  29 2.55  28 2.56  26 2.56  35 2.56  24 2.57  33 2.57  36 2.57  32 2.58
                            23 2.58
  35  0.667  0.667  0.445-  24 2.55  27 2.55  22 2.55  34 2.56  32 2.56  29 2.56  30 2.56  33 2.56
                            31 2.56
  36  0.333  0.333  0.444-  37 1.76  23 2.55  20 2.55  21 2.55  31 2.57  29 2.57  33 2.57  34 2.57
                            32 2.57  30 2.57
  37  0.333  0.333  0.512-  38 1.26  36 1.76
  38  0.333  0.333  0.560-  39 0.96  37 1.26
  39  0.333  0.333  0.597-  38 0.96

  LATTYP: Found a hexagonal cell.
 ALAT       =     7.6967864036
 C/A-ratio  =     3.3950614187

  Lattice vectors:

 A1 = (  -3.8483927580,  -6.6656128093,   0.0000000000)
 A2 = (   7.6967864037,   0.0000000000,   0.0000000000)
 A3 = (   0.0000000000,   0.0000000000,  26.1310625667)

Analysis of symmetry for initial positions (statically):
 Subroutine PRICEL returns:
 Original cell was already a primitive cell.

 Routine SETGRP: Setting up the symmetry group for a
 hexagonal supercell.

 Subroutine GETGRP returns: Found  6 space group operations
 (whereof  6 operations were pure point group operations)
 out of a pool of 24 trial point group operations.

The static configuration has the point symmetry C_3v.

Analysis of symmetry for dynamics (positions and initial velocities):
[...]
     41      -3.8462      2.00000
     42      -3.7561      2.00000
     43      -3.7348      2.00000
     44      -3.7293      2.00000
     45      -3.7065      2.00000
     46      -3.6624      2.00000
     47      -3.6487      2.00000
     48      -3.6222      2.00000
     49      -3.6180      2.00000
     50      -3.6150      2.00000
     51      -3.4307      2.00000
     52      -3.4245      2.00000
     53      -3.4041      2.00000
     54      -3.3940      2.00000
     55      -3.3499      2.00000
     56      -3.3420      2.00000
     57      -3.3365      2.00000
     58      -3.3290      2.00000
     59      -3.3144      2.00000
     60      -3.2935      2.00000
[...]
    238       5.2168      0.00000
    239       5.4254      0.00000
    240       5.5083      0.00000
    241       5.5299      0.00000
    242       5.5514      0.00000
    243       5.6785      0.00000
    244       5.7520      0.00000
    245       5.8840      0.00000
    246       5.9074      0.00000
    247       5.9484      0.00000
    248       6.0714      0.00000
    249       6.2447      0.00000
    250       6.3543      0.00000
    251       6.6862      0.00000
    252       6.8931      0.00000

 soft charge-density along one line, spin component           1
         0         1         2         3         4         5         6         7         8         9
 total charge-density along one line

------------------------ aborting loop because EDIFF is reached ----------------------------------------

 total charge

# of ion       s       p       d       tot
    1        0.449   0.284   9.188   9.921
    2        0.450   0.286   9.186   9.921
    3        0.450   0.286   9.186   9.921
    4        0.450   0.286   9.186   9.921
    5        0.448   0.288   9.183   9.919
    6        0.450   0.286   9.186   9.921
    7        0.450   0.286   9.186   9.921
    8        0.450   0.286   9.186   9.921
    9        0.446   0.285   9.188   9.919
   10        0.440   0.372   9.176   9.988
   11        0.443   0.367   9.182   9.993
   12        0.440   0.372   9.176   9.988
   13        0.443   0.367   9.182   9.993
   14        0.443   0.367   9.182   9.993
   15        0.436   0.370   9.177   9.984
   16        0.440   0.372   9.176   9.988
   17        0.436   0.370   9.177   9.984
   18        0.436   0.370   9.177   9.984
   19        0.443   0.369   9.180   9.992
   20        0.458   0.390   9.171  10.019
   21        0.458   0.390   9.171  10.019
   22        0.432   0.376   9.178   9.985
   23        0.458   0.390   9.171  10.019
   24        0.432   0.376   9.178   9.985
   25        0.443   0.369   9.180   9.992
   26        0.443   0.369   9.180   9.992
   27        0.432   0.376   9.178   9.985
   28        0.455   0.289   9.192   9.936
   29        0.447   0.308   9.185   9.941
   30        0.447   0.308   9.185   9.941
   31        0.447   0.308   9.185   9.941
   32        0.447   0.308   9.185   9.941
   33        0.447   0.308   9.185   9.941
   34        0.447   0.308   9.185   9.941
   35        0.449   0.292   9.192   9.933
   36        0.652   0.859   6.907   8.419
   37        0.927   1.444   0.000   2.371
   38        1.527   3.758   0.000   5.285
   39        0.560   0.133   0.000   0.693
tot         19.252  17.932 328.269 365.453

  FORCE on cell =-STRESS in cart. coord.  units (eV):
  Direction    XX          YY          ZZ          XY          YZ          ZX
  Alpha Z   732.41826   732.41826   732.41826
  Ewald  270715.22920270715.22878************     0.00040     0.00012     0.00018
  Hartree283738.77471283738.77469************     0.00004     0.00006     0.00007
  E(xc)   -2333.21139 -2333.21100 -2336.06546    -0.00034    -0.00003    -0.00006
  Local  ************************567400.67840     0.01892    -0.00061    -0.00098
  n-local  -778.57612  -763.40818  -779.27267     8.17148    -0.00237     0.11638
  augment  3363.48396  3363.50448  3370.46428    -0.01777     0.00036     0.00059
  Kinetic  3444.89555  3448.94226  3395.03105     3.54197     1.84279    -1.51215
  Fock        0.00000     0.00000     0.00000     0.00000     0.00000     0.00000
  Total      -3.64992    -3.64992     1.33123     0.00000    -0.00000    -0.00000
  in kB      -4.36202    -4.36202     1.59096     0.00000    -0.00000    -0.00000

 VOLUME and BASIS-vectors are now :
  energy-cutoff  :      500.00
  volume of cell :     1340.62
      direct lattice vectors                 reciprocal lattice vectors
     7.696786404  0.000000000  0.000000000     0.129924354 -0.075011849  0.000000000
     3.848392758  6.665612809  0.000000000     0.000000000  0.150023716  0.000000000
     0.000000000  0.000000000 26.131062567     0.000000000  0.000000000  0.038268631

  length of vectors
     7.696786404  7.696786404 26.131062567     0.150023716  0.150023716  0.038268631

 FORCES acting on ions
    electron-ion (+dipol)            ewald-force                    non-local-force                 convergence-correction
   -.438E-04 -.111E-05 0.394E+04   0.580E-04 -.436E-05 -.394E+04   0.747E-17 -.145E-17 -.296E+01   -.354E-03 -.172E-03 -.304E+00
   -.149E+00 0.837E-01 0.394E+04   0.188E+00 -.109E-01 -.394E+04   0.193E-01 0.788E-01 -.193E+01   -.491E-01 -.129E+00 -.222E+00
   0.149E+00 0.838E-01 0.394E+04   -.188E+00 -.110E-01 -.394E+04   -.193E-01 0.788E-01 -.193E+01   0.499E-01 -.126E+00 -.221E+00
   -.190E-02 -.171E+00 0.394E+04   0.845E-01 0.168E+00 -.394E+04   0.779E-01 -.227E-01 -.193E+01   -.136E+00 0.217E-01 -.222E+00
   -.697E-04 -.804E-05 0.394E+04   0.116E-03 -.101E-04 -.394E+04   0.665E-17 -.138E-18 -.167E+01   0.121E-01 0.743E-02 -.196E+00
   0.192E-02 -.171E+00 0.394E+04   -.846E-01 0.168E+00 -.394E+04   -.779E-01 -.227E-01 -.193E+01   0.134E+00 0.229E-01 -.221E+00
   0.147E+00 0.871E-01 0.394E+04   -.104E+00 -.157E+00 -.394E+04   0.586E-01 -.561E-01 -.193E+01   -.841E-01 0.106E+00 -.221E+00
   -.147E+00 0.871E-01 0.394E+04   0.103E+00 -.157E+00 -.394E+04   -.586E-01 -.561E-01 -.193E+01   0.876E-01 0.105E+00 -.221E+00
   -.146E-03 -.338E-04 0.394E+04   0.263E-03 0.205E-04 -.394E+04   0.742E-17 -.446E-18 -.257E+01   -.131E-01 -.678E-02 -.237E+00
   0.635E+00 0.367E+00 0.137E+04   -.121E+00 -.697E-01 -.137E+04   -.480E+00 -.277E+00 -.104E+01   -.416E-01 -.240E-01 -.296E+00
   -.897E-04 0.229E+00 0.137E+04   0.190E-03 -.147E+00 -.137E+04   -.772E-08 0.116E+00 -.565E+00   0.119E-01 -.227E+00 -.254E+00
   -.635E+00 0.367E+00 0.137E+04   0.121E+00 -.698E-01 -.137E+04   0.480E+00 -.277E+00 -.104E+01   0.397E-01 -.229E-01 -.296E+00
   0.198E+00 -.114E+00 0.137E+04   -.127E+00 0.731E-01 -.137E+04   0.100E+00 -.580E-01 -.565E+00   -.191E+00 0.125E+00 -.254E+00
   -.198E+00 -.114E+00 0.137E+04   0.127E+00 0.731E-01 -.137E+04   -.100E+00 -.580E-01 -.565E+00   0.214E+00 0.123E+00 -.256E+00
   -.142E-03 -.114E+01 0.137E+04   0.298E-03 0.974E+00 -.137E+04   -.523E-08 0.785E-01 -.956E+00   -.346E-02 0.766E-01 -.323E+00
   -.913E-04 -.734E+00 0.137E+04   0.186E-03 0.139E+00 -.137E+04   -.369E-07 0.554E+00 -.104E+01   -.900E-03 0.447E-01 -.296E+00
   -.984E+00 0.568E+00 0.137E+04   0.843E+00 -.487E+00 -.137E+04   0.680E-01 -.393E-01 -.956E+00   0.653E-01 -.413E-01 -.323E+00
   0.984E+00 0.568E+00 0.137E+04   -.843E+00 -.487E+00 -.137E+04   -.680E-01 -.393E-01 -.956E+00   -.639E-01 -.386E-01 -.321E+00
   -.612E-04 -.134E+01 -.121E+04   0.684E-04 0.135E+01 0.121E+04   0.241E-08 -.363E-01 0.853E+00   -.993E-03 0.242E-01 -.390E+00
   -.220E+02 -.127E+02 -.122E+04   0.231E+02 0.133E+02 0.123E+04   -.105E+01 -.608E+00 -.882E+00   -.153E+00 -.887E-01 -.465E+00
   0.220E+02 -.127E+02 -.122E+04   -.231E+02 0.133E+02 0.123E+04   0.105E+01 -.608E+00 -.882E+00   0.155E+00 -.906E-01 -.467E+00
   -.135E+02 0.782E+01 -.122E+04   0.132E+02 -.763E+01 0.122E+04   0.461E+00 -.266E+00 0.851E+00   -.538E-01 0.438E-01 -.441E+00
   -.840E-04 0.254E+02 -.122E+04   0.146E-03 -.267E+02 0.123E+04   -.810E-07 0.122E+01 -.882E+00   -.211E-02 0.178E+00 -.467E+00
   0.135E+02 0.782E+01 -.122E+04   -.132E+02 -.763E+01 0.122E+04   -.461E+00 -.266E+00 0.851E+00   0.757E-01 0.428E-01 -.441E+00
   0.116E+01 0.668E+00 -.121E+04   -.117E+01 -.676E+00 0.121E+04   0.314E-01 0.181E-01 0.853E+00   -.218E-01 -.126E-01 -.389E+00
   -.116E+01 0.668E+00 -.121E+04   0.117E+01 -.676E+00 0.121E+04   -.314E-01 0.181E-01 0.853E+00   0.208E-01 -.128E-01 -.390E+00
   -.126E-03 -.156E+02 -.122E+04   0.243E-03 0.153E+02 0.122E+04   -.354E-07 0.532E+00 0.851E+00   0.110E-01 -.686E-01 -.441E+00
   -.371E-04 0.163E-04 -.377E+04   0.365E-04 -.339E-04 0.377E+04   -.185E-17 0.830E-17 0.201E+01   -.193E-02 -.106E-02 0.196E+00
   -.574E+01 -.780E+01 -.376E+04   0.575E+01 0.744E+01 0.375E+04   -.649E-01 0.262E+00 0.246E+01   -.401E-01 -.766E-01 0.147E+00
   0.574E+01 -.780E+01 -.376E+04   -.575E+01 0.744E+01 0.375E+04   0.649E-01 0.262E+00 0.246E+01   0.627E-01 -.750E-01 0.146E+00
   -.962E+01 -.107E+01 -.376E+04   0.932E+01 0.126E+01 0.375E+04   0.194E+00 -.187E+00 0.246E+01   -.863E-01 0.352E-02 0.147E+00
   0.962E+01 -.107E+01 -.376E+04   -.932E+01 0.126E+01 0.375E+04   -.194E+00 -.187E+00 0.246E+01   0.107E+00 0.416E-02 0.147E+00
   -.389E+01 0.887E+01 -.376E+04   0.356E+01 -.870E+01 0.375E+04   0.259E+00 -.746E-01 0.246E+01   -.336E-01 0.918E-01 0.146E+00
   0.389E+01 0.887E+01 -.376E+04   -.356E+01 -.870E+01 0.375E+04   -.259E+00 -.746E-01 0.246E+01   0.581E-01 0.910E-01 0.147E+00
   -.153E-03 -.272E-04 -.378E+04   0.257E-03 0.434E-05 0.377E+04   -.739E-18 0.280E-17 0.237E+01   -.142E-01 -.738E-02 0.317E+00
   -.380E-04 -.205E-04 -.254E+04   0.100E-03 0.198E-04 0.254E+04   0.754E-17 0.839E-17 -.534E+01   0.694E-03 0.444E-03 0.668E-01
   -.631E-05 -.740E-04 -.150E+04   0.117E-04 0.540E-05 0.148E+04   0.108E-17 0.101E-18 0.192E+02   0.851E-03 0.519E-03 0.801E-01
   0.229E-03 -.715E-04 -.231E+04   0.261E-05 0.250E-05 0.232E+04   0.742E-19 -.295E-19 -.508E+01   0.330E-02 0.202E-02 0.120E+00
   0.309E-05 -.141E-04 -.415E+03   0.769E-07 0.165E-06 0.423E+03   0.814E-20 0.386E-20 -.852E+01   0.172E-03 0.105E-03 0.211E-01
   -.926E-04 -.201E-03 0.115E+02   -.175E-13 -.642E-13 -.489E-11   0.286E-15 0.113E-16 -.464E+01   0.119E+00 0.660E-01 -.689E+01

 POSITION                                       TOTAL-FORCE (eV/Angst)
      0.00000      0.00000      5.37156        -0.000000     -0.000000      0.021039
      2.56560      0.00000      5.37156         0.009730      0.024153      0.086197
      5.13119      0.00000      5.37156        -0.009730      0.024153      0.086197
      1.28280      2.22187      5.37156         0.025782     -0.003651      0.086197
      3.84839      2.22187      5.37156        -0.000000     -0.000000      0.088607
      6.41399      2.22187      5.37156        -0.025782     -0.003651      0.086197
      2.56560      4.44374      5.37156         0.016053     -0.020503      0.086197
      5.13119      4.44374      5.37156        -0.016053     -0.020503      0.086197
      7.69679      4.44374      5.37156        -0.000000     -0.000000      0.049902
      1.28280      0.74062      7.46636        -0.005314     -0.003068     -0.073194
      3.84839      0.74062      7.46636         0.000000     -0.035886     -0.093121
      6.41399      0.74062      7.46636         0.005314     -0.003068     -0.073194
      2.56560      2.96249      7.46636        -0.031078      0.017943     -0.093121
      5.13119      2.96249      7.46636         0.031078      0.017943     -0.093121
      7.69679      2.96249      7.46636         0.000000     -0.008077     -0.011056
      3.84839      5.18437      7.46636        -0.000000      0.006136     -0.073194
      6.41399      5.18437      7.46636        -0.006995      0.004038     -0.011056
      8.97958      5.18437      7.46636         0.006995      0.004038     -0.011056
      7.69679      1.48414      9.55535        -0.000000      0.004925      0.044332
      2.56128      1.47875      9.53998        -0.135361     -0.078151     -0.371822
      5.13551      1.47875      9.53998         0.135361     -0.078151     -0.371822
      8.97644      3.70493      9.56275         0.059911     -0.034590      0.004959
      3.84839      3.70811      9.53998        -0.000000      0.156301     -0.371822
      6.41713      3.70493      9.56275        -0.059911     -0.034590      0.004959
     10.25987      5.92354      9.55535        -0.004265     -0.002462      0.044332
      5.13370      5.92354      9.55535         0.004265     -0.002462      0.044332
      7.69679      5.92136      9.56275        -0.000000      0.069179      0.004959
      0.00000      0.00000     11.63109        -0.000000     -0.000000     -0.051988
      6.40750      6.66078     11.65531        -0.098632     -0.181613     -0.077762
      8.98608      6.66078     11.65531         0.098632     -0.181613     -0.077762
      8.97216      2.21866     11.65531        -0.206598      0.005389     -0.077762
      6.42142      2.21866     11.65531         0.206598      0.005389     -0.077762
     10.26144      4.45178     11.65531        -0.107966      0.176224     -0.077762
      5.13213      4.45178     11.65531         0.107966      0.176224     -0.077762
      7.69679      4.44374     11.63516        -0.000000     -0.000000     -0.025703
      3.84839      2.22187     11.61289        -0.000000     -0.000000      1.375259
      3.84839      2.22187     13.37099        -0.000000     -0.000000      0.017202
      3.84839      2.22187     14.63281        -0.000000     -0.000000     -0.006033
      3.84839      2.22187     15.59384        -0.000000     -0.000000     -0.019182
    total drift:                                0.119316      0.065812     -0.013534

  FREE ENERGIE OF THE ION-ELECTRON SYSTEM (eV)
  free  energy   TOTEN  =      -148.61527244 eV

  energy  without entropy=     -148.61527244  energy(sigma->0) =     -148.61527244

 stress matrix after NEB project (eV)
     -3.64992      0.00000     -0.00000
      0.00000     -3.64992      0.00000
     -0.00000     -0.00000      1.33123
  FORCES: max atom, RMS     0.019182    0.004237
  FORCE total and by dimension    0.026462    0.019182
  Stress total and by dimension    5.330669    3.649921
|           W    W    AA    RRRRR   N    N  II  N    N   GGGG   !!!           |
|           W    W   A  A   R    R  NN   N  II  NN   N  G    G  !!!           |
|           W    W  A    A  R    R  N N  N  II  N N  N  G       !!!           |
|           W WW W  AAAAAA  RRRRR   N  N N  II  N  N N  G  GGG   !            |
|           WW  WW  A    A  R   R   N   NN  II  N   NN  G    G                |
|           W    W  A    A  R    R  N    N  II  N    N   GGGG   !!!           |
|     Tetrahedron method does not include variations of the Fermi             |
|     occupations, so forces and stress will be inaccurate. We suggest        |
|     using a different smearing scheme ISMEAR = 1 or 2 for metals in         |
|     relaxations.                                                            |

 total charge

# of ion       s       p       d       tot
    1        0.449   0.284   9.188   9.921
    2        0.450   0.286   9.186   9.921
    3        0.450   0.286   9.186   9.921
    4        0.450   0.286   9.186   9.921
    5        0.448   0.288   9.183   9.919
    6        0.450   0.286   9.186   9.921
    7        0.450   0.286   9.186   9.921
    8        0.450   0.286   9.186   9.921
    9        0.446   0.285   9.188   9.919
   10        0.440   0.372   9.176   9.988
   11        0.443   0.367   9.182   9.993
   12        0.440   0.372   9.176   9.988
   13        0.443   0.367   9.182   9.993
   14        0.443   0.367   9.182   9.993
   15        0.436   0.370   9.177   9.984
   16        0.440   0.372   9.176   9.988
   17        0.436   0.370   9.177   9.984
   18        0.436   0.370   9.177   9.984
   19        0.443   0.369   9.180   9.992
   20        0.458   0.390   9.171  10.019
   21        0.458   0.390   9.171  10.019
   22        0.432   0.376   9.178   9.985
   23        0.458   0.390   9.171  10.019
   24        0.432   0.376   9.178   9.985
   25        0.443   0.369   9.180   9.992
   26        0.443   0.369   9.180   9.992
   27        0.432   0.376   9.178   9.985
   28        0.455   0.289   9.192   9.936
   29        0.447   0.308   9.185   9.941
   30        0.447   0.308   9.185   9.941
   31        0.447   0.308   9.185   9.941
   32        0.447   0.308   9.185   9.941
   33        0.447   0.308   9.185   9.941
   34        0.447   0.308   9.185   9.941
   35        0.449   0.292   9.192   9.933
   36        0.652   0.859   6.907   8.419
   37        0.927   1.444   0.000   2.371
   38        1.527   3.758   0.000   5.285
   39        0.560   0.133   0.000   0.693
tot         19.252  17.932 328.269 365.453

 BZINTS: Fermi energy:    0.020555;  404.000000 electrons
         Band energy:-0.121594E+04;  BLOECHL correction:   -0.054839