 vasp.6.2.0 18Jan21 (build Jun 12 2021 23:27:24) complex

 executed on             LinuxIFC date 2022.05.26  20:16:06

 INCAR:
   ISMEAR = -5
   SIGMA = 0.1
   ISPIN = 1
   EDIFF = 1.d-5
   EDIFFG = -0.01
   NSW = 0
   NELM = 150
   ENCUT = 500
   ISIF = 2
   IBRION = 2
   LREAL = Auto
   ALGO = Fast
   ICHARG = 11
   LORBIT = 10
   LCHARG = .F.
   LWAVE = .F.

 POTCAR:    PAW_PBE Au 04Oct2007
 POTCAR:    PAW_PBE W 08Apr2002
|           W    W    AA    RRRRR   N    N  II  N    N   GGGG   !!!           |
|           W    W   A  A   R    R  NN   N  II  NN   N  G    G  !!!           |
|           W    W  A    A  R    R  N N  N  II  N N  N  G       !!!           |
|           W WW W  AAAAAA  RRRRR   N  N N  II  N  N N  G  GGG   !            |
|           WW  WW  A    A  R   R   N   NN  II  N   NN  G    G                |
|           W    W  A    A  R    R  N    N  II  N    N   GGGG   !!!           |
|     For optimal performance we recommend to set                             |
|       NCORE = 2 up to number-of-cores-per-socket                            |
|     This setting can greatly improve the performance of VASP for DFT.       |
|     The default, NCORE=1 might be grossly inefficient on modern             |
|     multi-core architectures or massively parallel machines. Do your        |
|     Unfortunately you need to use the default for GW and RPA                |
|     calculations (for HF NCORE is supported but not extensively tested      |
|     yet).                                                                   |

 POTCAR:    PAW_PBE Au 04Oct2007
   VRHFIN =Au: s1d10

   TITEL  = PAW_PBE Au 04Oct2007
   POMASS =  196.966; ZVAL   =   11.000    mass and valenz
   ENMAX  =  229.943; ENMIN  =  172.457 eV

 POTCAR:    PAW_PBE W 08Apr2002
   VRHFIN =W : 6s5d

   TITEL  = PAW_PBE W 08Apr2002
   POMASS =  183.850; ZVAL   =    6.000    mass and valenz
   ENMAX  =  223.057; ENMIN  =  167.293 eV

 Optimization of the real space projectors (new method)

 maximal supplied QI-value         = 15.12
 optimisation between [QCUT,QGAM] = [ 11.34, 22.83] = [ 36.00,145.93] Ry
 Optimized for a Real-space Cutoff    1.39 Angstroem

   l    n(q)    QCUT    max X(q) W(low)/X(q) W(high)/X(q)  e(spline)
   2      9    11.338    60.898    0.39E-03    0.42E-03    0.21E-06
   2      9    11.338    58.894    0.40E-03    0.42E-03    0.22E-06
   0      9    11.338   109.617    0.13E-03    0.20E-04    0.13E-06
   0      9    11.338    75.026    0.13E-03    0.20E-04    0.13E-06
   1      9    11.338    16.344    0.33E-04    0.24E-03    0.18E-06
   1      9    11.338    10.160    0.26E-04    0.19E-03    0.15E-06
 Optimization of the real space projectors (new method)

 maximal supplied QI-value         = 13.61
 optimisation between [QCUT,QGAM] = [ 11.43, 22.86] = [ 36.58,146.31] Ry
 Optimized for a Real-space Cutoff    1.56 Angstroem

   l    n(q)    QCUT    max X(q) W(low)/X(q) W(high)/X(q)  e(spline)
   2     10    11.429   130.855    0.22E-03    0.64E-03    0.11E-05
   2     10    11.429   114.007    0.22E-03    0.64E-03    0.11E-05
   0     11    11.429    84.709    0.39E-04    0.67E-04    0.23E-06
   0     11    11.429    49.163    0.35E-04    0.62E-04    0.21E-06
   1     10    11.429    15.765    0.84E-04    0.15E-03    0.24E-06
   1     10    11.429    10.638    0.58E-04    0.12E-03    0.19E-06
  PAW_PBE Au 04Oct2007                  :
  PAW_PBE W 08Apr2002                   :

 POSCAR: Au-W
  positions in direct lattice
  velocities in cartesian coordinates
 exchange correlation table for  LEXCH =        8
   RHO(1)=    0.500       N(1)  =     2000
   RHO(2)=  100.500       N(2)  =     4000

 VTST: version 3.2, (02/03/18)

 CHAIN: initializing optimizer

 OPT: Using VASP Conjugate-Gradient optimizer
 CHAIN: Read ICHAIN            0

 POSCAR: Au-W
  positions in direct lattice
  velocities in cartesian coordinates

 ion  position               nearest neighbor table
   1  0.000  0.000  0.238-  16 2.94  12 2.94   6 2.94   8 2.94   7 2.94   3 2.94  10 2.94   4 2.94
                             2 2.94
   2  0.333  0.000  0.238-   9 2.94  11 2.94  17 2.94  10 2.94   8 2.94   4 2.94   5 2.94   1 2.94
                             3 2.94
   3  0.667  0.000  0.238-   7 2.94  18 2.94  12 2.94   1 2.94  11 2.94   5 2.94   6 2.94   9 2.94
                             2 2.94
   4  0.000  0.333  0.238-  10 2.94   6 2.94   5 2.94  13 2.94   2 2.94  15 2.94   9 2.94   1 2.94
                             7 2.94
   5  0.333  0.333  0.238-  13 2.94   7 2.94  11 2.94   4 2.94   2 2.94  14 2.94   3 2.94   8 2.94
                             6 2.94
   6  0.667  0.333  0.238-  15 2.94  14 2.94   1 2.94  12 2.94   4 2.94   9 2.94   8 2.94   3 2.94
                             5 2.94
   7  0.000  0.667  0.238-  18 2.94   3 2.94  16 2.94   5 2.94   1 2.94  13 2.94   8 2.94   4 2.94
                             9 2.94
   8  0.333  0.667  0.238-   9 2.94  17 2.94   1 2.94   2 2.94  14 2.94  16 2.94   6 2.94   7 2.94
                             5 2.94
   9  0.667  0.667  0.238-   2 2.94   8 2.94  17 2.94   6 2.94  15 2.94   4 2.94   3 2.94  18 2.94
                             7 2.94
  10  0.111  0.111  0.346-  20 2.90  11 2.94  17 2.94   2 2.94   4 2.94   1 2.94  12 2.94  16 2.94
                            13 2.94  15 2.94  26 2.96  19 2.96
  11  0.444  0.111  0.346-  20 2.91  21 2.91  13 2.94   2 2.94  10 2.94  17 2.94   5 2.94   3 2.94
                            18 2.94  14 2.94  12 2.94  27 2.94
  12  0.778  0.111  0.346-  21 2.90  16 2.94  18 2.94   1 2.94  14 2.94  15 2.94   3 2.94   6 2.94
                            10 2.94  11 2.94  25 2.96  19 2.96
  13  0.111  0.444  0.346-  23 2.91  20 2.91   5 2.94  18 2.94  11 2.94   7 2.94   4 2.94  16 2.94
                            10 2.94  14 2.94  15 2.94  22 2.94
  14  0.444  0.444  0.346-  21 2.91  23 2.91  15 2.94   6 2.94  12 2.94   8 2.94  17 2.94   5 2.94
                            16 2.94  13 2.94  11 2.94  24 2.94
  15  0.778  0.444  0.346-  24 2.92  22 2.92  14 2.94   6 2.94  17 2.94  12 2.94   9 2.94   4 2.94
                            10 2.94  13 2.94  18 2.94  19 2.95
  16  0.111  0.778  0.346-  23 2.90  18 2.94  12 2.94   7 2.94   1 2.94   8 2.94  13 2.94  10 2.94
                            14 2.94  17 2.94  25 2.96  26 2.96
  17  0.444  0.778  0.346-  27 2.92  24 2.92   9 2.94  15 2.94   2 2.94  10 2.94  11 2.94   8 2.94
                            14 2.94  16 2.94  18 2.94  26 2.95
  18  0.778  0.778  0.346-  22 2.92  27 2.92  16 2.94   7 2.94  13 2.94  12 2.94   3 2.94  11 2.94
                             9 2.94  15 2.94  17 2.94  25 2.95
  19  0.888  0.224  0.455-  24 2.93  22 2.93  21 2.93  20 2.93  28 2.94  15 2.95  26 2.96  25 2.96
                            10 2.96  12 2.96  32 3.04  31 3.04
  20  0.222  0.222  0.452-  36 2.74  10 2.90  11 2.91  13 2.91  26 2.93  19 2.93  23 2.95  21 2.95
                            27 2.96  22 2.96  29 2.98  31 2.98
  21  0.557  0.222  0.452-  36 2.74  12 2.90  14 2.91  11 2.91  25 2.93  19 2.93  20 2.95  23 2.95
                            27 2.96  24 2.96  30 2.98  32 2.98
  22  0.886  0.557  0.454-  24 2.90  27 2.90  18 2.92  15 2.92  25 2.93  19 2.93  13 2.94  35 2.95
                            23 2.96  20 2.96  33 3.02  31 3.02
  23  0.222  0.557  0.452-  36 2.74  16 2.90  13 2.91  14 2.91  25 2.93  26 2.93  20 2.95  21 2.95
                            22 2.96  24 2.96  33 2.98  34 2.98
  24  0.557  0.557  0.454-  27 2.90  22 2.90  15 2.92  17 2.92  26 2.93  19 2.93  14 2.94  35 2.95
                            21 2.96  23 2.96  32 3.02  34 3.02
  25  0.888  0.888  0.455-  22 2.93  27 2.93  23 2.93  21 2.93  28 2.94  18 2.95  19 2.96  26 2.96
                            16 2.96  12 2.96  33 3.04  30 3.04
  26  0.224  0.888  0.455-  27 2.93  24 2.93  20 2.93  23 2.93  28 2.94  17 2.95  19 2.96  25 2.96
                            10 2.96  16 2.96  29 3.04  34 3.04
  27  0.557  0.886  0.454-  24 2.90  22 2.90  17 2.92  18 2.92  26 2.93  25 2.93  11 2.94  35 2.95
                            20 2.96  21 2.96  29 3.02  30 3.02
  28  0.000  0.000  0.563-  25 2.94  19 2.94  26 2.94  34 3.00  32 3.00  33 3.00  30 3.00  31 3.00
                            29 3.00
  29  0.334  0.013  0.566-  30 2.82  31 2.82  36 2.84  20 2.98  35 3.00  28 3.00  27 3.02  26 3.04
                            34 3.17
  30  0.653  0.013  0.566-  29 2.82  32 2.82  36 2.84  21 2.98  35 3.00  28 3.00  27 3.02  25 3.04
                            33 3.17
  31  0.013  0.334  0.566-  33 2.82  29 2.82  36 2.84  20 2.98  35 3.00  28 3.00  22 3.02  19 3.04
                            32 3.17
  32  0.653  0.334  0.566-  34 2.82  30 2.82  36 2.84  21 2.98  35 3.00  28 3.00  24 3.02  19 3.04
                            31 3.17
  33  0.013  0.653  0.566-  31 2.82  34 2.82  36 2.84  23 2.98  35 3.00  28 3.00  22 3.02  25 3.04
                            30 3.17
  34  0.334  0.653  0.566-  32 2.82  33 2.82  36 2.84  23 2.98  35 3.00  28 3.00  24 3.02  26 3.04
                            29 3.17
  35  0.667  0.667  0.563-  24 2.95  27 2.95  22 2.95  29 3.00  34 3.00  32 3.00  31 3.00  30 3.00
                            33 3.00
  36  0.333  0.333  0.549-  20 2.74  23 2.74  21 2.74  33 2.84  31 2.84  29 2.84  30 2.84  34 2.84
                            32 2.84

  LATTYP: Found a hexagonal cell.
 ALAT       =     8.8135128021
 C/A-ratio  =     2.5184286595

  Lattice vectors:

 A1 = (  -4.4067569092,  -7.6327256898,   0.0000000000)
 A2 = (   8.8135128021,   0.0000000000,   0.0000000000)
 A3 = (   0.0000000000,   0.0000000000,  22.1962032318)

Analysis of symmetry for initial positions (statically):
 Subroutine PRICEL returns:
 Original cell was already a primitive cell.

 Routine SETGRP: Setting up the symmetry group for a
 hexagonal supercell.

 Subroutine GETGRP returns: Found  6 space group operations
 (whereof  6 operations were pure point group operations)
 out of a pool of 24 trial point group operations.

The static configuration has the point symmetry C_3v.

Analysis of symmetry for dynamics (positions and initial velocities):
 Subroutine PRICEL returns:
 Original cell was already a primitive cell.

[...]

The dynamic configuration has the point symmetry C_3v.

Analysis of constrained symmetry for selective dynamics:
 Subroutine PRICEL returns:
 Original cell was already a primitive cell.

 Routine SETGRP: Setting up the symmetry group for a
 hexagonal supercell.

 Subroutine GETGRP returns: Found  6 space group operations
 (whereof  6 operations were pure point group operations)
 out of a pool of 24 trial point group operations.

The constrained configuration has the point symmetry C_3v.

 Subroutine INISYM returns: Found  6 space group operations
 (whereof  6 operations are pure point group operations),
 and found     1 'primitive' translations

                                     Primitive cell

  volume of cell :    1493.1636

  direct lattice vectors                    reciprocal lattice vectors
     8.813512802  0.000000000  0.000000000     0.113462137 -0.065507406  0.000000000
     4.406756909  7.632725690  0.000000000     0.000000000  0.131014796  0.000000000
[...]
     15      -5.2557      2.00000
     16      -5.2106      2.00000
     17      -5.2054      2.00000
     18      -5.1906      2.00000
     19      -5.1675      2.00000
     20      -5.1473      2.00000
     21      -5.1333      2.00000
     22      -5.1233      2.00000
     23      -5.0547      2.00000
     24      -5.0235      2.00000
     25      -5.0152      2.00000
     26      -4.9723      2.00000
     27      -4.9386      2.00000
     28      -4.9107      2.00000
     29      -4.8682      2.00000
     30      -4.8349      2.00000
     31      -4.8142      2.00000
     32      -4.7289      2.00000
     33      -4.7162      2.00000
     34      -4.6969      2.00000
     35      -4.6847      2.00000
     36      -4.6748      2.00000
     37      -4.5455      2.00000
     38      -4.4907      2.00000
     39      -4.4429      2.00000
     40      -4.3990      2.00000
     41      -4.3704      2.00000
     42      -4.3450      2.00000
     43      -4.3230      2.00000
     44      -4.2926      2.00000
     45      -4.2717      2.00000
     46      -4.1879      2.00000
     47      -4.1706      2.00000
     48      -4.1313      2.00000
     49      -4.1196      2.00000
     50      -4.1034      2.00000
     51      -4.0910      2.00000
     52      -4.0711      2.00000
     53      -4.0545      2.00000
     54      -4.0209      2.00000
     55      -3.9881      2.00000
     56      -3.9788      2.00000
     57      -3.9549      2.00000
     58      -3.9488      2.00000
     59      -3.9405      2.00000
     60      -3.9191      2.00000
[...]
    238       6.7568      0.00000
    239       6.7795      0.00000
    240       6.8337      0.00000
    241       6.8850      0.00000
    242       7.0635      0.00000
    243       7.1773      0.00000
    244       7.2449      0.00000
    245       7.3089      0.00000
    246       7.5901      0.00000
    247       7.6333      0.00000
    248       7.7799      0.00000
    249       7.7974      0.00000
    250       7.9165      0.00000
    251       8.0111      0.00000
    252       8.0959      0.00000

 soft charge-density along one line, spin component           1
         0         1         2         3         4         5         6         7         8         9
 total charge-density along one line

------------------------ aborting loop because EDIFF is reached ----------------------------------------

 total charge

# of ion       s       p       d       tot
    1        0.548   0.238   8.766   9.552
    2        0.543   0.241   8.766   9.549
    3        0.543   0.241   8.766   9.549
    4        0.543   0.241   8.766   9.549
    5        0.545   0.240   8.762   9.548
    6        0.543   0.241   8.766   9.549
    7        0.543   0.241   8.766   9.549
    8        0.543   0.241   8.766   9.549
    9        0.543   0.239   8.768   9.550
   10        0.530   0.306   8.765   9.600
   11        0.521   0.307   8.781   9.609
   12        0.530   0.306   8.765   9.600
   13        0.521   0.307   8.781   9.609
   14        0.521   0.307   8.781   9.609
   15        0.516   0.307   8.776   9.599
   16        0.530   0.306   8.765   9.600
   17        0.516   0.307   8.776   9.599
   18        0.516   0.307   8.776   9.599
   19        0.515   0.295   8.771   9.582
   20        0.573   0.350   8.720   9.643
   21        0.573   0.350   8.720   9.643
   22        0.506   0.305   8.781   9.592
   23        0.573   0.350   8.720   9.643
   24        0.506   0.305   8.781   9.592
   25        0.515   0.295   8.771   9.582
   26        0.515   0.295   8.771   9.582
   27        0.506   0.305   8.781   9.592
   28        0.539   0.225   8.754   9.518
   29        0.584   0.256   8.724   9.563
   30        0.584   0.256   8.724   9.563
   31        0.584   0.256   8.724   9.563
   32        0.584   0.256   8.724   9.563
   33        0.584   0.256   8.724   9.563
   34        0.584   0.256   8.724   9.563
   35        0.534   0.225   8.757   9.516
   36        0.568   0.401   3.773   4.742
tot         19.520  10.156 310.300 339.976

  FORCE on cell =-STRESS in cart. coord.  units (eV):
  Direction    XX          YY          ZZ          XY          YZ          ZX
  Alpha Z  1002.30665  1002.30665  1002.30665
  Ewald  117123.05265117123.05303************    -0.00033    -0.00009    -0.00018
  Hartree125613.37990125613.37990************     0.00000    -0.00003    -0.00005
  E(xc)   -1752.58754 -1752.58753 -1760.57401    -0.00001     0.00000     0.00000
  Local  ************************255084.91583     0.00168     0.00005     0.00011
  n-local   -82.61771   -33.46117   -30.08432    23.76715    -1.42098     1.35502
  augment  2366.98517  2366.98661  2388.91610    -0.00125     0.00005     0.00008
  Kinetic  5406.19335  5415.80833  5482.66880     6.04076     0.06520     0.42013
  Fock        0.00000     0.00000     0.00000     0.00000     0.00000     0.00000
  Total     -23.86729   -23.86729     3.43474    -0.00000     0.00000    -0.00000
  in kB     -25.60981   -25.60981     3.68551    -0.00000     0.00000    -0.00000

 VOLUME and BASIS-vectors are now :
  energy-cutoff  :      500.00
  volume of cell :     1493.16
      direct lattice vectors                 reciprocal lattice vectors
     8.813512802  0.000000000  0.000000000     0.113462137 -0.065507406  0.000000000
     4.406756909  7.632725690  0.000000000     0.000000000  0.131014796  0.000000000
     0.000000000  0.000000000 22.196203232     0.000000000  0.000000000  0.045052750

  length of vectors
     8.813512802  8.813512802 22.196203232     0.131014796  0.131014796  0.045052750

 FORCES acting on ions
    electron-ion (+dipol)            ewald-force                    non-local-force                 convergence-correction
   -.197E-04 -.163E-04 0.245E+04   0.519E-04 0.433E-04 -.245E+04   0.631E-17 -.189E-17 -.892E+00   -.201E-03 -.129E-03 -.181E+00
   0.462E+00 -.187E+00 0.245E+04   -.678E+00 -.372E-01 -.245E+04   0.915E-01 0.145E+00 -.260E+00   0.109E+00 0.667E-01 -.208E+00
   -.462E+00 -.187E+00 0.245E+04   0.678E+00 -.372E-01 -.245E+04   -.915E-01 0.145E+00 -.260E+00   -.109E+00 0.687E-01 -.208E+00
   0.693E-01 0.493E+00 0.245E+04   -.371E+00 -.569E+00 -.245E+04   0.171E+00 0.687E-02 -.260E+00   0.112E+00 0.612E-01 -.208E+00
   0.740E-05 -.241E-04 0.245E+04   0.951E-04 0.175E-05 -.245E+04   -.454E-17 0.190E-17 0.596E-01   0.430E-02 0.262E-02 -.163E+00
   -.693E-01 0.493E+00 0.245E+04   0.371E+00 -.569E+00 -.245E+04   -.171E+00 0.687E-02 -.260E+00   -.114E+00 0.622E-01 -.207E+00
   -.393E+00 -.307E+00 0.245E+04   0.307E+00 0.606E+00 -.245E+04   0.796E-01 -.152E+00 -.260E+00   0.501E-02 -.129E+00 -.207E+00
   0.393E+00 -.307E+00 0.245E+04   -.307E+00 0.606E+00 -.245E+04   -.796E-01 -.152E+00 -.260E+00   -.312E-02 -.130E+00 -.207E+00
   0.198E-04 -.416E-04 0.245E+04   0.166E-03 -.200E-04 -.245E+04   -.868E-18 0.448E-18 -.490E+00   -.464E-02 -.240E-02 -.198E+00
   0.677E+01 0.391E+01 0.782E+03   -.630E+01 -.364E+01 -.781E+03   -.457E+00 -.264E+00 -.768E+00   -.952E-02 -.561E-02 0.152E+00
   0.141E-04 0.165E+01 0.787E+03   0.148E-03 -.171E+01 -.787E+03   0.731E-09 0.110E-01 -.577E-01   0.379E-02 -.163E-01 0.188E+00
   -.677E+01 0.391E+01 0.782E+03   0.630E+01 -.364E+01 -.781E+03   0.457E+00 -.264E+00 -.768E+00   0.822E-02 -.413E-02 0.151E+00
   0.143E+01 -.827E+00 0.787E+03   -.148E+01 0.854E+00 -.787E+03   0.951E-02 -.549E-02 -.577E-01   -.119E-01 0.117E-01 0.188E+00
   -.143E+01 -.827E+00 0.787E+03   0.148E+01 0.854E+00 -.787E+03   -.951E-02 -.549E-02 -.577E-01   0.198E-01 0.113E-01 0.188E+00
   0.318E-04 0.578E+01 0.788E+03   0.235E-03 -.597E+01 -.787E+03   0.162E-08 0.243E-01 -.540E+00   -.239E-02 0.808E-01 0.178E+00
   -.212E-04 -.782E+01 0.782E+03   0.163E-03 0.727E+01 -.781E+03   0.351E-07 0.527E+00 -.768E+00   0.296E-03 0.916E-02 0.151E+00
   0.501E+01 -.289E+01 0.788E+03   -.517E+01 0.298E+01 -.787E+03   0.210E-01 -.121E-01 -.540E+00   0.690E-01 -.420E-01 0.178E+00
   -.501E+01 -.289E+01 0.788E+03   0.517E+01 0.298E+01 -.787E+03   -.210E-01 -.121E-01 -.540E+00   -.691E-01 -.401E-01 0.178E+00
   -.431E-04 0.183E+01 -.913E+03   0.560E-04 -.183E+01 0.912E+03   -.300E-08 -.451E-01 0.434E+00   -.227E-03 0.490E-01 0.613E+00
   -.739E+01 -.426E+01 -.885E+03   0.825E+01 0.476E+01 0.886E+03   -.985E+00 -.569E+00 -.131E+01   0.121E+00 0.698E-01 0.777E+00
   0.739E+01 -.426E+01 -.885E+03   -.825E+01 0.476E+01 0.886E+03   0.985E+00 -.569E+00 -.131E+01   -.120E+00 0.719E-01 0.777E+00
   -.150E+02 0.865E+01 -.892E+03   0.145E+02 -.838E+01 0.891E+03   0.481E+00 -.278E+00 0.567E+00   0.478E-02 -.708E-02 0.563E+00
   -.983E-05 0.853E+01 -.885E+03   0.138E-03 -.952E+01 0.886E+03   0.757E-07 0.114E+01 -.131E+01   0.177E-02 -.140E+00 0.777E+00
   0.150E+02 0.865E+01 -.892E+03   -.145E+02 -.838E+01 0.891E+03   -.481E+00 -.278E+00 0.567E+00   -.117E-01 -.668E-02 0.562E+00
   -.159E+01 -.916E+00 -.913E+03   0.159E+01 0.916E+00 0.912E+03   0.390E-01 0.225E-01 0.434E+00   -.408E-01 -.236E-01 0.612E+00
   0.159E+01 -.916E+00 -.913E+03   -.159E+01 0.916E+00 0.912E+03   -.390E-01 0.225E-01 0.434E+00   0.427E-01 -.247E-01 0.613E+00
   0.956E-05 -.173E+02 -.892E+03   0.199E-03 0.168E+02 0.891E+03   0.370E-07 0.556E+00 0.567E+00   -.429E-02 0.764E-02 0.563E+00
   -.107E-04 -.108E-04 -.246E+04   0.282E-04 0.305E-04 0.246E+04   -.223E-18 0.274E-17 0.454E+00   0.135E-02 0.767E-03 0.382E+00
   0.903E+00 -.238E+01 -.248E+04   0.271E+00 0.420E+01 0.248E+04   -.132E+01 -.202E+01 -.368E+00   0.146E+00 0.202E+00 0.370E+00
   -.903E+00 -.238E+01 -.248E+04   -.271E+00 0.420E+01 0.248E+04   0.132E+01 -.202E+01 -.368E+00   -.152E+00 0.203E+00 0.371E+00
   -.161E+01 0.197E+01 -.248E+04   0.377E+01 -.187E+01 0.248E+04   -.241E+01 -.136E+00 -.368E+00   0.247E+00 0.252E-01 0.370E+00
   0.161E+01 0.197E+01 -.248E+04   -.377E+01 -.187E+01 0.248E+04   0.241E+01 -.136E+00 -.368E+00   -.255E+00 0.263E-01 0.370E+00
   -.251E+01 0.407E+00 -.248E+04   0.350E+01 -.234E+01 0.248E+04   -.109E+01 0.216E+01 -.368E+00   0.100E+00 -.233E+00 0.371E+00
   0.251E+01 0.407E+00 -.248E+04   -.350E+01 -.234E+01 0.248E+04   0.109E+01 0.216E+01 -.368E+00   -.104E+00 -.234E+00 0.370E+00
   0.345E-04 -.332E-04 -.246E+04   0.142E-03 -.463E-04 0.246E+04   -.244E-17 0.277E-17 0.672E+00   -.353E-02 -.174E-02 0.422E+00
   -.247E-04 0.222E-06 -.128E+04   0.638E-04 0.589E-05 0.128E+04   -.240E-17 -.468E-18 0.271E+01   0.115E-02 0.674E-03 0.304E+00
   -.820E-03 -.776E-03 -.231E+01   -.263E-13 -.426E-13 0.000E+00   -.449E-15 0.446E-15 -.627E+01   -.171E-01 -.933E-02 0.895E+01

 POSITION                                       TOTAL-FORCE (eV/Angst)
      0.00000      0.00000      5.28038        -0.000000     -0.000000     -0.176430
      2.93784      0.00000      5.28038        -0.015111     -0.011426     -0.073731
      5.87568      0.00000      5.28038         0.015111     -0.011426     -0.073731
      1.46892      2.54424      5.28038        -0.017451     -0.007374     -0.073731
      4.40676      2.54424      5.28038        -0.000000     -0.000000     -0.096116
      7.34459      2.54424      5.28038         0.017451     -0.007374     -0.073731
      2.93784      5.08848      5.28038        -0.002340      0.018800     -0.073731
      5.87568      5.08848      5.28038         0.002340      0.018800     -0.073731
      8.81351      5.08848      5.28038        -0.000000     -0.000000     -0.087958
      1.46892      0.84808      7.67911         0.008969      0.005178      0.163935
      4.40676      0.84808      7.67911        -0.000000     -0.061859     -0.014901
      7.34459      0.84808      7.67911        -0.008969      0.005178      0.163935
      2.93784      3.39232      7.67911        -0.053571      0.030929     -0.014901
      5.87568      3.39232      7.67911         0.053571      0.030929     -0.014901
      8.81351      3.39232      7.67911        -0.000000     -0.078813      0.096142
      4.40676      5.93656      7.67911        -0.000000     -0.010356      0.163935
      7.34459      5.93656      7.67911        -0.068254      0.039407      0.096142
     10.28243      5.93656      7.67911         0.068254      0.039407      0.096142
      8.81351      1.70807     10.10081         0.000000      0.002838      0.003364
      2.93151      1.69251     10.04012        -0.003759     -0.002170     -0.012923
      5.88200      1.69251     10.04012         0.003759     -0.002170     -0.012923
     10.26425      4.25090     10.06644         0.006066     -0.003502     -0.001574
      4.40676      4.24770     10.04012         0.000000      0.004340     -0.012923
      7.36277      4.25090     10.06644        -0.006066     -0.003502     -0.001574
     11.74104      6.77869     10.10081        -0.002458     -0.001419      0.003364
      5.88599      6.77869     10.10081         0.002458     -0.001419      0.003364
      8.81351      6.76365     10.06644         0.000000      0.007005     -0.001574
      0.00000      0.00000     12.49922        -0.000000     -0.000000     -0.012212
      2.99894      0.10048     12.55446        -0.000761      0.004385      0.013359
      5.81457      0.10048     12.55446         0.000761      0.004385      0.013359
      1.58649      2.54692     12.55446         0.003417     -0.002852      0.013359
      7.22703      2.54692     12.55446        -0.003417     -0.002852      0.013359
      2.99430      4.98533     12.55446         0.004179     -0.001533      0.013359
      5.81921      4.98533     12.55446        -0.004179     -0.001533      0.013359
      8.81351      5.08848     12.49869        -0.000000     -0.000000      0.009396
      4.40676      2.54424     12.18560        -0.000000     -0.000000      0.023424
    total drift:                               -0.017945     -0.010103      0.369911

  FREE ENERGIE OF THE ION-ELECTRON SYSTEM (eV)
  free  energy   TOTEN  =      -116.88067167 eV

  energy  without entropy=     -116.88067167  energy(sigma->0) =     -116.88067167

 stress matrix after NEB project (eV)
    -23.86729     -0.00000     -0.00000
     -0.00000    -23.86729      0.00000
     -0.00000      0.00000      3.43474
  FORCES: max atom, RMS     0.023424    0.008734
  FORCE total and by dimension    0.052402    0.023424
  Stress total and by dimension   33.927760   23.867295
|           W    W    AA    RRRRR   N    N  II  N    N   GGGG   !!!           |
|           W    W   A  A   R    R  NN   N  II  NN   N  G    G  !!!           |
|           W    W  A    A  R    R  N N  N  II  N N  N  G       !!!           |
|           W WW W  AAAAAA  RRRRR   N  N N  II  N  N N  G  GGG   !            |
|           WW  WW  A    A  R   R   N   NN  II  N   NN  G    G                |
|           W    W  A    A  R    R  N    N  II  N    N   GGGG   !!!           |
|     Tetrahedron method does not include variations of the Fermi             |
|     occupations, so forces and stress will be inaccurate. We suggest        |
|     using a different smearing scheme ISMEAR = 1 or 2 for metals in         |
|     relaxations.                                                            |

 total charge

# of ion       s       p       d       tot
    1        0.548   0.238   8.766   9.552
    2        0.543   0.241   8.766   9.549
    3        0.543   0.241   8.766   9.549
    4        0.543   0.241   8.766   9.549
    5        0.545   0.240   8.762   9.548
    6        0.543   0.241   8.766   9.549
    7        0.543   0.241   8.766   9.549
    8        0.543   0.241   8.766   9.549
    9        0.543   0.239   8.768   9.550
   10        0.530   0.306   8.765   9.600
   11        0.521   0.307   8.781   9.609
   12        0.530   0.306   8.765   9.600
   13        0.521   0.307   8.781   9.609
   14        0.521   0.307   8.781   9.609
   15        0.516   0.307   8.776   9.599
   16        0.530   0.306   8.765   9.600
   17        0.516   0.307   8.776   9.599
   18        0.516   0.307   8.776   9.599
   19        0.515   0.295   8.771   9.582
   20        0.573   0.350   8.720   9.643
   21        0.573   0.350   8.720   9.643
   22        0.506   0.305   8.781   9.592
   23        0.573   0.350   8.720   9.643
   24        0.506   0.305   8.781   9.592
   25        0.515   0.295   8.771   9.582
   26        0.515   0.295   8.771   9.582
   27        0.506   0.305   8.781   9.592
   28        0.539   0.225   8.754   9.518
   29        0.584   0.256   8.724   9.563
   30        0.584   0.256   8.724   9.563
   31        0.584   0.256   8.724   9.563
   32        0.584   0.256   8.724   9.563
   33        0.584   0.256   8.724   9.563
   34        0.584   0.256   8.724   9.563
   35        0.534   0.225   8.757   9.516
   36        0.568   0.401   3.773   4.742
tot         19.520  10.156 310.300 339.976

 BZINTS: Fermi energy:    0.715478;  391.000000 electrons
         Band energy:-0.118362E+04;  BLOECHL correction:   -0.028553