 vasp.6.2.0 18Jan21 (build Jun 12 2021 23:27:24) complex

 executed on             LinuxIFC date 2022.05.27  05:23:28

 INCAR:
   ISMEAR = -5
   SIGMA = 0.1
   ISPIN = 1
   EDIFF = 1.d-5
   EDIFFG = -0.01
   NSW = 0
   NELM = 150
   ENCUT = 500
   ISIF = 2
   IBRION = 2
   LREAL = Auto
   ALGO = Fast
   ICHARG = 11
   LORBIT = 10
   LCHARG = .F.
   LWAVE = .F.

 POTCAR:    PAW_PBE Au 04Oct2007
 POTCAR:    PAW_PBE W 08Apr2002
 POTCAR:    PAW_PBE N 08Apr2002
|           W    W    AA    RRRRR   N    N  II  N    N   GGGG   !!!           |
|           W    W   A  A   R    R  NN   N  II  NN   N  G    G  !!!           |
|           W    W  A    A  R    R  N N  N  II  N N  N  G       !!!           |
|           W WW W  AAAAAA  RRRRR   N  N N  II  N  N N  G  GGG   !            |
|           WW  WW  A    A  R   R   N   NN  II  N   NN  G    G                |
|           W    W  A    A  R    R  N    N  II  N    N   GGGG   !!!           |
|     For optimal performance we recommend to set                             |
|       NCORE = 2 up to number-of-cores-per-socket                            |
|     This setting can greatly improve the performance of VASP for DFT.       |
|     The default, NCORE=1 might be grossly inefficient on modern             |
|     multi-core architectures or massively parallel machines. Do your        |
|     Unfortunately you need to use the default for GW and RPA                |
|     calculations (for HF NCORE is supported but not extensively tested      |
|     yet).                                                                   |

 POTCAR:    PAW_PBE Au 04Oct2007
   VRHFIN =Au: s1d10

   TITEL  = PAW_PBE Au 04Oct2007
   POMASS =  196.966; ZVAL   =   11.000    mass and valenz
   ENMAX  =  229.943; ENMIN  =  172.457 eV

 POTCAR:    PAW_PBE W 08Apr2002
   VRHFIN =W : 6s5d

   TITEL  = PAW_PBE W 08Apr2002
   POMASS =  183.850; ZVAL   =    6.000    mass and valenz
   ENMAX  =  223.057; ENMIN  =  167.293 eV

 POTCAR:    PAW_PBE N 08Apr2002
   VRHFIN =N: s2p3

   TITEL  = PAW_PBE N 08Apr2002
   POMASS =   14.001; ZVAL   =    5.000    mass and valenz
   ENMAX  =  400.000; ENMIN  =  300.000 eV

 Optimization of the real space projectors (new method)

 maximal supplied QI-value         = 15.12
 optimisation between [QCUT,QGAM] = [ 11.34, 22.83] = [ 36.00,145.93] Ry
 Optimized for a Real-space Cutoff    1.39 Angstroem

   l    n(q)    QCUT    max X(q) W(low)/X(q) W(high)/X(q)  e(spline)
   2      9    11.338    60.898    0.39E-03    0.42E-03    0.21E-06
   2      9    11.338    58.894    0.40E-03    0.42E-03    0.22E-06
   0      9    11.338   109.617    0.13E-03    0.20E-04    0.13E-06
   0      9    11.338    75.026    0.13E-03    0.20E-04    0.13E-06
   1      9    11.338    16.344    0.33E-04    0.24E-03    0.18E-06
   1      9    11.338    10.160    0.26E-04    0.19E-03    0.15E-06
 Optimization of the real space projectors (new method)

[...]

   l    n(q)    QCUT    max X(q) W(low)/X(q) W(high)/X(q)  e(spline)
   2     10    11.429   130.855    0.22E-03    0.64E-03    0.11E-05
   2     10    11.429   114.007    0.22E-03    0.64E-03    0.11E-05
   0     11    11.429    84.709    0.39E-04    0.67E-04    0.23E-06
   0     11    11.429    49.163    0.35E-04    0.62E-04    0.21E-06
   1     10    11.429    15.765    0.84E-04    0.15E-03    0.24E-06
   1     10    11.429    10.638    0.58E-04    0.12E-03    0.19E-06
 Optimization of the real space projectors (new method)

 maximal supplied QI-value         = 25.13
 optimisation between [QCUT,QGAM] = [ 11.31, 22.87] = [ 35.82,146.48] Ry
 Optimized for a Real-space Cutoff    1.27 Angstroem

   l    n(q)    QCUT    max X(q) W(low)/X(q) W(high)/X(q)  e(spline)
   0      9    11.310    79.467    0.75E-04    0.16E-03    0.36E-06
   0      9    11.310    66.151    0.74E-04    0.16E-03    0.36E-06
   1      8    11.310    17.416    0.35E-03    0.12E-03    0.95E-06
   1      8    11.310    12.382    0.37E-03    0.13E-03    0.98E-06
  PAW_PBE Au 04Oct2007                  :
  PAW_PBE W 08Apr2002                   :
  PAW_PBE N 08Apr2002                   :

 POSCAR: Au-W-N2
  positions in direct lattice
  velocities in cartesian coordinates
 exchange correlation table for  LEXCH =        8
   RHO(1)=    0.500       N(1)  =     2000
   RHO(2)=  100.500       N(2)  =     4000

 VTST: version 3.2, (02/03/18)

 CHAIN: initializing optimizer

 OPT: Using VASP Conjugate-Gradient optimizer
 CHAIN: Read ICHAIN            0

 POSCAR: Au-W-N2
  positions in direct lattice
  velocities in cartesian coordinates

 ion  position               nearest neighbor table
   1  0.000  0.000  0.207-  16 2.94  12 2.94   6 2.94   8 2.94   7 2.94   3 2.94  10 2.94   4 2.94
                             2 2.94
   2  0.333  0.000  0.207-   9 2.94  11 2.94  17 2.94  10 2.94   8 2.94   4 2.94   5 2.94   1 2.94
                             3 2.94
   3  0.667  0.000  0.207-   7 2.94  18 2.94  12 2.94   1 2.94  11 2.94   5 2.94   6 2.94   9 2.94
                             2 2.94
   4  0.000  0.333  0.207-  10 2.94   6 2.94   5 2.94  13 2.94   2 2.94  15 2.94   9 2.94   1 2.94
                             7 2.94
   5  0.333  0.333  0.207-  13 2.94   7 2.94  11 2.94   4 2.94   2 2.94  14 2.94   3 2.94   8 2.94
                             6 2.94
   6  0.667  0.333  0.207-  15 2.94  14 2.94   1 2.94  12 2.94   4 2.94   9 2.94   8 2.94   3 2.94
                             5 2.94
   7  0.000  0.667  0.207-  18 2.94   3 2.94  16 2.94   5 2.94   1 2.94  13 2.94   8 2.94   4 2.94
                             9 2.94
   8  0.333  0.667  0.207-   9 2.94  17 2.94   1 2.94   2 2.94  14 2.94  16 2.94   6 2.94   7 2.94
                             5 2.94
   9  0.667  0.667  0.207-   2 2.94   8 2.94  17 2.94   6 2.94  15 2.94   4 2.94   3 2.94  18 2.94
                             7 2.94
  10  0.111  0.111  0.301-  20 2.90  11 2.94  17 2.94   2 2.94   4 2.94   1 2.94  12 2.94  16 2.94
                            13 2.94  15 2.94  26 2.96  19 2.96
  11  0.444  0.111  0.301-  20 2.91  21 2.91  13 2.94   2 2.94  10 2.94  17 2.94   5 2.94   3 2.94
                            18 2.94  14 2.94  12 2.94  27 2.94
  12  0.778  0.111  0.301-  21 2.90  16 2.94  18 2.94   1 2.94  14 2.94  15 2.94   3 2.94   6 2.94
                            10 2.94  11 2.94  25 2.96  19 2.96
  13  0.111  0.444  0.301-  23 2.91  20 2.91   5 2.94  18 2.94  11 2.94   7 2.94   4 2.94  16 2.94
                            10 2.94  14 2.94  15 2.94  22 2.94
  14  0.444  0.444  0.301-  21 2.91  23 2.91  15 2.94   6 2.94  12 2.94   8 2.94  17 2.94   5 2.94
                            16 2.94  13 2.94  11 2.94  24 2.94
  15  0.778  0.444  0.301-  24 2.92  22 2.92  14 2.94   6 2.94  17 2.94  12 2.94   9 2.94   4 2.94
                            10 2.94  13 2.94  18 2.94  19 2.95
  16  0.111  0.778  0.301-  23 2.90  18 2.94  12 2.94   7 2.94   1 2.94   8 2.94  13 2.94  10 2.94
                            14 2.94  17 2.94  25 2.96  26 2.96
  17  0.444  0.778  0.301-  27 2.92  24 2.92   9 2.94  15 2.94   2 2.94  10 2.94  11 2.94   8 2.94
                            14 2.94  16 2.94  18 2.94  26 2.95
  18  0.778  0.778  0.301-  22 2.92  27 2.92  16 2.94   7 2.94  13 2.94  12 2.94   3 2.94  11 2.94
                             9 2.94  15 2.94  17 2.94  25 2.95
  19  0.888  0.224  0.396-  24 2.93  22 2.93  21 2.93  20 2.93  28 2.94  15 2.95  26 2.96  25 2.96
                            10 2.96  12 2.96  32 3.04  31 3.04
  20  0.222  0.222  0.394-  36 2.74  10 2.90  11 2.91  13 2.91  26 2.93  19 2.93  23 2.95  21 2.95
                            27 2.96  22 2.96  29 2.98  31 2.98
  21  0.557  0.222  0.394-  36 2.74  12 2.90  14 2.91  11 2.91  25 2.93  19 2.93  20 2.95  23 2.95
                            27 2.96  24 2.96  30 2.98  32 2.98
  22  0.886  0.557  0.395-  24 2.90  27 2.90  18 2.92  15 2.92  25 2.93  19 2.93  13 2.94  35 2.95
                            23 2.96  20 2.96  33 3.02  31 3.02
  23  0.222  0.557  0.394-  36 2.74  16 2.90  13 2.91  14 2.91  25 2.93  26 2.93  20 2.95  21 2.95
                            22 2.96  24 2.96  33 2.98  34 2.98
  24  0.557  0.557  0.395-  27 2.90  22 2.90  15 2.92  17 2.92  26 2.93  19 2.93  14 2.94  35 2.95
                            21 2.96  23 2.96  32 3.02  34 3.02
  25  0.888  0.888  0.396-  22 2.93  27 2.93  23 2.93  21 2.93  28 2.94  18 2.95  19 2.96  26 2.96
                            16 2.96  12 2.96  33 3.04  30 3.04
  26  0.224  0.888  0.396-  27 2.93  24 2.93  20 2.93  23 2.93  28 2.94  17 2.95  19 2.96  25 2.96
                            10 2.96  16 2.96  29 3.04  34 3.04
  27  0.557  0.886  0.395-  24 2.90  22 2.90  17 2.92  18 2.92  26 2.93  25 2.93  11 2.94  35 2.95
                            20 2.96  21 2.96  29 3.02  30 3.02
  28  0.000  0.000  0.490-  25 2.94  19 2.94  26 2.94  34 3.00  32 3.00  33 3.00  30 3.00  31 3.00
                            29 3.00
  29  0.334  0.013  0.492-  30 2.82  31 2.82  36 2.84  20 2.98  35 3.00  28 3.00  27 3.02  26 3.04
                            34 3.17
  30  0.653  0.013  0.492-  29 2.82  32 2.82  36 2.84  21 2.98  35 3.00  28 3.00  27 3.02  25 3.04
                            33 3.17
  31  0.013  0.334  0.492-  33 2.82  29 2.82  36 2.84  20 2.98  35 3.00  28 3.00  22 3.02  19 3.04
                            32 3.17
  32  0.653  0.334  0.492-  34 2.82  30 2.82  36 2.84  21 2.98  35 3.00  28 3.00  24 3.02  19 3.04
                            31 3.17
  33  0.013  0.653  0.492-  31 2.82  34 2.82  36 2.84  23 2.98  35 3.00  28 3.00  22 3.02  25 3.04
                            30 3.17
  34  0.334  0.653  0.492-  32 2.82  33 2.82  36 2.84  23 2.98  35 3.00  28 3.00  24 3.02  26 3.04
                            29 3.17
  35  0.667  0.667  0.490-  24 2.95  27 2.95  22 2.95  29 3.00  34 3.00  32 3.00  31 3.00  30 3.00
                            33 3.00
  36  0.333  0.333  0.478-  20 2.74  23 2.74  21 2.74  33 2.84  31 2.84  29 2.84  30 2.84  34 2.84
                            32 2.84
  37  0.271  0.332  0.637-  38 1.11
  38  0.397  0.332  0.637-  37 1.11

  LATTYP: Found a hexagonal cell.
 ALAT       =     8.8135128021
 C/A-ratio  =     2.8930376603

  Lattice vectors:

 A1 = (  -4.4067569092,  -7.6327256898,   0.0000000000)
 A2 = (   8.8135128021,   0.0000000000,   0.0000000000)
 A3 = (   0.0000000000,   0.0000000000,  25.4978244557)

Analysis of symmetry for initial positions (statically):
 Subroutine PRICEL returns:
 Original cell was already a primitive cell.

 Routine SETGRP: Setting up the symmetry group for a
 hexagonal supercell.

 Subroutine GETGRP returns: Found  2 space group operations
 (whereof  2 operations were pure point group operations)
 out of a pool of 24 trial point group operations.

The static configuration has the point symmetry C_1h.

Analysis of symmetry for dynamics (positions and initial velocities):
 Subroutine PRICEL returns:
 Original cell was already a primitive cell.

[...]

The dynamic configuration has the point symmetry C_1h.

Analysis of constrained symmetry for selective dynamics:
 Subroutine PRICEL returns:
 Original cell was already a primitive cell.

 Routine SETGRP: Setting up the symmetry group for a
 hexagonal supercell.

[...]
     33      -5.5388      2.00000
     34      -5.5045      2.00000
     35      -5.4842      2.00000
     36      -5.3990      2.00000
     37      -5.3866      2.00000
     38      -5.3662      2.00000
     39      -5.3548      2.00000
     40      -5.3445      2.00000
     41      -5.2149      2.00000
     42      -5.1600      2.00000
     43      -5.1122      2.00000
     44      -5.0687      2.00000
     45      -5.0402      2.00000
     46      -5.0232      2.00000
     47      -5.0127      2.00000
     48      -4.9929      2.00000
     49      -4.9619      2.00000
     50      -4.9412      2.00000
     51      -4.8555      2.00000
     52      -4.8399      2.00000
     53      -4.8008      2.00000
     54      -4.7893      2.00000
     55      -4.7729      2.00000
     56      -4.7609      2.00000
     57      -4.7405      2.00000
     58      -4.7237      2.00000
     59      -4.6905      2.00000
     60      -4.6575      2.00000
[...]
    226       3.1336      0.00000
    227       3.5426      0.00000
    228       3.6041      0.00000
    229       3.6232      0.00000
    230       3.9363      0.00000
    231       4.1925      0.00000
    232       4.3061      0.00000
    233       4.7276      0.00000
    234       4.7927      0.00000
    235       4.8591      0.00000
    236       5.0417      0.00000
    237       5.1895      0.00000
    238       5.3920      0.00000
    239       5.5652      0.00000
    240       5.6864      0.00000

 soft charge-density along one line, spin component           1
         0         1         2         3         4         5         6         7         8         9
 total charge-density along one line

------------------------ aborting loop because EDIFF is reached ----------------------------------------

 total charge

# of ion       s       p       d       tot
    1        0.548   0.238   8.766   9.552
    2        0.543   0.241   8.766   9.549
    3        0.543   0.241   8.766   9.549
    4        0.543   0.241   8.766   9.549
    5        0.545   0.240   8.762   9.548
    6        0.543   0.241   8.766   9.549
    7        0.543   0.241   8.766   9.549
    8        0.543   0.241   8.766   9.549
    9        0.543   0.239   8.768   9.550
   10        0.529   0.306   8.764   9.600
   11        0.521   0.307   8.781   9.609
   12        0.529   0.306   8.764   9.600
   13        0.521   0.307   8.781   9.609
   14        0.521   0.307   8.781   9.609
   15        0.516   0.307   8.775   9.599
   16        0.530   0.306   8.764   9.600
   17        0.516   0.307   8.776   9.599
   18        0.516   0.307   8.776   9.599
   19        0.515   0.295   8.771   9.581
   20        0.573   0.350   8.720   9.643
   21        0.573   0.350   8.720   9.643
   22        0.506   0.305   8.781   9.592
   23        0.573   0.350   8.720   9.643
   24        0.506   0.305   8.781   9.592
   25        0.515   0.295   8.771   9.581
   26        0.515   0.295   8.771   9.581
   27        0.506   0.305   8.781   9.592
   28        0.539   0.225   8.754   9.518
   29        0.584   0.256   8.724   9.564
   30        0.584   0.256   8.724   9.564
   31        0.583   0.255   8.724   9.563
   32        0.583   0.255   8.724   9.563
   33        0.584   0.256   8.724   9.564
   34        0.584   0.256   8.724   9.564
   35        0.534   0.225   8.757   9.516
   36        0.569   0.400   3.775   4.743
   37        1.373   2.468   0.000   3.841
   38        1.373   2.468   0.000   3.841
tot         22.266  15.090 310.299 347.655

  FORCE on cell =-STRESS in cart. coord.  units (eV):
  Direction    XX          YY          ZZ          XY          YZ          ZX
  Alpha Z   904.91237   904.91237   904.91237
  Ewald  161708.14346161388.92219************    -0.00032     0.15145    -0.00017
  Hartree169887.37053169775.15126************     0.00001     0.14153    -0.00005
  E(xc)   -1793.67797 -1794.91825 -1802.85721    -0.00000     0.00025     0.00000
  Local  ************************343451.50568     0.00237    -0.29403     0.00008
  n-local   -87.18839   -74.63160   -46.45204     4.84617     0.00510     0.06753
  augment  2368.58212  2368.27194  2390.20146    -0.00135    -0.00068     0.00007
  Kinetic  5587.80828  5605.86949  5677.13134     1.57023    -0.00110     0.19612
  Fock        0.00000     0.00000     0.00000     0.00000     0.00000     0.00000
  Total     -24.43414   -24.42640     3.11791    -0.00000     0.00254     0.00000
  in kB     -22.82316   -22.81593     2.91234    -0.00000     0.00237     0.00000

 VOLUME and BASIS-vectors are now :
  energy-cutoff  :      500.00
  volume of cell :     1715.27
      direct lattice vectors                 reciprocal lattice vectors
     8.813512802  0.000000000  0.000000000     0.113462137 -0.065507406  0.000000000
     4.406756909  7.632725690  0.000000000     0.000000000  0.131014796  0.000000000
     0.000000000  0.000000000 25.497824456     0.000000000  0.000000000  0.039219032

  length of vectors
     8.813512802  8.813512802 25.497824456     0.131014796  0.131014796  0.039219032

 FORCES acting on ions
    electron-ion (+dipol)            ewald-force                    non-local-force                 convergence-correction
   -.201E-04 0.414E-02 0.271E+04   0.520E-04 -.261E-02 -.271E+04   -.556E-10 -.834E-03 -.893E+00   -.201E-03 -.952E-03 0.407E-01
   0.492E+00 -.139E+00 0.271E+04   -.704E+00 -.848E-01 -.271E+04   0.918E-01 0.143E+00 -.258E+00   0.105E+00 0.676E-01 0.932E-02
   -.492E+00 -.139E+00 0.271E+04   0.704E+00 -.848E-01 -.271E+04   -.918E-01 0.143E+00 -.258E+00   -.105E+00 0.696E-01 0.990E-02
   0.123E+00 0.492E+00 0.271E+04   -.423E+00 -.569E+00 -.271E+04   0.171E+00 0.707E-02 -.261E+00   0.111E+00 0.613E-01 0.107E-01
   0.752E-05 -.801E-02 0.271E+04   0.951E-04 0.297E-03 -.271E+04   -.131E-10 -.197E-03 0.565E-01   0.430E-02 0.813E-02 0.562E-01
   -.123E+00 0.492E+00 0.271E+04   0.423E+00 -.569E+00 -.271E+04   -.171E+00 0.707E-02 -.261E+00   -.113E+00 0.623E-01 0.117E-01
   -.370E+00 -.354E+00 0.271E+04   0.281E+00 0.654E+00 -.271E+04   0.791E-01 -.151E+00 -.258E+00   0.846E-02 -.130E+00 0.132E-01
   0.370E+00 -.354E+00 0.271E+04   -.281E+00 0.654E+00 -.271E+04   -.791E-01 -.151E+00 -.258E+00   -.656E-02 -.131E+00 0.135E-01
   0.199E-04 0.413E-02 0.271E+04   0.166E-03 0.234E-02 -.271E+04   0.599E-10 0.900E-03 -.490E+00   -.464E-02 -.737E-02 0.205E-01
   0.705E+01 0.409E+01 0.909E+03   -.657E+01 -.381E+01 -.908E+03   -.457E+00 -.264E+00 -.781E+00   -.132E-01 -.513E-02 0.313E+00
   0.137E-04 0.204E+01 0.914E+03   0.148E-03 -.211E+01 -.914E+03   0.928E-09 0.139E-01 -.722E-01   0.379E-02 -.756E-02 0.346E+00
   -.705E+01 0.409E+01 0.909E+03   0.657E+01 -.381E+01 -.908E+03   0.457E+00 -.264E+00 -.781E+00   0.119E-01 -.364E-02 0.313E+00
   0.176E+01 -.104E+01 0.914E+03   -.181E+01 0.106E+01 -.914E+03   0.122E-01 -.667E-02 -.735E-01   -.772E-02 0.136E-01 0.346E+00
   -.176E+01 -.104E+01 0.914E+03   0.181E+01 0.106E+01 -.914E+03   -.122E-01 -.667E-02 -.735E-01   0.155E-01 0.131E-01 0.346E+00
   0.317E-04 0.571E+01 0.914E+03   0.235E-03 -.588E+01 -.914E+03   0.163E-08 0.244E-01 -.554E+00   -.239E-02 0.743E-01 0.337E+00
   -.212E-04 -.814E+01 0.909E+03   0.163E-03 0.759E+01 -.908E+03   0.352E-07 0.528E+00 -.779E+00   0.296E-03 0.804E-02 0.312E+00
   0.496E+01 -.286E+01 0.914E+03   -.511E+01 0.295E+01 -.914E+03   0.218E-01 -.128E-01 -.550E+00   0.608E-01 -.433E-01 0.336E+00
   -.496E+01 -.286E+01 0.914E+03   0.511E+01 0.295E+01 -.914E+03   -.218E-01 -.128E-01 -.550E+00   -.608E-01 -.414E-01 0.335E+00
   -.442E-04 0.237E+01 -.923E+03   0.558E-04 -.239E+01 0.922E+03   -.159E-08 -.239E-01 0.440E+00   -.226E-03 0.592E-01 0.601E+00
   -.501E+01 -.282E+01 -.888E+03   0.588E+01 0.331E+01 0.888E+03   -.988E+00 -.568E+00 -.130E+01   0.117E+00 0.733E-01 0.773E+00
   0.501E+01 -.282E+01 -.888E+03   -.588E+01 0.331E+01 0.888E+03   0.988E+00 -.568E+00 -.130E+01   -.116E+00 0.753E-01 0.772E+00
   -.131E+02 0.745E+01 -.900E+03   0.127E+02 -.717E+01 0.899E+03   0.490E+00 -.285E+00 0.575E+00   -.232E-02 -.801E-02 0.584E+00
   -.106E-04 0.565E+01 -.888E+03   0.138E-03 -.664E+01 0.888E+03   0.758E-07 0.114E+01 -.130E+01   0.177E-02 -.139E+00 0.771E+00
   0.131E+02 0.745E+01 -.900E+03   -.127E+02 -.717E+01 0.899E+03   -.490E+00 -.285E+00 0.575E+00   -.456E-02 -.761E-02 0.583E+00
   -.200E+01 -.109E+01 -.923E+03   0.200E+01 0.109E+01 0.922E+03   0.232E-01 0.143E-01 0.433E+00   -.446E-01 -.272E-01 0.599E+00
   0.200E+01 -.109E+01 -.923E+03   -.200E+01 0.109E+01 0.922E+03   -.232E-01 0.143E-01 0.433E+00   0.464E-01 -.282E-01 0.600E+00
   0.115E-04 -.151E+02 -.900E+03   0.198E-03 0.146E+02 0.899E+03   0.376E-07 0.565E+00 0.573E+00   -.429E-02 -.377E-02 0.585E+00
   -.124E-04 0.819E+00 -.262E+04   0.295E-04 -.824E+00 0.262E+04   0.822E-11 0.123E-03 0.447E+00   0.136E-02 0.421E-02 0.343E+00
   0.106E+02 0.157E+02 -.263E+04   -.938E+01 -.139E+02 0.263E+04   -.135E+01 -.206E+01 -.354E+00   0.147E+00 0.197E+00 0.313E+00
   -.106E+02 0.157E+02 -.263E+04   0.938E+01 -.139E+02 0.263E+04   0.135E+01 -.206E+01 -.354E+00   -.153E+00 0.199E+00 0.314E+00
   0.185E+02 0.189E+01 -.263E+04   -.163E+02 -.178E+01 0.263E+04   -.245E+01 -.137E+00 -.313E+00   0.244E+00 0.301E-01 0.311E+00
   -.185E+02 0.189E+01 -.263E+04   0.163E+02 -.178E+01 0.263E+04   0.245E+01 -.137E+00 -.313E+00   -.251E+00 0.313E-01 0.310E+00
   0.709E+01 -.176E+02 -.263E+04   -.609E+01 0.156E+02 0.263E+04   -.111E+01 0.219E+01 -.354E+00   0.955E-01 -.238E+00 0.312E+00
   -.709E+01 -.176E+02 -.263E+04   0.609E+01 0.156E+02 0.263E+04   0.111E+01 0.219E+01 -.354E+00   -.996E-01 -.239E+00 0.311E+00
   0.351E-04 -.738E+00 -.262E+04   0.140E-03 0.743E+00 0.262E+04   0.788E-10 0.118E-02 0.642E+00   -.352E-02 -.575E-02 0.326E+00
   -.230E-04 -.571E-01 -.133E+04   0.638E-04 0.552E-01 0.133E+04   0.163E-10 0.245E-03 0.274E+01   0.114E-02 0.257E-02 0.280E+00
   0.239E+03 -.232E-01 -.109E+04   -.284E+03 0.231E-01 0.109E+04   0.456E+02 0.755E-04 -.138E+00   0.953E-02 -.345E-03 -.127E+00
   -.239E+03 -.232E-01 -.109E+04   0.284E+03 0.231E-01 0.109E+04   -.456E+02 0.755E-04 -.138E+00   -.951E-02 -.328E-03 -.127E+00
   -.677E-03 0.113E-01 -.482E+01   0.000E+00 -.112E-13 -.409E-11   0.316E-09 0.475E-02 -.645E+01   -.171E-01 -.174E-01 0.116E+02

 POSITION                                       TOTAL-FORCE (eV/Angst)
      0.00000      0.00000      5.28038        -0.000000     -0.000220     -0.178601
      2.93784      0.00000      5.28038        -0.015311     -0.011483     -0.075896
      5.87568      0.00000      5.28038         0.015311     -0.011483     -0.075896
      1.46892      2.54424      5.28038        -0.017373     -0.007415     -0.076238
      4.40676      2.54424      5.28038         0.000000      0.000251     -0.100210
      7.34459      2.54424      5.28038         0.017373     -0.007415     -0.076238
      2.93784      5.08848      5.28038        -0.002311      0.019006     -0.076282
      5.87568      5.08848      5.28038         0.002311      0.019006     -0.076282
      8.81351      5.08848      5.28038         0.000000      0.000033     -0.090840
      1.46892      0.84808      7.67911         0.009470      0.005762      0.155775
      4.40676      0.84808      7.67911        -0.000000     -0.062531     -0.023726
      7.34459      0.84808      7.67911        -0.009470      0.005762      0.155775
      2.93784      3.39232      7.67911        -0.054547      0.031702     -0.023784
      5.87568      3.39232      7.67911         0.054547      0.031702     -0.023784
      8.81351      3.39232      7.67911        -0.000000     -0.078946      0.087536
      4.40676      5.93656      7.67911        -0.000000     -0.011137      0.155884
      7.34459      5.93656      7.67911        -0.068458      0.039259      0.087682
     10.28243      5.93656      7.67911         0.068458      0.039259      0.087682
      8.81351      1.70807     10.10081         0.000000      0.019599      0.004556
      2.93151      1.69251     10.04012        -0.005035     -0.003379     -0.007309
      5.88200      1.69251     10.04012         0.005035     -0.003379     -0.007309
     10.26425      4.25090     10.06644         0.012246     -0.006919      0.005145
      4.40676      4.24770     10.04012         0.000000      0.005907     -0.008032
      7.36277      4.25090     10.06644        -0.012246     -0.006919      0.005145
     11.74104      6.77869     10.10081        -0.017128     -0.009859      0.003148
      5.88599      6.77869     10.10081         0.017128     -0.009859      0.003148
      8.81351      6.76365     10.06644         0.000000      0.013923      0.003846
      0.00000      0.00000     12.49922        -0.000000     -0.000608     -0.024377
      2.99894      0.10048     12.55446        -0.021194     -0.025262      0.029845
      5.81457      0.10048     12.55446         0.021194     -0.025262      0.029845
      1.58649      2.54692     12.55446        -0.031508     -0.005439      0.030377
      7.22703      2.54692     12.55446         0.031508     -0.005439      0.030377
      2.99430      4.98533     12.55446        -0.011038      0.030651      0.029904
      5.81921      4.98533     12.55446         0.011038      0.030651      0.029904
      8.81351      5.08848     12.49869         0.000000      0.000261     -0.024759
      4.40676      2.54424     12.18560         0.000000      0.000930      0.029625
      3.84973      2.53765     16.25435        -0.000390     -0.000356      0.002182
      4.96378      2.53765     16.25435         0.000390     -0.000356      0.002182
    total drift:                               -0.017788     -0.001350      0.338761

  FREE ENERGIE OF THE ION-ELECTRON SYSTEM (eV)
  free  energy   TOTEN  =      -133.50848867 eV

  energy  without entropy=     -133.50848867  energy(sigma->0) =     -133.50848867

 stress matrix after NEB project (eV)
    -24.43414     -0.00000      0.00000
     -0.00000    -24.42640      0.00254
      0.00000      0.00254      3.11791
  FORCES: max atom, RMS     0.002245    0.000515
  FORCE total and by dimension    0.003175    0.002182
  Stress total and by dimension   34.690020   24.434141
|           W    W    AA    RRRRR   N    N  II  N    N   GGGG   !!!           |
|           W    W   A  A   R    R  NN   N  II  NN   N  G    G  !!!           |
|           W    W  A    A  R    R  N N  N  II  N N  N  G       !!!           |
|           W WW W  AAAAAA  RRRRR   N  N N  II  N  N N  G  GGG   !            |
|           WW  WW  A    A  R   R   N   NN  II  N   NN  G    G                |
|           W    W  A    A  R    R  N    N  II  N    N   GGGG   !!!           |
|     Tetrahedron method does not include variations of the Fermi             |
|     occupations, so forces and stress will be inaccurate. We suggest        |
|     using a different smearing scheme ISMEAR = 1 or 2 for metals in         |
|     relaxations.                                                            |

 total charge

# of ion       s       p       d       tot
    1        0.548   0.238   8.766   9.552
    2        0.543   0.241   8.766   9.549
    3        0.543   0.241   8.766   9.549
    4        0.543   0.241   8.766   9.549
    5        0.545   0.240   8.762   9.548
    6        0.543   0.241   8.766   9.549
    7        0.543   0.241   8.766   9.549
    8        0.543   0.241   8.766   9.549
    9        0.543   0.239   8.768   9.550
   10        0.529   0.306   8.764   9.600
   11        0.521   0.307   8.781   9.609
   12        0.529   0.306   8.764   9.600
   13        0.521   0.307   8.781   9.609
   14        0.521   0.307   8.781   9.609
   15        0.516   0.307   8.775   9.599
   16        0.530   0.306   8.764   9.600
   17        0.516   0.307   8.776   9.599
   18        0.516   0.307   8.776   9.599
   19        0.515   0.295   8.771   9.581
   20        0.573   0.350   8.720   9.643
   21        0.573   0.350   8.720   9.643
   22        0.506   0.305   8.781   9.592
   23        0.573   0.350   8.720   9.643
   24        0.506   0.305   8.781   9.592
   25        0.515   0.295   8.771   9.581
   26        0.515   0.295   8.771   9.581
   27        0.506   0.305   8.781   9.592
   28        0.539   0.225   8.754   9.518
   29        0.584   0.256   8.724   9.564
   30        0.584   0.256   8.724   9.564
   31        0.583   0.255   8.724   9.563
   32        0.583   0.255   8.724   9.563
   33        0.584   0.256   8.724   9.564
   34        0.584   0.256   8.724   9.564
   35        0.534   0.225   8.757   9.516
   36        0.569   0.400   3.775   4.743
   37        1.373   2.468   0.000   3.841
   38        1.373   2.468   0.000   3.841
tot         22.266  15.090 310.299 347.655

 BZINTS: Fermi energy:    0.045661;  401.000000 electrons
         Band energy:-0.154402E+04;  BLOECHL correction:   -0.028830