 vasp.6.2.0 18Jan21 (build Jun 12 2021 23:27:24) complex

 executed on             LinuxIFC date 2022.05.27  05:22:39

 INCAR:
   ISMEAR = -5
   SIGMA = 0.1
   ISPIN = 1
   EDIFF = 1.d-5
   EDIFFG = -0.01
   NSW = 0
   NELM = 150
   ENCUT = 500
   ISIF = 2
   IBRION = 2
   LREAL = Auto
   ALGO = Fast
   ICHARG = 11
   LORBIT = 10
   LCHARG = .F.
   LWAVE = .F.

 POTCAR:    PAW_PBE Au 04Oct2007
 POTCAR:    PAW_PBE Ir 06Sep2000
 POTCAR:    PAW_PBE O 08Apr2002
 POTCAR:    PAW_PBE H 15Jun2001
|           W    W    AA    RRRRR   N    N  II  N    N   GGGG   !!!           |
|           W    W   A  A   R    R  NN   N  II  NN   N  G    G  !!!           |
|           W    W  A    A  R    R  N N  N  II  N N  N  G       !!!           |
|           W WW W  AAAAAA  RRRRR   N  N N  II  N  N N  G  GGG   !            |
|           WW  WW  A    A  R   R   N   NN  II  N   NN  G    G                |
|           W    W  A    A  R    R  N    N  II  N    N   GGGG   !!!           |
|     For optimal performance we recommend to set                             |
|       NCORE = 2 up to number-of-cores-per-socket                            |
|     This setting can greatly improve the performance of VASP for DFT.       |
|     The default, NCORE=1 might be grossly inefficient on modern             |
|     multi-core architectures or massively parallel machines. Do your        |
|     Unfortunately you need to use the default for GW and RPA                |
|     calculations (for HF NCORE is supported but not extensively tested      |
|     yet).                                                                   |

 POTCAR:    PAW_PBE Au 04Oct2007
   VRHFIN =Au: s1d10

   TITEL  = PAW_PBE Au 04Oct2007
   POMASS =  196.966; ZVAL   =   11.000    mass and valenz
   ENMAX  =  229.943; ENMIN  =  172.457 eV

 POTCAR:    PAW_PBE Ir 06Sep2000
   VRHFIN =Ir: s1d8

   TITEL  = PAW_PBE Ir 06Sep2000
   POMASS =  192.220; ZVAL   =    9.000    mass and valenz
   ENMAX  =  210.864; ENMIN  =  158.148 eV

 POTCAR:    PAW_PBE O 08Apr2002
   VRHFIN =O: s2p4

   TITEL  = PAW_PBE O 08Apr2002
   POMASS =   16.000; ZVAL   =    6.000    mass and valenz
   ENMAX  =  400.000; ENMIN  =  300.000 eV

 POTCAR:    PAW_PBE H 15Jun2001
   VRHFIN =H: ultrasoft test

   TITEL  = PAW_PBE H 15Jun2001
   POMASS =    1.000; ZVAL   =    1.000    mass and valenz
   ENMAX  =  250.000; ENMIN  =  200.000 eV

 Optimization of the real space projectors (new method)

 maximal supplied QI-value         = 15.12
 optimisation between [QCUT,QGAM] = [ 11.34, 22.83] = [ 36.00,145.93] Ry
 Optimized for a Real-space Cutoff    1.39 Angstroem

   l    n(q)    QCUT    max X(q) W(low)/X(q) W(high)/X(q)  e(spline)
   2      9    11.338    60.898    0.39E-03    0.42E-03    0.21E-06
   2      9    11.338    58.894    0.40E-03    0.42E-03    0.22E-06
   0      9    11.338   109.617    0.13E-03    0.20E-04    0.13E-06
   0      9    11.338    75.026    0.13E-03    0.20E-04    0.13E-06
   1      9    11.338    16.344    0.33E-04    0.24E-03    0.18E-06
   1      9    11.338    10.160    0.26E-04    0.19E-03    0.15E-06
 Optimization of the real space projectors (new method)

[...]

   l    n(q)    QCUT    max X(q) W(low)/X(q) W(high)/X(q)  e(spline)
   0      7    11.387    20.381    0.39E-03    0.13E-02    0.15E-06
   0      7    11.387    15.268    0.42E-03    0.14E-02    0.17E-06
   1      6    11.387     5.964    0.41E-03    0.11E-02    0.17E-06
   1      6    11.387     5.382    0.39E-03    0.87E-03    0.15E-06
 Optimization of the real space projectors (new method)

 maximal supplied QI-value         = 34.20
 optimisation between [QCUT,QGAM] = [ 11.29, 22.57] = [ 35.68,142.71] Ry
 Optimized for a Real-space Cutoff    1.16 Angstroem

   l    n(q)    QCUT    max X(q) W(low)/X(q) W(high)/X(q)  e(spline)
   0      8    11.287    19.460    0.40E-03    0.73E-03    0.16E-06
   0      8    11.287    12.209    0.38E-03    0.70E-03    0.15E-06
   1      7    11.287     4.655    0.22E-03    0.25E-04    0.22E-06
  PAW_PBE Au 04Oct2007                  :
  PAW_PBE Ir 06Sep2000                  :
  PAW_PBE O 08Apr2002                   :
  PAW_PBE H 15Jun2001                   :

 POSCAR: Au-Ir-OH
  positions in direct lattice
  velocities in cartesian coordinates
 exchange correlation table for  LEXCH =        8
   RHO(1)=    0.500       N(1)  =     2000
   RHO(2)=  100.500       N(2)  =     4000

 VTST: version 3.2, (02/03/18)

 CHAIN: initializing optimizer

 OPT: Using VASP Conjugate-Gradient optimizer
 CHAIN: Read ICHAIN            0

 POSCAR: Au-Ir-OH
  positions in direct lattice
  velocities in cartesian coordinates

 ion  position               nearest neighbor table
   1  0.000  0.000  0.238-  16 2.94  12 2.94   6 2.94   8 2.94   7 2.94   3 2.94  10 2.94   4 2.94
                             2 2.94
   2  0.333  0.000  0.238-   9 2.94  11 2.94  17 2.94  10 2.94   8 2.94   4 2.94   5 2.94   1 2.94
                             3 2.94
   3  0.667  0.000  0.238-   7 2.94  18 2.94  12 2.94   1 2.94  11 2.94   5 2.94   6 2.94   9 2.94
                             2 2.94
   4  0.000  0.333  0.238-  10 2.94   6 2.94   5 2.94  13 2.94   2 2.94  15 2.94   9 2.94   1 2.94
                             7 2.94
   5  0.333  0.333  0.238-  13 2.94   7 2.94  11 2.94   4 2.94   2 2.94  14 2.94   3 2.94   8 2.94
                             6 2.94
   6  0.667  0.333  0.238-  15 2.94  14 2.94   1 2.94  12 2.94   4 2.94   9 2.94   8 2.94   3 2.94
                             5 2.94
   7  0.000  0.667  0.238-  18 2.94   3 2.94  16 2.94   5 2.94   1 2.94  13 2.94   8 2.94   4 2.94
                             9 2.94
   8  0.333  0.667  0.238-   9 2.94  17 2.94   1 2.94   2 2.94  14 2.94  16 2.94   6 2.94   7 2.94
                             5 2.94
   9  0.667  0.667  0.238-   2 2.94   8 2.94  17 2.94   6 2.94  15 2.94   4 2.94   3 2.94  18 2.94
                             7 2.94
  10  0.111  0.111  0.346-  20 2.90  11 2.94  17 2.94   2 2.94   4 2.94   1 2.94  12 2.94  16 2.94
                            13 2.94  15 2.94  26 2.94  19 2.94
  11  0.444  0.111  0.346-  20 2.91  21 2.91  27 2.93  13 2.94   2 2.94  10 2.94  17 2.94   5 2.94
                             3 2.94  18 2.94  14 2.94  12 2.94
  12  0.778  0.111  0.346-  21 2.90  16 2.94  18 2.94   1 2.94  14 2.94  15 2.94   3 2.94   6 2.94
                            10 2.94  11 2.94  25 2.94  19 2.94
  13  0.111  0.444  0.346-  23 2.91  20 2.91  22 2.93   5 2.94  18 2.94  11 2.94   7 2.94   4 2.94
                            16 2.94  10 2.94  14 2.94  15 2.94
  14  0.444  0.444  0.346-  21 2.91  23 2.91  24 2.93  15 2.94   6 2.94  12 2.94   8 2.94  17 2.94
                             5 2.94  16 2.94  13 2.94  11 2.94
  15  0.778  0.444  0.346-  24 2.92  22 2.92  14 2.94   6 2.94  17 2.94  12 2.94   9 2.94   4 2.94
                            10 2.94  13 2.94  18 2.94  19 2.94
  16  0.111  0.778  0.346-  23 2.90  18 2.94  12 2.94   7 2.94   1 2.94   8 2.94  13 2.94  10 2.94
                            14 2.94  17 2.94  25 2.94  26 2.94
  17  0.444  0.778  0.346-  27 2.92  24 2.92   9 2.94  15 2.94   2 2.94  10 2.94  11 2.94   8 2.94
                            14 2.94  16 2.94  18 2.94  26 2.94
  18  0.778  0.778  0.346-  22 2.92  27 2.92  16 2.94   7 2.94  13 2.94  12 2.94   3 2.94  11 2.94
                             9 2.94  15 2.94  17 2.94  25 2.94
  19  0.889  0.223  0.454-  21 2.93  20 2.93  24 2.93  22 2.93  15 2.94  10 2.94  12 2.94  26 2.95
                            25 2.95  28 2.95  32 2.96  31 2.96
  20  0.222  0.222  0.452-  36 2.78  10 2.90  11 2.91  13 2.91  26 2.93  19 2.93  29 2.95  31 2.95
                            27 2.95  22 2.95  23 2.95  21 2.95
  21  0.557  0.222  0.452-  36 2.78  12 2.90  14 2.91  11 2.91  25 2.93  19 2.93  30 2.95  32 2.95
                            24 2.95  27 2.95  20 2.95  23 2.95
  22  0.887  0.557  0.453-  24 2.91  27 2.91  18 2.92  15 2.92  13 2.93  25 2.93  19 2.93  23 2.95
                            20 2.95  35 2.95  33 2.96  31 2.96
  23  0.222  0.557  0.452-  36 2.78  16 2.90  13 2.91  14 2.91  25 2.93  26 2.93  33 2.95  34 2.95
                            22 2.95  24 2.95  20 2.95  21 2.95
  24  0.557  0.557  0.453-  27 2.91  22 2.91  15 2.92  17 2.92  14 2.93  26 2.93  19 2.93  21 2.95
                            23 2.95  35 2.95  32 2.96  34 2.96
  25  0.889  0.889  0.454-  23 2.93  21 2.93  22 2.93  27 2.93  18 2.94  16 2.94  12 2.94  19 2.95
                            26 2.95  28 2.95  33 2.96  30 2.96
  26  0.223  0.889  0.454-  20 2.93  23 2.93  27 2.93  24 2.93  17 2.94  10 2.94  16 2.94  19 2.95
                            25 2.95  28 2.95  29 2.96  34 2.96
  27  0.557  0.887  0.453-  24 2.91  22 2.91  17 2.92  18 2.92  11 2.93  26 2.93  25 2.93  20 2.95
                            21 2.95  35 2.95  29 2.96  30 2.96
  28  0.000  0.000  0.563-  25 2.95  19 2.95  26 2.95  34 2.96  32 2.96  33 2.96  30 2.96  31 2.96
                            29 2.96
  29  0.333  0.005  0.562-  31 2.89  30 2.89  36 2.90  20 2.95  28 2.96  35 2.96  27 2.96  26 2.96
                            34 3.03
  30  0.661  0.005  0.562-  32 2.89  29 2.89  36 2.90  21 2.95  28 2.96  35 2.96  27 2.96  25 2.96
                            33 3.03
  31  0.005  0.333  0.562-  29 2.89  33 2.89  36 2.90  20 2.95  28 2.96  35 2.96  22 2.96  19 2.96
                            32 3.03
  32  0.661  0.333  0.562-  30 2.89  34 2.89  36 2.90  21 2.95  28 2.96  35 2.96  24 2.96  19 2.96
                            31 3.03
  33  0.005  0.661  0.562-  34 2.89  31 2.89  36 2.90  23 2.95  28 2.96  35 2.96  22 2.96  25 2.96
                            30 3.03
  34  0.333  0.661  0.562-  33 2.89  32 2.89  36 2.90  23 2.95  28 2.96  35 2.96  24 2.96  26 2.96
                            29 3.03
  35  0.667  0.667  0.563-  24 2.95  27 2.95  22 2.95  29 2.96  34 2.96  32 2.96  31 2.96  30 2.96
                            33 2.96
  36  0.333  0.333  0.551-  37 1.95  20 2.78  23 2.78  21 2.78  33 2.90  31 2.90  29 2.90  30 2.90
                            34 2.90  32 2.90
  37  0.333  0.333  0.639-  38 0.96  36 1.95
  38  0.333  0.333  0.682-  37 0.96

  LATTYP: Found a hexagonal cell.
 ALAT       =     8.8135128021
 C/A-ratio  =     2.5184286595

  Lattice vectors:

 A1 = (  -4.4067569092,  -7.6327256898,   0.0000000000)
 A2 = (   8.8135128021,   0.0000000000,   0.0000000000)
 A3 = (   0.0000000000,   0.0000000000,  22.1962032318)

Analysis of symmetry for initial positions (statically):
 Subroutine PRICEL returns:
 Original cell was already a primitive cell.

 Routine SETGRP: Setting up the symmetry group for a
 hexagonal supercell.

 Subroutine GETGRP returns: Found  6 space group operations
 (whereof  6 operations were pure point group operations)
 out of a pool of 24 trial point group operations.

The static configuration has the point symmetry C_3v.

Analysis of symmetry for dynamics (positions and initial velocities):
 Subroutine PRICEL returns:
 Original cell was already a primitive cell.

[...]

The dynamic configuration has the point symmetry C_3v.

Analysis of constrained symmetry for selective dynamics:
 Subroutine PRICEL returns:
 Original cell was already a primitive cell.

[...]
     48      -4.0188      2.00000
     49      -3.9849      2.00000
     50      -3.9596      2.00000
     51      -3.9514      2.00000
     52      -3.9470      2.00000
     53      -3.9374      2.00000
     54      -3.9275      2.00000
     55      -3.8849      2.00000
     56      -3.8520      2.00000
     57      -3.8151      2.00000
     58      -3.7853      2.00000
     59      -3.7799      2.00000
     60      -3.7771      2.00000
[...]
    238       6.5133      0.00000
    239       6.6035      0.00000
    240       6.6301      0.00000
    241       6.6948      0.00000
    242       6.7447      0.00000
    243       6.9444      0.00000
    244       7.0036      0.00000
    245       7.0308      0.00000
    246       7.1579      0.00000
    247       7.3502      0.00000
    248       7.3665      0.00000
    249       7.4166      0.00000
    250       7.5939      0.00000
    251       7.7020      0.00000
    252       7.7220      0.00000

 soft charge-density along one line, spin component           1
         0         1         2         3         4         5         6         7         8         9
 total charge-density along one line

------------------------ aborting loop because EDIFF is reached ----------------------------------------

 total charge

# of ion       s       p       d       tot
    1        0.545   0.238   8.768   9.551
    2        0.546   0.241   8.763   9.550
    3        0.546   0.241   8.763   9.550
    4        0.546   0.241   8.763   9.550
    5        0.542   0.243   8.762   9.546
    6        0.546   0.241   8.763   9.550
    7        0.546   0.241   8.763   9.550
    8        0.546   0.241   8.763   9.550
    9        0.541   0.240   8.766   9.547
   10        0.523   0.309   8.766   9.598
   11        0.520   0.308   8.776   9.604
   12        0.523   0.309   8.766   9.598
   13        0.520   0.308   8.776   9.604
   14        0.520   0.308   8.776   9.604
   15        0.514   0.308   8.776   9.598
   16        0.523   0.309   8.766   9.598
   17        0.514   0.308   8.776   9.598
   18        0.514   0.308   8.776   9.598
   19        0.515   0.303   8.774   9.592
   20        0.542   0.335   8.747   9.624
   21        0.542   0.335   8.747   9.624
   22        0.509   0.307   8.777   9.593
   23        0.542   0.335   8.747   9.624
   24        0.509   0.307   8.777   9.593
   25        0.515   0.303   8.774   9.592
   26        0.515   0.303   8.774   9.592
   27        0.509   0.307   8.777   9.593
   28        0.541   0.230   8.769   9.540
   29        0.540   0.240   8.764   9.544
   30        0.540   0.240   8.764   9.544
   31        0.540   0.240   8.764   9.544
   32        0.540   0.240   8.764   9.544
   33        0.540   0.240   8.764   9.544
   34        0.540   0.240   8.764   9.544
   35        0.533   0.232   8.768   9.532
   36        0.550   0.494   6.919   7.962
   37        1.534   3.550   0.000   5.084
   38        0.599   0.130   0.000   0.729
tot         21.268  13.844 313.767 348.878

  FORCE on cell =-STRESS in cart. coord.  units (eV):
  Direction    XX          YY          ZZ          XY          YZ          ZX
  Alpha Z  1036.21676  1036.21676  1036.21676
  Ewald  119328.10989119328.11032************    -0.00032    -0.00008    -0.00013
  Hartree128195.05340128195.05341************     0.00001    -0.00002    -0.00003
  E(xc)   -1801.93466 -1801.93469 -1807.66621     0.00003    -0.00000    -0.00000
  Local  ************************259929.33710     0.00207     0.00001    -0.00002
  n-local  -123.87429   -68.36486   -70.11956    25.25956    -1.18221     1.51040
  augment  2415.23727  2415.23881  2426.08070    -0.00133     0.00002     0.00004
  Kinetic  5607.48866  5625.08643  5629.21409     7.80428    -0.08115     0.45698
  Fock        0.00000     0.00000     0.00000     0.00000     0.00000     0.00000
  Total     -20.86318   -20.86318     2.00337    -0.00000     0.00000     0.00000
  in kB     -22.38637   -22.38637     2.14963    -0.00000     0.00000     0.00000

 VOLUME and BASIS-vectors are now :
  energy-cutoff  :      500.00
  volume of cell :     1493.16
      direct lattice vectors                 reciprocal lattice vectors
     8.813512802  0.000000000  0.000000000     0.113462137 -0.065507406  0.000000000
     4.406756909  7.632725690  0.000000000     0.000000000  0.131014796  0.000000000
     0.000000000  0.000000000 22.196203232     0.000000000  0.000000000  0.045052750

  length of vectors
     8.813512802  8.813512802 22.196203232     0.131014796  0.131014796  0.045052750

 FORCES acting on ions
    electron-ion (+dipol)            ewald-force                    non-local-force                 convergence-correction
   -.195E-04 -.161E-04 0.250E+04   0.519E-04 0.434E-04 -.249E+04   -.246E-17 -.106E-17 -.109E+01   -.296E-03 -.184E-03 -.120E+00
   0.424E+00 0.352E+00 0.250E+04   -.545E+00 -.359E+00 -.250E+04   0.456E-01 0.575E-01 -.248E+00   0.680E-01 -.314E-01 -.208E+00
   -.424E+00 0.352E+00 0.250E+04   0.544E+00 -.359E+00 -.250E+04   -.456E-01 0.575E-01 -.248E+00   -.676E-01 -.294E-01 -.208E+00
   0.517E+00 0.191E+00 0.250E+04   -.584E+00 -.292E+00 -.250E+04   0.726E-01 0.108E-01 -.248E+00   0.689E-02 0.745E-01 -.208E+00
   0.898E-05 -.230E-04 0.250E+04   0.952E-04 0.174E-05 -.250E+04   -.227E-17 -.675E-19 -.210E+00   0.432E-02 0.263E-02 -.170E+00
   -.517E+00 0.191E+00 0.250E+04   0.583E+00 -.292E+00 -.250E+04   -.726E-01 0.108E-01 -.248E+00   -.847E-02 0.754E-01 -.207E+00
   0.932E-01 -.543E+00 0.250E+04   -.391E-01 0.651E+00 -.250E+04   0.269E-01 -.682E-01 -.248E+00   -.592E-01 -.439E-01 -.208E+00
   -.932E-01 -.543E+00 0.250E+04   0.390E-01 0.651E+00 -.250E+04   -.269E-01 -.682E-01 -.248E+00   0.611E-01 -.450E-01 -.207E+00
   0.193E-04 -.416E-04 0.250E+04   0.166E-03 -.201E-04 -.250E+04   0.112E-17 -.159E-17 -.587E+00   -.456E-02 -.236E-02 -.166E+00
   0.630E+01 0.364E+01 0.858E+03   -.574E+01 -.332E+01 -.857E+03   -.438E+00 -.253E+00 -.805E+00   -.525E-01 -.304E-01 -.246E+00
   0.140E-04 0.423E+01 0.864E+03   0.149E-03 -.422E+01 -.863E+03   0.292E-08 0.439E-01 -.259E+00   0.437E-02 -.106E+00 -.271E+00
   -.630E+01 0.364E+01 0.858E+03   0.574E+01 -.332E+01 -.857E+03   0.438E+00 -.253E+00 -.805E+00   0.507E-01 -.292E-01 -.245E+00
   0.366E+01 -.211E+01 0.864E+03   -.366E+01 0.211E+01 -.863E+03   0.380E-01 -.219E-01 -.259E+00   -.890E-01 0.569E-01 -.271E+00
   -.366E+01 -.211E+01 0.864E+03   0.366E+01 0.211E+01 -.863E+03   -.380E-01 -.219E-01 -.259E+00   0.968E-01 0.557E-01 -.272E+00
   0.309E-04 0.300E+01 0.860E+03   0.236E-03 -.313E+01 -.859E+03   0.545E-09 0.818E-02 -.478E+00   -.250E-02 0.867E-01 -.206E+00
   -.216E-04 -.727E+01 0.858E+03   0.163E-03 0.663E+01 -.857E+03   0.337E-07 0.506E+00 -.805E+00   -.175E-03 0.585E-01 -.245E+00
   0.260E+01 -.150E+01 0.860E+03   -.271E+01 0.157E+01 -.859E+03   0.708E-02 -.409E-02 -.478E+00   0.741E-01 -.451E-01 -.206E+00
   -.260E+01 -.150E+01 0.860E+03   0.271E+01 0.157E+01 -.859E+03   -.708E-02 -.409E-02 -.478E+00   -.735E-01 -.427E-01 -.204E+00
   -.413E-04 0.423E+01 -.815E+03   0.531E-04 -.457E+01 0.815E+03   0.654E-08 0.982E-01 0.563E+00   -.466E-02 0.190E+00 -.264E+00
   0.142E+02 0.823E+01 -.769E+03   -.131E+02 -.758E+01 0.770E+03   -.867E+00 -.501E+00 -.848E+00   -.137E+00 -.794E-01 -.283E+00
   -.142E+02 0.823E+01 -.769E+03   0.131E+02 -.758E+01 0.770E+03   0.867E+00 -.501E+00 -.848E+00   0.140E+00 -.797E-01 -.284E+00
   0.557E+00 -.322E+00 -.802E+03   -.807E+00 0.466E+00 0.801E+03   0.414E+00 -.239E+00 0.662E+00   -.123E+00 0.729E-01 -.256E+00
   -.133E-04 -.165E+02 -.769E+03   0.143E-03 0.152E+02 0.770E+03   0.667E-07 0.100E+01 -.848E+00   0.468E-03 0.161E+00 -.284E+00
   -.557E+00 -.322E+00 -.802E+03   0.807E+00 0.466E+00 0.801E+03   -.414E+00 -.239E+00 0.662E+00   0.123E+00 0.711E-01 -.256E+00
   -.366E+01 -.211E+01 -.815E+03   0.396E+01 0.229E+01 0.815E+03   -.850E-01 -.491E-01 0.563E+00   -.169E+00 -.976E-01 -.264E+00
   0.366E+01 -.211E+01 -.815E+03   -.396E+01 0.229E+01 0.815E+03   0.850E-01 -.491E-01 0.563E+00   0.163E+00 -.990E-01 -.264E+00
   0.936E-05 0.643E+00 -.802E+03   0.200E-03 -.932E+00 0.801E+03   0.319E-07 0.478E+00 0.662E+00   0.106E-02 -.143E+00 -.256E+00
   -.120E-04 -.126E-04 -.245E+04   0.287E-04 0.342E-04 0.245E+04   -.182E-17 0.342E-17 0.371E+00   -.393E-03 -.245E-03 0.160E+00
   0.261E+02 0.452E+02 -.243E+04   -.259E+02 -.452E+02 0.243E+04   -.224E+00 -.126E+00 0.511E+00   -.948E-01 -.189E+00 0.401E-01
   -.261E+02 0.452E+02 -.243E+04   0.259E+02 -.452E+02 0.243E+04   0.224E+00 -.126E+00 0.511E+00   0.955E-01 -.187E+00 0.393E-01
   0.522E+02 -.243E-01 -.243E+04   -.521E+02 0.182E+00 0.243E+04   -.221E+00 -.131E+00 0.511E+00   -.211E+00 0.123E-01 0.402E-01
   -.522E+02 -.242E-01 -.243E+04   0.521E+02 0.182E+00 0.243E+04   0.221E+00 -.131E+00 0.511E+00   0.210E+00 0.127E-01 0.395E-01
   0.261E+02 -.452E+02 -.243E+04   -.262E+02 0.450E+02 0.243E+04   0.279E-02 0.257E+00 0.511E+00   -.114E+00 0.176E+00 0.393E-01
   -.261E+02 -.452E+02 -.243E+04   0.262E+02 0.450E+02 0.243E+04   -.279E-02 0.257E+00 0.511E+00   0.116E+00 0.175E+00 0.395E-01
   0.304E-04 -.280E-04 -.245E+04   0.145E-03 -.497E-04 0.245E+04   0.138E-17 -.110E-17 0.555E+00   -.430E-02 -.219E-02 -.127E-02
   -.150E-04 -.185E-04 -.173E+04   0.926E-04 0.834E-05 0.173E+04   0.471E-17 -.145E-17 0.127E+01   0.253E-02 0.154E-02 -.152E+00
   0.197E-03 -.967E-04 -.155E+04   0.195E-04 0.128E-05 0.153E+04   -.401E-18 -.441E-18 0.178E+02   0.375E-02 0.229E-02 0.163E+00
   0.759E-05 -.135E-04 -.312E+03   0.106E-05 0.952E-07 0.320E+03   -.343E-18 -.838E-19 -.842E+01   0.208E-03 0.127E-03 0.704E-01
   -.522E-03 -.860E-03 -.146E+01   -.128E-12 0.692E-13 -.966E-11   0.138E-15 -.586E-16 0.781E+01   0.360E-02 0.280E-02 -.580E+01

 POSITION                                       TOTAL-FORCE (eV/Angst)
      0.00000      0.00000      5.28038        -0.000000     -0.000000     -0.089368
      2.93784      0.00000      5.28038        -0.006597      0.020003     -0.064797
      5.87568      0.00000      5.28038         0.006597      0.020003     -0.064797
      1.46892      2.54424      5.28038         0.014025     -0.015715     -0.064797
      4.40676      2.54424      5.28038        -0.000000      0.000000     -0.101278
      7.34459      2.54424      5.28038        -0.014025     -0.015715     -0.064797
      2.93784      5.08848      5.28038         0.020622     -0.004288     -0.064797
      5.87568      5.08848      5.28038        -0.020622     -0.004288     -0.064797
      8.81351      5.08848      5.28038        -0.000000      0.000000     -0.086341
      1.46892      0.84808      7.67911         0.065448      0.037786      0.161021
      4.40676      0.84808      7.67911        -0.000000     -0.059732      0.034599
      7.34459      0.84808      7.67911        -0.065448      0.037786      0.161021
      2.93784      3.39232      7.67911        -0.051730      0.029866      0.034599
      5.87568      3.39232      7.67911         0.051730      0.029866      0.034599
      8.81351      3.39232      7.67911        -0.000000     -0.035709      0.096881
      4.40676      5.93656      7.67911        -0.000000     -0.075573      0.161021
      7.34459      5.93656      7.67911        -0.030925      0.017854      0.096881
     10.28243      5.93656      7.67911         0.030925      0.017854      0.096881
      8.81351      1.70038     10.08128        -0.000000     -0.051003     -0.045025
      2.93047      1.69191     10.03818         0.111723      0.064503     -0.032199
      5.88304      1.69191     10.03818        -0.111723      0.064503     -0.032199
     10.26792      4.24878     10.06124         0.040858     -0.023589     -0.015972
      4.40676      4.24891     10.03818        -0.000000     -0.129007     -0.032199
      7.35911      4.24878     10.06124        -0.040858     -0.023589     -0.015972
     11.74770      6.78254     10.08128         0.044170      0.025502     -0.045025
      5.87933      6.78254     10.08128        -0.044170      0.025502     -0.045025
      8.81351      6.76789     10.06124         0.000000      0.047179     -0.015972
      0.00000      0.00000     12.49619        -0.000000     -0.000000     -0.018143
      2.96082      0.04010     12.48308        -0.128495     -0.300528     -0.103160
      5.85269      0.04010     12.48308         0.128495     -0.300528     -0.103160
      1.51514      2.54410     12.48308        -0.324513      0.038984     -0.103160
      7.29838      2.54410     12.48308         0.324513      0.038984     -0.103160
      2.96107      5.04853     12.48308        -0.196018      0.261544     -0.103160
      5.85244      5.04853     12.48308         0.196018      0.261544     -0.103160
      8.81351      5.08848     12.49171        -0.000000     -0.000000      0.042612
      4.40676      2.54424     12.23647        -0.000000     -0.000000      0.622186
      4.40676      2.54424     14.18214        -0.000000     -0.000000      0.102999
      4.40676      2.54424     15.14534        -0.000000      0.000000     -0.062836
    total drift:                                0.003074      0.001939      0.552067

  FREE ENERGIE OF THE ION-ELECTRON SYSTEM (eV)
  free  energy   TOTEN  =      -123.55702680 eV

  energy  without entropy=     -123.55702680  energy(sigma->0) =     -123.55702680

 stress matrix after NEB project (eV)
    -20.86318     -0.00000      0.00000
     -0.00000    -20.86318      0.00000
      0.00000      0.00000      2.00337
  FORCES: max atom, RMS     0.102999    0.019572
  FORCE total and by dimension    0.120653    0.102999
  Stress total and by dimension   29.572929   20.863182
|           W    W    AA    RRRRR   N    N  II  N    N   GGGG   !!!           |
|           W    W   A  A   R    R  NN   N  II  NN   N  G    G  !!!           |
|           W    W  A    A  R    R  N N  N  II  N N  N  G       !!!           |
|           W WW W  AAAAAA  RRRRR   N  N N  II  N  N N  G  GGG   !            |
|           WW  WW  A    A  R   R   N   NN  II  N   NN  G    G                |
|           W    W  A    A  R    R  N    N  II  N    N   GGGG   !!!           |
|     Tetrahedron method does not include variations of the Fermi             |
|     occupations, so forces and stress will be inaccurate. We suggest        |
|     using a different smearing scheme ISMEAR = 1 or 2 for metals in         |
|     relaxations.                                                            |

 total charge

# of ion       s       p       d       tot
    1        0.545   0.238   8.768   9.551
    2        0.546   0.241   8.763   9.550
    3        0.546   0.241   8.763   9.550
    4        0.546   0.241   8.763   9.550
    5        0.542   0.243   8.762   9.546
    6        0.546   0.241   8.763   9.550
    7        0.546   0.241   8.763   9.550
    8        0.546   0.241   8.763   9.550
    9        0.541   0.240   8.766   9.547
   10        0.523   0.309   8.766   9.598
   11        0.520   0.308   8.776   9.604
   12        0.523   0.309   8.766   9.598
   13        0.520   0.308   8.776   9.604
   14        0.520   0.308   8.776   9.604
   15        0.514   0.308   8.776   9.598
   16        0.523   0.309   8.766   9.598
   17        0.514   0.308   8.776   9.598
   18        0.514   0.308   8.776   9.598
   19        0.515   0.303   8.774   9.592
   20        0.542   0.335   8.747   9.624
   21        0.542   0.335   8.747   9.624
   22        0.509   0.307   8.777   9.593
   23        0.542   0.335   8.747   9.624
   24        0.509   0.307   8.777   9.593
   25        0.515   0.303   8.774   9.592
   26        0.515   0.303   8.774   9.592
   27        0.509   0.307   8.777   9.593
   28        0.541   0.230   8.769   9.540
   29        0.540   0.240   8.764   9.544
   30        0.540   0.240   8.764   9.544
   31        0.540   0.240   8.764   9.544
   32        0.540   0.240   8.764   9.544
   33        0.540   0.240   8.764   9.544
   34        0.540   0.240   8.764   9.544
   35        0.533   0.232   8.768   9.532
   36        0.550   0.494   6.919   7.962
   37        1.534   3.550   0.000   5.084
   38        0.599   0.130   0.000   0.729
tot         21.268  13.844 313.767 348.878

 BZINTS: Fermi energy:    0.846530;  401.000072 electrons
         Band energy:-0.117439E+04;  BLOECHL correction:   -0.081620
 WARNING: Fermi level nearly degenerate with energies of tetrahedron. This may
     result in numerical instabilities because the density changes by tiny
     changes of the Fermi energy. If the calculation converges, the total
     energy will still be reliable. If you notice convergence issues, you can
     try to
     *) Use a Gamma centered k-point grid
     *) Use tetrahedron method without corrections ISMEAR = -4
     *) Don't use tetrahedron method
        ISMEAR = 0 for semiconductors, 1 or 2 for metals