 vasp.6.2.0 18Jan21 (build Jun 12 2021 23:27:24) complex

 executed on             LinuxIFC date 2022.05.26  19:41:20

 INCAR:
   ISMEAR = -5
   SIGMA = 0.1
   ISPIN = 1
   EDIFF = 1.d-5
   EDIFFG = -0.01
   NSW = 0
   NELM = 150
   ENCUT = 500
   ISIF = 2
   IBRION = 2
   LREAL = Auto
   ALGO = Fast
   ICHARG = 11
   LORBIT = 10
   LCHARG = .F.
   LWAVE = .F.

 POTCAR:    PAW_PBE Ag 02Apr2005
 POTCAR:    PAW_PBE Fe 06Sep2000
 POTCAR:    PAW_PBE N 08Apr2002
|           W    W    AA    RRRRR   N    N  II  N    N   GGGG   !!!           |
|           W    W   A  A   R    R  NN   N  II  NN   N  G    G  !!!           |
|           W    W  A    A  R    R  N N  N  II  N N  N  G       !!!           |
|           W WW W  AAAAAA  RRRRR   N  N N  II  N  N N  G  GGG   !            |
|           WW  WW  A    A  R   R   N   NN  II  N   NN  G    G                |
|           W    W  A    A  R    R  N    N  II  N    N   GGGG   !!!           |
|     For optimal performance we recommend to set                             |
|       NCORE = 2 up to number-of-cores-per-socket                            |
|     This setting can greatly improve the performance of VASP for DFT.       |
|     The default, NCORE=1 might be grossly inefficient on modern             |
|     multi-core architectures or massively parallel machines. Do your        |
|     Unfortunately you need to use the default for GW and RPA                |
|     calculations (for HF NCORE is supported but not extensively tested      |
|     yet).                                                                   |

 POTCAR:    PAW_PBE Ag 02Apr2005
   VRHFIN =Ag : s1 d10

   TITEL  = PAW_PBE Ag 02Apr2005
   POMASS =  107.868; ZVAL   =   11.000    mass and valenz
   ENMAX  =  249.844; ENMIN  =  187.383 eV

 POTCAR:    PAW_PBE Fe 06Sep2000
   VRHFIN =Fe:  d7 s1

   TITEL  = PAW_PBE Fe 06Sep2000
   POMASS =   55.847; ZVAL   =    8.000    mass and valenz
   ENMAX  =  267.882; ENMIN  =  200.911 eV

 POTCAR:    PAW_PBE N 08Apr2002
   VRHFIN =N: s2p3

   TITEL  = PAW_PBE N 08Apr2002
   POMASS =   14.001; ZVAL   =    5.000    mass and valenz
   ENMAX  =  400.000; ENMIN  =  300.000 eV

 Optimization of the real space projectors (new method)

 maximal supplied QI-value         = 15.12
 optimisation between [QCUT,QGAM] = [ 11.34, 22.83] = [ 36.00,145.93] Ry
 Optimized for a Real-space Cutoff    1.43 Angstroem

   l    n(q)    QCUT    max X(q) W(low)/X(q) W(high)/X(q)  e(spline)
   2      9    11.338    53.897    0.16E-03    0.20E-03    0.28E-06
   2      9    11.338    52.416    0.16E-03    0.20E-03    0.29E-06
   0     10    11.338   122.045    0.31E-04    0.76E-04    0.15E-06
   0     10    11.338    73.629    0.30E-04    0.72E-04    0.15E-06
   1      9    11.338    15.255    0.20E-03    0.19E-04    0.17E-06
   1      9    11.338     9.562    0.16E-03    0.15E-04    0.14E-06
 Optimization of the real space projectors (new method)

[...]

   l    n(q)    QCUT    max X(q) W(low)/X(q) W(high)/X(q)  e(spline)
   2      8    11.376    80.901    0.45E-03    0.44E-04    0.21E-06
   2      8    11.376    75.754    0.45E-03    0.45E-04    0.22E-06
   0      9    11.376    58.752    0.65E-04    0.95E-04    0.17E-06
   0      9    11.376    30.679    0.59E-04    0.87E-04    0.16E-06
   1      9    11.376    17.977    0.38E-03    0.10E-03    0.14E-06
   1      9    11.376    13.559    0.31E-03    0.90E-04    0.12E-06
 Optimization of the real space projectors (new method)

 maximal supplied QI-value         = 25.13
 optimisation between [QCUT,QGAM] = [ 11.31, 22.87] = [ 35.82,146.48] Ry
 Optimized for a Real-space Cutoff    1.27 Angstroem

   l    n(q)    QCUT    max X(q) W(low)/X(q) W(high)/X(q)  e(spline)
   0      9    11.310    79.467    0.75E-04    0.16E-03    0.36E-06
   0      9    11.310    66.151    0.74E-04    0.16E-03    0.36E-06
   1      8    11.310    17.416    0.35E-03    0.12E-03    0.95E-06
   1      8    11.310    12.382    0.37E-03    0.13E-03    0.98E-06
  PAW_PBE Ag 02Apr2005                  :
  PAW_PBE Fe 06Sep2000                  :
  PAW_PBE N 08Apr2002                   :

 POSCAR: Ag-Fe-N
  positions in direct lattice
  velocities in cartesian coordinates
 exchange correlation table for  LEXCH =        8
   RHO(1)=    0.500       N(1)  =     2000
   RHO(2)=  100.500       N(2)  =     4000

 VTST: version 3.2, (02/03/18)

 CHAIN: initializing optimizer

 OPT: Using VASP Conjugate-Gradient optimizer
 CHAIN: Read ICHAIN            0

 POSCAR: Ag-Fe-N
  positions in direct lattice
  velocities in cartesian coordinates

 ion  position               nearest neighbor table
   1  0.000  0.000  0.238-   2 2.93   8 2.93   7 2.93   6 2.93   4 2.93  12 2.93  16 2.93  10 2.93
                             3 2.93
   2  0.333  0.000  0.238-   1 2.93   8 2.93   9 2.93   3 2.93   4 2.93   5 2.93  10 2.93  17 2.93
                            11 2.93
   3  0.667  0.000  0.238-   9 2.93   2 2.93   5 2.93  11 2.93   7 2.93  18 2.93   1 2.93   6 2.93
                            12 2.93
   4  0.000  0.333  0.238-   5 2.93   6 2.93   2 2.93   1 2.93   7 2.93  13 2.93  15 2.93   9 2.93
                            10 2.93
   5  0.333  0.333  0.238-   4 2.93   3 2.93   7 2.93   2 2.93   8 2.93  14 2.93  13 2.93  11 2.93
                             6 2.93
   6  0.667  0.333  0.238-   4 2.93   9 2.93   1 2.93  15 2.93   8 2.93  12 2.93   3 2.93   5 2.93
                            14 2.93
   7  0.000  0.667  0.238-   8 2.93   1 2.93   5 2.93   3 2.93   4 2.93  16 2.93  18 2.93  13 2.93
                             9 2.93
   8  0.333  0.667  0.238-   7 2.93   1 2.93   2 2.93   9 2.93   5 2.93  16 2.93   6 2.93  17 2.93
                            14 2.93
   9  0.667  0.667  0.238-   3 2.93   2 2.93   8 2.93   6 2.93  17 2.93   4 2.93  15 2.93   7 2.93
                            18 2.93
  10  0.111  0.111  0.346-  20 2.92  19 2.93  26 2.93  12 2.93  16 2.93  15 2.93  17 2.93  13 2.93
                            11 2.93   2 2.93   1 2.93   4 2.93
  11  0.444  0.111  0.346-  21 2.90  20 2.90  27 2.92  14 2.93  17 2.93  18 2.93   3 2.93  12 2.93
                            13 2.93  10 2.93   5 2.93   2 2.93
  12  0.778  0.111  0.346-  21 2.92  25 2.93  19 2.93  10 2.93  16 2.93  18 2.93  15 2.93  11 2.93
                             1 2.93  14 2.93   6 2.93   3 2.93
  13  0.111  0.444  0.346-  20 2.90  23 2.90  22 2.92  15 2.93  14 2.93  18 2.93  10 2.93  11 2.93
                            16 2.93   4 2.93   5 2.93   7 2.93
  14  0.444  0.444  0.346-  23 2.90  21 2.90  24 2.92  13 2.93  11 2.93  16 2.93   5 2.93  12 2.93
                            17 2.93   8 2.93  15 2.93   6 2.93
  15  0.778  0.444  0.346-  24 2.92  22 2.92  19 2.93  13 2.93  10 2.93  12 2.93  17 2.93  18 2.93
                             4 2.93   6 2.93   9 2.93  14 2.93
  16  0.111  0.778  0.346-  23 2.92  26 2.93  25 2.93  18 2.93  12 2.93  10 2.93  14 2.93  17 2.93
                            13 2.93   7 2.93   8 2.93   1 2.93
  17  0.444  0.778  0.346-  27 2.92  24 2.92  26 2.93  11 2.93  10 2.93   9 2.93  18 2.93  15 2.93
                            16 2.93   2 2.93  14 2.93   8 2.93
  18  0.778  0.778  0.346-  22 2.92  27 2.92  25 2.93  16 2.93  12 2.93  13 2.93  11 2.93  17 2.93
                            15 2.93   7 2.93   3 2.93   9 2.93
  19  0.889  0.222  0.454-  28 2.91  15 2.93  10 2.93  12 2.93  24 2.93  22 2.93  26 2.93  25 2.93
                            20 2.94  21 2.94  32 2.94  31 2.94
  20  0.223  0.223  0.453-  36 2.70  31 2.89  29 2.89  13 2.90  11 2.90  21 2.91  23 2.91  10 2.92
                            27 2.94  22 2.94  19 2.94  26 2.94
  21  0.554  0.223  0.453-  36 2.70  30 2.89  32 2.89  11 2.90  14 2.90  20 2.91  23 2.91  12 2.92
                            27 2.94  24 2.94  25 2.94  19 2.94
  22  0.888  0.556  0.453-  35 2.91  18 2.92  15 2.92  33 2.92  31 2.92  13 2.92  24 2.92  27 2.92
                            25 2.93  19 2.93  23 2.94  20 2.94
  23  0.223  0.554  0.453-  36 2.70  34 2.89  33 2.89  14 2.90  13 2.90  21 2.91  20 2.91  16 2.92
                            22 2.94  24 2.94  26 2.94  25 2.94
  24  0.556  0.556  0.453-  35 2.91  15 2.92  17 2.92  32 2.92  34 2.92  14 2.92  27 2.92  22 2.92
                            19 2.93  26 2.93  23 2.94  21 2.94
  25  0.889  0.889  0.454-  28 2.91  18 2.93  16 2.93  12 2.93  22 2.93  27 2.93  26 2.93  19 2.93
                            23 2.94  21 2.94  33 2.94  30 2.94
  26  0.222  0.889  0.454-  28 2.91  17 2.93  16 2.93  10 2.93  27 2.93  24 2.93  25 2.93  19 2.93
                            23 2.94  20 2.94  34 2.94  29 2.94
  27  0.556  0.888  0.453-  35 2.91  17 2.92  18 2.92  29 2.92  30 2.92  11 2.92  24 2.92  22 2.92
                            26 2.93  25 2.93  20 2.94  21 2.94
  28  0.000  0.000  0.560-  26 2.91  25 2.91  19 2.91  29 2.97  34 2.97  33 2.97  32 2.97  31 2.97
                            30 2.97
  29  0.333  0.008  0.560-  31 2.86  30 2.86  36 2.87  20 2.89  27 2.92  26 2.94  28 2.97  35 2.97
                            34 3.07
  30  0.659  0.008  0.560-  32 2.86  29 2.86  36 2.87  21 2.89  27 2.92  25 2.94  28 2.97  35 2.97
                            33 3.07
  31  0.008  0.333  0.560-  29 2.86  33 2.86  36 2.87  20 2.89  22 2.92  19 2.94  28 2.97  35 2.97
                            32 3.07
  32  0.659  0.333  0.560-  30 2.86  34 2.86  36 2.87  21 2.89  24 2.92  19 2.94  28 2.97  35 2.97
                            31 3.07
  33  0.008  0.659  0.560-  34 2.86  31 2.86  36 2.87  23 2.89  22 2.92  25 2.94  28 2.97  35 2.97
                            30 3.07
  34  0.333  0.659  0.560-  33 2.86  32 2.86  36 2.87  23 2.89  24 2.92  26 2.94  28 2.97  35 2.97
                            29 3.07
  35  0.667  0.667  0.560-  24 2.91  27 2.91  22 2.91  32 2.97  30 2.97  29 2.97  34 2.97  31 2.97
                            33 2.97
  36  0.333  0.333  0.548-  37 1.56  21 2.70  20 2.70  23 2.70  31 2.87  30 2.87  33 2.87  29 2.87
                            34 2.87  32 2.87
  37  0.333  0.333  0.618-  36 1.56

  LATTYP: Found a hexagonal cell.
 ALAT       =     8.7913665772
 C/A-ratio  =     2.5227160501

  Lattice vectors:

 A1 = (  -4.3956832886,  -7.6135467898,   0.0000000000)
 A2 = (   8.7913665771,   0.0000000000,   0.0000000000)
 A3 = (   0.0000000000,   0.0000000000,  22.1781215668)

Analysis of symmetry for initial positions (statically):
 Subroutine PRICEL returns:
 Original cell was already a primitive cell.

 Routine SETGRP: Setting up the symmetry group for a
 hexagonal supercell.

 Subroutine GETGRP returns: Found  6 space group operations
 (whereof  6 operations were pure point group operations)
 out of a pool of 24 trial point group operations.

The static configuration has the point symmetry C_3v.

Analysis of symmetry for dynamics (positions and initial velocities):
 Subroutine PRICEL returns:
 Original cell was already a primitive cell.

[...]

The dynamic configuration has the point symmetry C_3v.

Analysis of constrained symmetry for selective dynamics:
 Subroutine PRICEL returns:
 Original cell was already a primitive cell.

 Routine SETGRP: Setting up the symmetry group for a
 hexagonal supercell.

 Subroutine GETGRP returns: Found  6 space group operations
[...]
     24      -4.6751      2.00000
     25      -4.6627      2.00000
     26      -4.6380      2.00000
     27      -4.6176      2.00000
     28      -4.6050      2.00000
     29      -4.5986      2.00000
     30      -4.5792      2.00000
     31      -4.5700      2.00000
     32      -4.5615      2.00000
     33      -4.5296      2.00000
     34      -4.4825      2.00000
     35      -4.4592      2.00000
     36      -4.4359      2.00000
     37      -4.4183      2.00000
     38      -4.4005      2.00000
     39      -4.3759      2.00000
     40      -4.3666      2.00000
     41      -4.3563      2.00000
     42      -4.3382      2.00000
     43      -4.3121      2.00000
     44      -4.2675      2.00000
     45      -4.2304      2.00000
     46      -4.2222      2.00000
     47      -4.2139      2.00000
     48      -4.2037      2.00000
     49      -4.1978      2.00000
     50      -4.1805      2.00000
     51      -4.1755      2.00000
     52      -4.1642      2.00000
     53      -4.1540      2.00000
     54      -4.0962      2.00000
     55      -4.0838      2.00000
     56      -4.0757      2.00000
     57      -4.0701      2.00000
     58      -4.0543      2.00000
     59      -4.0339      2.00000
     60      -4.0170      2.00000
[...]
    238       6.2384      0.00000
    239       6.3181      0.00000
    240       6.3682      0.00000
    241       7.0459      0.00000
    242       7.1787      0.00000
    243       7.2155      0.00000
    244       7.2444      0.00000
    245       7.3138      0.00000
    246       7.3336      0.00000
    247       7.3853      0.00000
    248       7.4969      0.00000
    249       7.5735      0.00000
    250       7.5989      0.00000
    251       7.6322      0.00000
    252       7.7246      0.00000

 soft charge-density along one line, spin component           1
         0         1         2         3         4         5         6         7         8         9
 total charge-density along one line

------------------------ aborting loop because EDIFF is reached ----------------------------------------

 total charge

# of ion       s       p       d       tot
    1        0.418   0.202   9.178   9.797
    2        0.415   0.204   9.177   9.796
    3        0.415   0.204   9.177   9.796
    4        0.415   0.204   9.177   9.796
    5        0.420   0.202   9.177   9.799
    6        0.415   0.204   9.177   9.796
    7        0.415   0.204   9.177   9.796
    8        0.415   0.204   9.177   9.796
    9        0.413   0.204   9.176   9.793
   10        0.407   0.268   9.165   9.839
   11        0.402   0.273   9.165   9.840
   12        0.407   0.268   9.165   9.839
   13        0.402   0.273   9.165   9.840
   14        0.402   0.273   9.165   9.840
   15        0.403   0.269   9.165   9.838
   16        0.407   0.268   9.165   9.839
   17        0.403   0.269   9.165   9.838
   18        0.403   0.269   9.165   9.838
   19        0.404   0.265   9.166   9.835
   20        0.426   0.294   9.149   9.869
   21        0.426   0.294   9.149   9.869
   22        0.396   0.276   9.165   9.837
   23        0.426   0.294   9.149   9.869
   24        0.396   0.276   9.165   9.837
   25        0.404   0.265   9.166   9.835
   26        0.404   0.265   9.166   9.835
   27        0.396   0.276   9.165   9.837
   28        0.416   0.192   9.182   9.790
   29        0.404   0.208   9.181   9.792
   30        0.404   0.208   9.181   9.792
   31        0.404   0.208   9.181   9.792
   32        0.404   0.208   9.181   9.792
   33        0.404   0.208   9.181   9.792
   34        0.404   0.208   9.181   9.792
   35        0.414   0.193   9.182   9.789
   36        0.499   0.552   6.547   7.599
   37        1.358   2.171   0.000   3.529
tot         16.169  11.119 327.511 354.799

  FORCE on cell =-STRESS in cart. coord.  units (eV):
  Direction    XX          YY          ZZ          XY          YZ          ZX
  Alpha Z   754.55227   754.55227   754.55227
  Ewald  121529.09137121529.09142************     0.00003    -0.00000     0.00003
  Hartree131805.77761131805.77764************     0.00002    -0.00000     0.00002
  E(xc)   -2089.02800 -2089.02799 -2094.15519    -0.00001     0.00000     0.00000
  Local  ************************264689.93253     0.00041    -0.00005    -0.00015
  n-local  -366.63680  -349.91546  -360.96287    10.60382    -0.43730     0.56276
  augment  3261.28152  3261.28171  3260.97887    -0.00017    -0.00001     0.00005
  Kinetic  4938.75777  4940.18898  4944.77980     3.77170     1.08830    -0.43317
  Fock        0.00000     0.00000     0.00000     0.00000     0.00000     0.00000
  Total      -8.87068    -8.87068    -1.39100    -0.00000     0.00000     0.00000
  in kB      -9.57413    -9.57413    -1.50131    -0.00000     0.00000     0.00000

 VOLUME and BASIS-vectors are now :
  energy-cutoff  :      500.00
  volume of cell :     1484.46
      direct lattice vectors                 reciprocal lattice vectors
     8.791366577  0.000000000  0.000000000     0.113747958 -0.065672414  0.000000000
     4.395683289  7.613546790  0.000000000     0.000000000  0.131344829  0.000000000
     0.000000000  0.000000000 22.178121567     0.000000000  0.000000000  0.045089481

  length of vectors
     8.791366577  8.791366577 22.178121567     0.131344829  0.131344829  0.045089481

 FORCES acting on ions
    electron-ion (+dipol)            ewald-force                    non-local-force                 convergence-correction
   0.459E-04 -.283E-04 0.251E+04   -.954E-04 0.593E-04 -.251E+04   -.551E-17 0.326E-18 -.183E+01   -.164E-03 -.201E-03 -.115E+00
   0.541E+00 0.556E+00 0.251E+04   -.549E+00 -.535E+00 -.251E+04   0.105E-01 0.424E-01 -.166E+01   0.226E-02 -.552E-01 -.928E-01
   -.541E+00 0.556E+00 0.251E+04   0.550E+00 -.535E+00 -.251E+04   -.105E-01 0.424E-01 -.166E+01   -.275E-02 -.533E-01 -.920E-01
   0.752E+00 0.191E+00 0.251E+04   -.738E+00 -.208E+00 -.251E+04   0.420E-01 -.121E-01 -.166E+01   -.465E-01 0.298E-01 -.928E-01
   -.585E-05 -.188E-04 0.251E+04   0.981E-04 -.199E-05 -.251E+04   0.141E-17 0.785E-18 -.167E+01   0.628E-02 0.384E-02 -.373E-01
   -.752E+00 0.191E+00 0.251E+04   0.738E+00 -.208E+00 -.251E+04   -.420E-01 -.121E-01 -.166E+01   0.451E-01 0.306E-01 -.919E-01
   0.211E+00 -.747E+00 0.251E+04   -.189E+00 0.744E+00 -.251E+04   0.315E-01 -.303E-01 -.166E+01   -.471E-01 0.248E-01 -.920E-01
   -.211E+00 -.747E+00 0.251E+04   0.189E+00 0.743E+00 -.251E+04   -.315E-01 -.303E-01 -.166E+01   0.487E-01 0.237E-01 -.919E-01
   0.361E-04 -.132E-04 0.251E+04   0.792E-04 -.643E-04 -.251E+04   0.248E-18 0.342E-17 -.168E+01   -.664E-02 -.342E-02 -.806E-01
   0.478E+01 0.276E+01 0.851E+03   -.458E+01 -.265E+01 -.851E+03   -.210E+00 -.121E+00 -.607E+00   0.519E-02 0.302E-02 0.567E-01
   -.293E-04 0.600E+01 0.860E+03   0.417E-04 -.612E+01 -.860E+03   0.899E-12 0.137E+00 -.513E+00   0.665E-02 -.470E-01 0.746E-01
   -.478E+01 0.276E+01 0.851E+03   0.458E+01 -.265E+01 -.851E+03   0.210E+00 -.121E+00 -.607E+00   -.712E-02 0.418E-02 0.575E-01
   0.520E+01 -.300E+01 0.860E+03   -.530E+01 0.306E+01 -.860E+03   0.118E+00 -.684E-01 -.513E+00   -.375E-01 0.293E-01 0.746E-01
   -.520E+01 -.300E+01 0.860E+03   0.530E+01 0.306E+01 -.860E+03   -.118E+00 -.684E-01 -.513E+00   0.483E-01 0.282E-01 0.741E-01
   0.161E-04 0.140E+01 0.853E+03   -.109E-03 -.150E+01 -.852E+03   0.357E-13 0.543E-02 -.575E+00   -.185E-02 0.652E-01 0.627E-02
   -.797E-05 -.552E+01 0.851E+03   0.208E-04 0.529E+01 -.851E+03   0.159E-11 0.243E+00 -.607E+00   0.165E-04 -.833E-02 0.575E-01
   0.122E+01 -.702E+00 0.853E+03   -.129E+01 0.747E+00 -.852E+03   0.470E-02 -.272E-02 -.575E+00   0.555E-01 -.342E-01 0.627E-02
   -.122E+01 -.702E+00 0.853E+03   0.129E+01 0.748E+00 -.852E+03   -.470E-02 -.272E-02 -.575E+00   -.552E-01 -.319E-01 0.760E-02
   0.409E-04 0.163E+01 -.840E+03   -.128E-03 -.155E+01 0.839E+03   -.202E-12 -.307E-01 0.584E+00   -.648E-02 -.366E-01 0.102E+00
   0.254E+02 0.146E+02 -.799E+03   -.246E+02 -.142E+02 0.799E+03   -.905E+00 -.523E+00 -.481E+00   -.434E-02 -.246E-02 0.172E+00
   -.254E+02 0.146E+02 -.799E+03   0.246E+02 -.142E+02 0.799E+03   0.905E+00 -.523E+00 -.481E+00   0.577E-02 -.283E-02 0.172E+00
   0.901E+01 -.520E+01 -.827E+03   -.925E+01 0.534E+01 0.827E+03   0.273E+00 -.158E+00 0.642E+00   -.124E-01 0.909E-02 0.849E-01
   -.593E-04 -.293E+02 -.799E+03   0.450E-04 0.283E+02 0.799E+03   0.686E-11 0.105E+01 -.481E+00   0.769E-03 0.707E-02 0.172E+00
   -.901E+01 -.520E+01 -.827E+03   0.925E+01 0.534E+01 0.827E+03   -.273E+00 -.158E+00 0.642E+00   0.126E-01 0.735E-02 0.850E-01
   -.141E+01 -.814E+00 -.840E+03   0.134E+01 0.774E+00 0.839E+03   0.266E-01 0.154E-01 0.584E+00   0.244E-01 0.139E-01 0.102E+00
   0.141E+01 -.814E+00 -.840E+03   -.134E+01 0.773E+00 0.839E+03   -.266E-01 0.154E-01 0.584E+00   -.352E-01 0.126E-01 0.102E+00
   0.213E-04 0.104E+02 -.827E+03   0.109E-03 -.107E+02 0.827E+03   0.207E-11 0.316E+00 0.642E+00   0.103E-02 -.153E-01 0.849E-01
   0.541E-04 -.370E-04 -.250E+04   -.115E-03 0.777E-04 0.250E+04   -.176E-17 0.839E-18 0.197E+01   -.252E-03 -.281E-03 0.123E+00
   0.292E+02 0.509E+02 -.249E+04   -.290E+02 -.506E+02 0.248E+04   -.286E+00 -.438E+00 0.234E+01   0.309E-01 0.558E-01 0.113E+00
   -.292E+02 0.509E+02 -.249E+04   0.290E+02 -.506E+02 0.248E+04   0.286E+00 -.438E+00 0.234E+01   -.311E-01 0.573E-01 0.112E+00
   0.586E+02 -.172E+00 -.249E+04   -.583E+02 0.208E+00 0.248E+04   -.522E+00 -.282E-01 0.234E+01   0.640E-01 -.941E-03 0.113E+00
   -.586E+02 -.172E+00 -.249E+04   0.583E+02 0.208E+00 0.248E+04   0.522E+00 -.282E-01 0.234E+01   -.650E-01 -.489E-03 0.113E+00
   0.295E+02 -.507E+02 -.249E+04   -.293E+02 0.504E+02 0.248E+04   -.237E+00 0.466E+00 0.234E+01   0.345E-01 -.550E-01 0.112E+00
   -.295E+02 -.507E+02 -.249E+04   0.293E+02 0.504E+02 0.248E+04   0.237E+00 0.466E+00 0.234E+01   -.333E-01 -.560E-01 0.113E+00
   0.224E-04 -.130E-04 -.250E+04   0.106E-03 -.659E-04 0.249E+04   0.769E-17 0.220E-17 0.202E+01   -.639E-02 -.326E-02 0.154E+00
   -.297E-04 -.249E-04 -.153E+04   0.771E-04 0.110E-04 0.152E+04   0.439E-17 -.554E-19 0.433E+01   0.497E-02 0.303E-02 -.872E-02
   0.106E-03 -.555E-04 -.145E+04   0.288E-04 0.544E-06 0.147E+04   -.367E-18 0.339E-18 -.196E+02   0.186E-02 0.114E-02 -.198E+00
   0.450E-03 -.765E-03 0.138E+02   -.764E-14 0.153E-12 -.432E-11   0.178E-15 -.530E-16 -.152E+02   -.536E-03 0.306E-02 0.145E+01

 POSITION                                       TOTAL-FORCE (eV/Angst)
      0.00000      0.00000      5.28219         0.000000     -0.000000      0.003069
      2.93046      0.00000      5.28219         0.005106      0.009174      0.038790
      5.86091      0.00000      5.28219        -0.005106      0.009174      0.038790
      1.46523      2.53785      5.28219         0.010497     -0.000165      0.038790
      4.39568      2.53785      5.28219         0.000000     -0.000000      0.007480
      7.32614      2.53785      5.28219        -0.010497     -0.000165      0.038790
      2.93046      5.07570      5.28219         0.005392     -0.009008      0.038790
      5.86091      5.07570      5.28219        -0.005392     -0.009008      0.038790
      8.79137      5.07570      5.28219         0.000000     -0.000000      0.032559
      1.46523      0.84595      7.67490        -0.010369     -0.005987      0.006805
      4.39568      0.84595      7.67490        -0.000000     -0.030910     -0.040850
      7.32614      0.84595      7.67490         0.010369     -0.005987      0.006805
      2.93046      3.38380      7.67490        -0.026769      0.015455     -0.040850
      5.86091      3.38380      7.67490         0.026769      0.015455     -0.040850
      8.79137      3.38380      7.67490        -0.000000     -0.020811      0.003965
      4.39568      5.92165      7.67490         0.000000      0.011974      0.006805
      7.32614      5.92165      7.67490        -0.018023      0.010405      0.003965
     10.25659      5.92165      7.67490         0.018023      0.010405      0.003965
      8.79137      1.69341     10.06265         0.000000      0.015920      0.013857
      2.94295      1.69911     10.03964        -0.090578     -0.052295     -0.100754
      5.84841      1.69911     10.03964         0.090578     -0.052295     -0.100754
     10.25212      4.23233     10.05217         0.021772     -0.012570      0.007276
      4.39568      4.21532     10.03964         0.000000      0.104590     -0.100754
      7.33061      4.23233     10.05217        -0.021772     -0.012570      0.007276
     11.72051      6.76684     10.06265        -0.013787     -0.007960      0.013857
      5.86222      6.76684     10.06265         0.013787     -0.007960      0.013857
      8.79137      6.76243     10.05217         0.000000      0.025140      0.007276
      0.00000      0.00000     12.42704         0.000000     -0.000000     -0.011349
      2.96539      0.06299     12.42777        -0.070812     -0.135244     -0.094083
      5.82597      0.06299     12.42777         0.070812     -0.135244     -0.094083
      1.53725      2.53661     12.42777        -0.152530      0.006297     -0.094083
      7.25412      2.53661     12.42777         0.152530      0.006297     -0.094083
      2.96754      5.01395     12.42777        -0.081719      0.128946     -0.094083
      5.82383      5.01395     12.42777         0.081719      0.128946     -0.094083
      8.79137      5.07570     12.42264         0.000000     -0.000000     -0.007411
      4.39568      2.53785     12.15183         0.000000      0.000000      0.673629
      4.39568      2.53785     13.70713         0.000000     -0.000000     -0.037118
    total drift:                               -0.000087      0.002299      0.067706

  FREE ENERGIE OF THE ION-ELECTRON SYSTEM (eV)
  free  energy   TOTEN  =      -102.88162962 eV

  energy  without entropy=     -102.88162962  energy(sigma->0) =     -102.88162962

 stress matrix after NEB project (eV)
     -8.87068     -0.00000      0.00000
     -0.00000     -8.87068      0.00000
      0.00000      0.00000     -1.39100
  FORCES: max atom, RMS     0.037118    0.006102
  FORCE total and by dimension    0.037118    0.037118
  Stress total and by dimension   12.621917    8.870680
|           W    W    AA    RRRRR   N    N  II  N    N   GGGG   !!!           |
|           W    W   A  A   R    R  NN   N  II  NN   N  G    G  !!!           |
|           W    W  A    A  R    R  N N  N  II  N N  N  G       !!!           |
|           W WW W  AAAAAA  RRRRR   N  N N  II  N  N N  G  GGG   !            |
|           WW  WW  A    A  R   R   N   NN  II  N   NN  G    G                |
|           W    W  A    A  R    R  N    N  II  N    N   GGGG   !!!           |
|     Tetrahedron method does not include variations of the Fermi             |
|     occupations, so forces and stress will be inaccurate. We suggest        |
|     using a different smearing scheme ISMEAR = 1 or 2 for metals in         |
|     relaxations.                                                            |

 total charge

# of ion       s       p       d       tot
    1        0.418   0.202   9.178   9.797
    2        0.415   0.204   9.177   9.796
    3        0.415   0.204   9.177   9.796
    4        0.415   0.204   9.177   9.796
    5        0.420   0.202   9.177   9.799
    6        0.415   0.204   9.177   9.796
    7        0.415   0.204   9.177   9.796
    8        0.415   0.204   9.177   9.796
    9        0.413   0.204   9.176   9.793
   10        0.407   0.268   9.165   9.839
   11        0.402   0.273   9.165   9.840
   12        0.407   0.268   9.165   9.839
   13        0.402   0.273   9.165   9.840
   14        0.402   0.273   9.165   9.840
   15        0.403   0.269   9.165   9.838
   16        0.407   0.268   9.165   9.839
   17        0.403   0.269   9.165   9.838
   18        0.403   0.269   9.165   9.838
   19        0.404   0.265   9.166   9.835
   20        0.426   0.294   9.149   9.869
   21        0.426   0.294   9.149   9.869
   22        0.396   0.276   9.165   9.837
   23        0.426   0.294   9.149   9.869
   24        0.396   0.276   9.165   9.837
   25        0.404   0.265   9.166   9.835
   26        0.404   0.265   9.166   9.835
   27        0.396   0.276   9.165   9.837
   28        0.416   0.192   9.182   9.790
   29        0.404   0.208   9.181   9.792
   30        0.404   0.208   9.181   9.792
   31        0.404   0.208   9.181   9.792
   32        0.404   0.208   9.181   9.792
   33        0.404   0.208   9.181   9.792
   34        0.404   0.208   9.181   9.792
   35        0.414   0.193   9.182   9.789
   36        0.499   0.552   6.547   7.599
   37        1.358   2.171   0.000   3.529
tot         16.169  11.119 327.511 354.799

 BZINTS: Fermi energy:    0.778616;  398.000000 electrons
         Band energy:-0.131771E+04;  BLOECHL correction:   -0.069105