 vasp.6.2.0 18Jan21 (build Jun 12 2021 23:27:24) complex

 executed on             LinuxIFC date 2022.05.27  05:07:14

 INCAR:
   ISMEAR = -5
   SIGMA = 0.1
   ISPIN = 1
   EDIFF = 1.d-5
   EDIFFG = -0.01
   NSW = 0
   NELM = 150
   ENCUT = 500
   ISIF = 2
   IBRION = 2
   LREAL = Auto
   ALGO = Fast
   ICHARG = 11
   LORBIT = 10
   LCHARG = .F.
   LWAVE = .F.

 POTCAR:    PAW_PBE Au 04Oct2007
 POTCAR:    PAW_PBE Mo 08Apr2002
 POTCAR:    PAW_PBE C 08Apr2002
 POTCAR:    PAW_PBE O 08Apr2002
|           W    W    AA    RRRRR   N    N  II  N    N   GGGG   !!!           |
|           W    W   A  A   R    R  NN   N  II  NN   N  G    G  !!!           |
|           W    W  A    A  R    R  N N  N  II  N N  N  G       !!!           |
|           W WW W  AAAAAA  RRRRR   N  N N  II  N  N N  G  GGG   !            |
|           WW  WW  A    A  R   R   N   NN  II  N   NN  G    G                |
|           W    W  A    A  R    R  N    N  II  N    N   GGGG   !!!           |
|     For optimal performance we recommend to set                             |
|       NCORE = 2 up to number-of-cores-per-socket                            |
|     This setting can greatly improve the performance of VASP for DFT.       |
|     The default, NCORE=1 might be grossly inefficient on modern             |
|     multi-core architectures or massively parallel machines. Do your        |
|     Unfortunately you need to use the default for GW and RPA                |
|     calculations (for HF NCORE is supported but not extensively tested      |
|     yet).                                                                   |

 POTCAR:    PAW_PBE Au 04Oct2007
   VRHFIN =Au: s1d10

   TITEL  = PAW_PBE Au 04Oct2007
   POMASS =  196.966; ZVAL   =   11.000    mass and valenz
   ENMAX  =  229.943; ENMIN  =  172.457 eV

 POTCAR:    PAW_PBE Mo 08Apr2002
   VRHFIN =Mo: 4p5s4d

   TITEL  = PAW_PBE Mo 08Apr2002
   POMASS =   95.940; ZVAL   =    6.000    mass and valenz
   ENMAX  =  224.584; ENMIN  =  168.438 eV

 POTCAR:    PAW_PBE C 08Apr2002
   VRHFIN =C: s2p2

[...]

 POTCAR:    PAW_PBE O 08Apr2002
   VRHFIN =O: s2p4

   TITEL  = PAW_PBE O 08Apr2002
   POMASS =   16.000; ZVAL   =    6.000    mass and valenz
   ENMAX  =  400.000; ENMIN  =  300.000 eV

 Optimization of the real space projectors (new method)

 maximal supplied QI-value         = 15.12
 optimisation between [QCUT,QGAM] = [ 11.34, 22.83] = [ 36.00,145.93] Ry
 Optimized for a Real-space Cutoff    1.39 Angstroem

   l    n(q)    QCUT    max X(q) W(low)/X(q) W(high)/X(q)  e(spline)
   2      9    11.338    60.898    0.39E-03    0.42E-03    0.21E-06
   2      9    11.338    58.894    0.40E-03    0.42E-03    0.22E-06
   0      9    11.338   109.617    0.13E-03    0.20E-04    0.13E-06
   0      9    11.338    75.026    0.13E-03    0.20E-04    0.13E-06
   1      9    11.338    16.344    0.33E-04    0.24E-03    0.18E-06
   1      9    11.338    10.160    0.26E-04    0.19E-03    0.15E-06
 Optimization of the real space projectors (new method)

[...]

   l    n(q)    QCUT    max X(q) W(low)/X(q) W(high)/X(q)  e(spline)
   0      7    11.310   115.676    0.43E-03    0.13E-02    0.19E-06
   0      7    11.310    87.132    0.43E-03    0.13E-02    0.18E-06
   1      6    11.310     4.429    0.42E-03    0.74E-03    0.11E-06
   1      6    11.310     2.733    0.34E-03    0.55E-03    0.92E-07
 Optimization of the real space projectors (new method)

 maximal supplied QI-value         = 24.76
 optimisation between [QCUT,QGAM] = [ 11.39, 22.77] = [ 36.31,145.25] Ry
 Optimized for a Real-space Cutoff    1.00 Angstroem

   l    n(q)    QCUT    max X(q) W(low)/X(q) W(high)/X(q)  e(spline)
   0      7    11.387    20.381    0.39E-03    0.13E-02    0.15E-06
   0      7    11.387    15.268    0.42E-03    0.14E-02    0.17E-06
   1      6    11.387     5.964    0.41E-03    0.11E-02    0.17E-06
   1      6    11.387     5.382    0.39E-03    0.87E-03    0.15E-06
  PAW_PBE Au 04Oct2007                  :
  PAW_PBE Mo 08Apr2002                  :
  PAW_PBE C 08Apr2002                   :
  PAW_PBE O 08Apr2002                   :

 POSCAR: Au-Mo-CO
  positions in direct lattice
  velocities in cartesian coordinates
 exchange correlation table for  LEXCH =        8
   RHO(1)=    0.500       N(1)  =     2000
   RHO(2)=  100.500       N(2)  =     4000

 VTST: version 3.2, (02/03/18)

 CHAIN: initializing optimizer

 OPT: Using VASP Conjugate-Gradient optimizer
 CHAIN: Read ICHAIN            0

 POSCAR: Au-Mo-CO
  positions in direct lattice
  velocities in cartesian coordinates

 ion  position               nearest neighbor table
   1  0.000  0.000  0.238-  16 2.94  12 2.94   6 2.94   8 2.94   7 2.94   3 2.94  10 2.94   4 2.94
                             2 2.94
   2  0.333  0.000  0.238-   9 2.94  11 2.94  17 2.94  10 2.94   8 2.94   4 2.94   5 2.94   1 2.94
                             3 2.94
   3  0.667  0.000  0.238-   7 2.94  18 2.94  12 2.94   1 2.94  11 2.94   5 2.94   6 2.94   9 2.94
                             2 2.94
   4  0.000  0.333  0.238-  10 2.94   6 2.94   5 2.94  13 2.94   2 2.94  15 2.94   9 2.94   1 2.94
                             7 2.94
   5  0.333  0.333  0.238-  13 2.94   7 2.94  11 2.94   4 2.94   2 2.94  14 2.94   3 2.94   8 2.94
                             6 2.94
   6  0.667  0.333  0.238-  15 2.94  14 2.94   1 2.94  12 2.94   4 2.94   9 2.94   8 2.94   3 2.94
                             5 2.94
   7  0.000  0.667  0.238-  18 2.94   3 2.94  16 2.94   5 2.94   1 2.94  13 2.94   8 2.94   4 2.94
                             9 2.94
   8  0.333  0.667  0.238-   9 2.94  17 2.94   1 2.94   2 2.94  14 2.94  16 2.94   6 2.94   7 2.94
                             5 2.94
   9  0.667  0.667  0.238-   2 2.94   8 2.94  17 2.94   6 2.94  15 2.94   4 2.94   3 2.94  18 2.94
                             7 2.94
  10  0.111  0.111  0.346-  20 2.91  11 2.94  17 2.94   2 2.94   4 2.94   1 2.94  12 2.94  16 2.94
                            13 2.94  15 2.94  26 2.95  19 2.95
  11  0.444  0.111  0.346-  20 2.91  21 2.91  13 2.94   2 2.94  10 2.94  17 2.94   5 2.94   3 2.94
                            18 2.94  14 2.94  12 2.94  27 2.94
  12  0.778  0.111  0.346-  21 2.91  16 2.94  18 2.94   1 2.94  14 2.94  15 2.94   3 2.94   6 2.94
                            10 2.94  11 2.94  25 2.95  19 2.95
  13  0.111  0.444  0.346-  23 2.91  20 2.91   5 2.94  18 2.94  11 2.94   7 2.94   4 2.94  16 2.94
                            10 2.94  14 2.94  15 2.94  22 2.94
  14  0.444  0.444  0.346-  21 2.91  23 2.91  15 2.94   6 2.94  12 2.94   8 2.94  17 2.94   5 2.94
                            16 2.94  13 2.94  11 2.94  24 2.94
  15  0.778  0.444  0.346-  24 2.93  22 2.93  14 2.94   6 2.94  17 2.94  12 2.94   9 2.94   4 2.94
                            10 2.94  13 2.94  18 2.94  19 2.95
  16  0.111  0.778  0.346-  23 2.91  18 2.94  12 2.94   7 2.94   1 2.94   8 2.94  13 2.94  10 2.94
                            14 2.94  17 2.94  25 2.95  26 2.95
  17  0.444  0.778  0.346-  27 2.93  24 2.93   9 2.94  15 2.94   2 2.94  10 2.94  11 2.94   8 2.94
                            14 2.94  16 2.94  18 2.94  26 2.95
  18  0.778  0.778  0.346-  22 2.93  27 2.93  16 2.94   7 2.94  13 2.94  12 2.94   3 2.94  11 2.94
                             9 2.94  15 2.94  17 2.94  25 2.95
  19  0.889  0.223  0.455-  24 2.93  22 2.93  21 2.94  20 2.94  28 2.95  26 2.95  25 2.95  15 2.95
                            10 2.95  12 2.95  32 3.02  31 3.02
  20  0.222  0.222  0.453-  36 2.77  11 2.91  13 2.91  10 2.91  23 2.94  21 2.94  26 2.94  19 2.94
                            27 2.95  22 2.95  29 2.98  31 2.98
  21  0.555  0.222  0.453-  36 2.77  14 2.91  11 2.91  12 2.91  20 2.94  23 2.94  25 2.94  19 2.94
                            27 2.95  24 2.95  30 2.98  32 2.98
  22  0.887  0.557  0.454-  24 2.91  27 2.91  18 2.93  15 2.93  25 2.93  19 2.93  13 2.94  35 2.95
                            23 2.95  20 2.95  33 3.00  31 3.00
  23  0.222  0.555  0.453-  36 2.77  13 2.91  14 2.91  16 2.91  20 2.94  21 2.94  25 2.94  26 2.94
                            22 2.95  24 2.95  33 2.98  34 2.98
  24  0.557  0.557  0.454-  27 2.91  22 2.91  15 2.93  17 2.93  26 2.93  19 2.93  14 2.94  35 2.95
                            21 2.95  23 2.95  32 3.00  34 3.00
  25  0.889  0.889  0.455-  22 2.93  27 2.93  23 2.94  21 2.94  28 2.95  19 2.95  26 2.95  18 2.95
                            16 2.95  12 2.95  33 3.02  30 3.02
  26  0.223  0.889  0.455-  27 2.93  24 2.93  20 2.94  23 2.94  28 2.95  19 2.95  25 2.95  17 2.95
                            10 2.95  16 2.95  29 3.02  34 3.02
  27  0.557  0.887  0.454-  24 2.91  22 2.91  17 2.93  18 2.93  26 2.93  25 2.93  11 2.94  35 2.95
                            20 2.95  21 2.95  29 3.00  30 3.00
  28  0.000  0.000  0.563-  25 2.95  19 2.95  26 2.95  34 2.98  32 2.98  33 2.98  30 2.98  31 2.98
                            29 2.98
  29  0.333  0.010  0.565-  30 2.85  31 2.85  36 2.87  20 2.98  35 2.98  28 2.98  27 3.00  26 3.02
                            34 3.11
  30  0.657  0.010  0.565-  29 2.85  32 2.85  36 2.87  21 2.98  35 2.98  28 2.98  27 3.00  25 3.02
                            33 3.11
  31  0.010  0.333  0.565-  33 2.85  29 2.85  36 2.87  20 2.98  35 2.98  28 2.98  22 3.00  19 3.02
                            32 3.11
  32  0.657  0.333  0.565-  34 2.85  30 2.85  36 2.87  21 2.98  35 2.98  28 2.98  24 3.00  19 3.02
                            31 3.11
  33  0.010  0.657  0.565-  31 2.85  34 2.85  36 2.87  23 2.98  35 2.98  28 2.98  22 3.00  25 3.02
                            30 3.11
  34  0.333  0.657  0.565-  32 2.85  33 2.85  36 2.87  23 2.98  35 2.98  28 2.98  24 3.00  26 3.02
                            29 3.11
  35  0.667  0.667  0.563-  24 2.95  27 2.95  22 2.95  29 2.98  34 2.98  32 2.98  31 2.98  30 2.98
                            33 2.98
  36  0.333  0.333  0.551-  37 1.98  20 2.77  23 2.77  21 2.77  33 2.87  31 2.87  29 2.87  30 2.87
                            34 2.87  32 2.87
  37  0.333  0.333  0.641-  38 1.17  36 1.98
  38  0.333  0.333  0.693-  37 1.17

  LATTYP: Found a hexagonal cell.
 ALAT       =     8.8135128021
 C/A-ratio  =     2.5184286595

  Lattice vectors:

 A1 = (  -4.4067569092,  -7.6327256898,   0.0000000000)
 A2 = (   8.8135128021,   0.0000000000,   0.0000000000)
 A3 = (   0.0000000000,   0.0000000000,  22.1962032318)

Analysis of symmetry for initial positions (statically):
 Subroutine PRICEL returns:
 Original cell was already a primitive cell.

 Routine SETGRP: Setting up the symmetry group for a
 hexagonal supercell.

 Subroutine GETGRP returns: Found  6 space group operations
 (whereof  6 operations were pure point group operations)
 out of a pool of 24 trial point group operations.

The static configuration has the point symmetry C_3v.

Analysis of symmetry for dynamics (positions and initial velocities):
 Subroutine PRICEL returns:
 Original cell was already a primitive cell.

[...]

The dynamic configuration has the point symmetry C_3v.

Analysis of constrained symmetry for selective dynamics:
 Subroutine PRICEL returns:
 Original cell was already a primitive cell.

 Routine SETGRP: Setting up the symmetry group for a
 hexagonal supercell.

[...]
     33      -4.8549      2.00000
     34      -4.7882      2.00000
     35      -4.7843      2.00000
     36      -4.7638      2.00000
     37      -4.7333      2.00000
     38      -4.7184      2.00000
     39      -4.7002      2.00000
     40      -4.6385      2.00000
     41      -4.6230      2.00000
     42      -4.5144      2.00000
     43      -4.4936      2.00000
     44      -4.4334      2.00000
     45      -4.3894      2.00000
     46      -4.3585      2.00000
     47      -4.3136      2.00000
     48      -4.3000      2.00000
     49      -4.2795      2.00000
     50      -4.2727      2.00000
     51      -4.1730      2.00000
     52      -4.1411      2.00000
     53      -4.1242      2.00000
     54      -4.1002      2.00000
     55      -4.0942      2.00000
     56      -4.0832      2.00000
     57      -4.0751      2.00000
     58      -4.0488      2.00000
     59      -4.0062      2.00000
     60      -3.9759      2.00000
[...]
    238       6.1604      0.00000
    239       6.4125      0.00000
    240       6.4824      0.00000
    241       6.5360      0.00000
    242       6.5703      0.00000
    243       6.5914      0.00000
    244       6.7654      0.00000
    245       6.7765      0.00000
    246       6.8183      0.00000
    247       6.8880      0.00000
    248       6.9053      0.00000
    249       7.2361      0.00000
    250       7.2948      0.00000
    251       7.3458      0.00000
    252       7.6858      0.00000

 soft charge-density along one line, spin component           1
         0         1         2         3         4         5         6         7         8         9
 total charge-density along one line

------------------------ aborting loop because EDIFF is reached ----------------------------------------

 total charge

# of ion       s       p       d       tot
    1        0.545   0.237   8.769   9.551
    2        0.543   0.240   8.765   9.549
    3        0.543   0.240   8.765   9.549
    4        0.543   0.240   8.765   9.549
    5        0.545   0.241   8.759   9.545
    6        0.543   0.240   8.765   9.549
    7        0.543   0.240   8.765   9.549
    8        0.543   0.240   8.765   9.549
    9        0.542   0.238   8.770   9.550
   10        0.525   0.307   8.766   9.598
   11        0.526   0.306   8.780   9.611
   12        0.525   0.307   8.766   9.598
   13        0.526   0.306   8.780   9.611
   14        0.526   0.306   8.780   9.611
   15        0.515   0.308   8.775   9.598
   16        0.525   0.307   8.766   9.598
   17        0.515   0.308   8.775   9.598
   18        0.515   0.308   8.775   9.598
   19        0.516   0.295   8.773   9.584
   20        0.565   0.333   8.741   9.640
   21        0.565   0.333   8.741   9.640
   22        0.505   0.306   8.778   9.589
   23        0.565   0.333   8.741   9.640
   24        0.505   0.306   8.778   9.589
   25        0.516   0.295   8.773   9.584
   26        0.516   0.295   8.773   9.584
   27        0.505   0.306   8.778   9.589
   28        0.538   0.227   8.760   9.524
   29        0.572   0.245   8.740   9.557
   30        0.572   0.245   8.740   9.557
   31        0.572   0.245   8.740   9.557
   32        0.572   0.245   8.740   9.557
   33        0.572   0.245   8.740   9.557
   34        0.572   0.245   8.740   9.557
   35        0.536   0.227   8.759   9.522
   36        0.416   0.464   4.230   5.110
   37        0.965   1.546   0.000   2.510
   38        1.613   3.531   0.000   5.144
tot         21.847  15.186 310.916 347.949

  FORCE on cell =-STRESS in cart. coord.  units (eV):
  Direction    XX          YY          ZZ          XY          YZ          ZX
  Alpha Z  1037.77745  1037.77745  1037.77745
  Ewald  115406.07099115406.07140************    -0.00032    -0.00009    -0.00014
  Hartree124213.46410124213.46410************     0.00001    -0.00002    -0.00004
  E(xc)   -1798.98697 -1798.98704 -1807.06878     0.00006    -0.00001    -0.00001
  Local  ************************251546.83148     0.00206     0.00002     0.00001
  n-local  -115.18400   -65.37581   -67.88829    23.95976    -1.39508     1.57430
  augment  2377.96331  2377.96485  2399.45914    -0.00133    -0.00001     0.00002
  Kinetic  5605.25541  5618.23501  5652.19518     6.86449    -0.14186     0.67434
  Fock        0.00000     0.00000     0.00000     0.00000     0.00000     0.00000
  Total     -21.73788   -21.73787     3.73385    -0.00000     0.00000     0.00000
  in kB     -23.32493   -23.32493     4.00645    -0.00000     0.00000     0.00000

 VOLUME and BASIS-vectors are now :
  energy-cutoff  :      500.00
  volume of cell :     1493.16
      direct lattice vectors                 reciprocal lattice vectors
     8.813512802  0.000000000  0.000000000     0.113462137 -0.065507406  0.000000000
     4.406756909  7.632725690  0.000000000     0.000000000  0.131014796  0.000000000
     0.000000000  0.000000000 22.196203232     0.000000000  0.000000000  0.045052750

  length of vectors
     8.813512802  8.813512802 22.196203232     0.131014796  0.131014796  0.045052750

 FORCES acting on ions
    electron-ion (+dipol)            ewald-force                    non-local-force                 convergence-correction
   -.195E-04 -.161E-04 0.247E+04   0.519E-04 0.433E-04 -.247E+04   0.404E-17 0.753E-18 -.925E+00   -.280E-03 -.175E-03 -.202E+00
   0.544E+00 0.539E-01 0.247E+04   -.590E+00 -.182E+00 -.247E+04   0.598E-01 0.114E+00 -.241E+00   -.877E-02 0.187E-01 -.231E+00
   -.544E+00 0.539E-01 0.247E+04   0.590E+00 -.182E+00 -.247E+04   -.598E-01 0.114E+00 -.241E+00   0.913E-02 0.207E-01 -.231E+00
   0.319E+00 0.444E+00 0.247E+04   -.453E+00 -.420E+00 -.247E+04   0.128E+00 -.512E-02 -.241E+00   0.118E-01 -.170E-01 -.232E+00
   0.872E-05 -.233E-04 0.247E+04   0.951E-04 0.174E-05 -.247E+04   0.417E-17 -.391E-18 0.363E-01   0.440E-02 0.267E-02 -.198E+00
   -.319E+00 0.444E+00 0.247E+04   0.453E+00 -.420E+00 -.247E+04   -.128E+00 -.512E-02 -.241E+00   -.135E-01 -.161E-01 -.230E+00
   -.225E+00 -.498E+00 0.247E+04   0.138E+00 0.602E+00 -.247E+04   0.686E-01 -.109E+00 -.241E+00   0.225E-01 -.245E-02 -.231E+00
   0.225E+00 -.498E+00 0.247E+04   -.138E+00 0.602E+00 -.247E+04   -.686E-01 -.109E+00 -.241E+00   -.206E-01 -.364E-02 -.230E+00
   0.195E-04 -.416E-04 0.247E+04   0.166E-03 -.200E-04 -.247E+04   0.241E-17 0.478E-18 -.604E+00   -.466E-02 -.241E-02 -.220E+00
   0.565E+01 0.326E+01 0.835E+03   -.519E+01 -.300E+01 -.834E+03   -.396E+00 -.229E+00 -.690E+00   -.733E-01 -.424E-01 0.130E+00
   0.146E-04 0.290E+01 0.840E+03   0.148E-03 -.299E+01 -.840E+03   0.619E-08 0.929E-01 -.155E+00   0.426E-02 -.602E-01 0.164E+00
   -.565E+01 0.326E+01 0.835E+03   0.519E+01 -.300E+01 -.834E+03   0.396E+00 -.229E+00 -.690E+00   0.713E-01 -.404E-01 0.131E+00
   0.251E+01 -.145E+01 0.840E+03   -.259E+01 0.150E+01 -.840E+03   0.805E-01 -.465E-01 -.155E+00   -.497E-01 0.340E-01 0.164E+00
   -.251E+01 -.145E+01 0.840E+03   0.259E+01 0.150E+01 -.840E+03   -.805E-01 -.465E-01 -.155E+00   0.580E-01 0.334E-01 0.165E+00
   0.313E-04 0.444E+01 0.839E+03   0.236E-03 -.455E+01 -.838E+03   0.282E-08 0.423E-01 -.514E+00   -.297E-02 0.455E-02 0.187E+00
   -.212E-04 -.653E+01 0.835E+03   0.162E-03 0.599E+01 -.834E+03   0.304E-07 0.457E+00 -.690E+00   0.398E-03 0.820E-01 0.131E+00
   0.384E+01 -.222E+01 0.839E+03   -.394E+01 0.227E+01 -.838E+03   0.366E-01 -.212E-01 -.514E+00   0.270E-02 -.442E-02 0.187E+00
   -.384E+01 -.222E+01 0.839E+03   0.394E+01 0.227E+01 -.838E+03   -.366E-01 -.212E-01 -.514E+00   -.263E-02 -.177E-02 0.187E+00
   -.427E-04 0.488E+00 -.827E+03   0.547E-04 -.631E+00 0.826E+03   0.344E-08 0.517E-01 0.602E+00   -.593E-02 0.836E-01 0.594E+00
   -.747E+00 -.431E+00 -.800E+03   0.171E+01 0.988E+00 0.801E+03   -.123E+01 -.709E+00 -.132E+01   0.115E+00 0.664E-01 0.918E+00
   0.747E+00 -.431E+00 -.800E+03   -.171E+01 0.988E+00 0.801E+03   0.123E+01 -.709E+00 -.132E+01   -.106E+00 0.682E-01 0.918E+00
   -.905E+01 0.522E+01 -.811E+03   0.858E+01 -.496E+01 0.810E+03   0.482E+00 -.278E+00 0.610E+00   0.137E-01 -.108E-01 0.668E+00
   -.976E-05 0.862E+00 -.800E+03   0.139E-03 -.198E+01 0.801E+03   0.944E-07 0.142E+01 -.132E+01   0.582E-02 -.126E+00 0.918E+00
   0.905E+01 0.522E+01 -.811E+03   -.858E+01 -.496E+01 0.810E+03   -.482E+00 -.278E+00 0.610E+00   -.219E-01 -.126E-01 0.668E+00
   -.423E+00 -.244E+00 -.827E+03   0.546E+00 0.315E+00 0.826E+03   -.448E-01 -.258E-01 0.602E+00   -.748E-01 -.432E-01 0.594E+00
   0.423E+00 -.244E+00 -.827E+03   -.546E+00 0.315E+00 0.826E+03   0.448E-01 -.258E-01 0.602E+00   0.698E-01 -.469E-01 0.594E+00
   0.102E-04 -.104E+02 -.811E+03   0.198E-03 0.991E+01 0.810E+03   0.370E-07 0.556E+00 0.610E+00   -.308E-02 0.173E-01 0.668E+00
   -.136E-04 -.128E-04 -.239E+04   0.296E-04 0.336E-04 0.239E+04   -.206E-17 -.151E-17 0.614E+00   -.329E-03 -.207E-03 0.444E+00
   0.212E+02 0.349E+02 -.238E+04   -.204E+02 -.337E+02 0.238E+04   -.101E+01 -.160E+01 0.119E+00   0.215E+00 0.262E+00 0.324E+00
   -.212E+02 0.349E+02 -.238E+04   0.204E+02 -.337E+02 0.238E+04   0.101E+01 -.160E+01 0.119E+00   -.214E+00 0.264E+00 0.324E+00
   0.408E+02 0.885E+00 -.238E+04   -.394E+02 -.849E+00 0.238E+04   -.189E+01 -.778E-01 0.119E+00   0.334E+00 0.555E-01 0.324E+00
   -.408E+02 0.885E+00 -.238E+04   0.394E+02 -.849E+00 0.238E+04   0.189E+01 -.778E-01 0.119E+00   -.336E+00 0.562E-01 0.322E+00
   0.196E+02 -.358E+02 -.238E+04   -.190E+02 0.345E+02 0.238E+04   -.877E+00 0.167E+01 0.119E+00   0.121E+00 -.317E+00 0.324E+00
   -.196E+02 -.358E+02 -.238E+04   0.190E+02 0.345E+02 0.238E+04   0.877E+00 0.167E+01 0.119E+00   -.119E+00 -.319E+00 0.322E+00
   0.334E-04 -.290E-04 -.240E+04   0.142E-03 -.492E-04 0.239E+04   0.497E-17 0.618E-17 0.672E+00   -.478E-02 -.246E-02 0.412E+00
   -.642E-05 0.195E-05 -.114E+04   0.625E-04 0.565E-05 0.114E+04   -.202E-17 -.178E-17 -.163E+01   0.123E-02 0.730E-03 0.256E+00
   -.433E-05 -.839E-04 -.793E+03   0.131E-04 0.855E-06 0.776E+03   0.469E-18 -.961E-18 0.167E+02   0.118E-02 0.718E-03 -.262E+00
   0.241E-03 -.924E-04 -.146E+04   0.463E-05 0.479E-06 0.152E+04   0.980E-20 -.138E-18 -.591E+02   0.374E-02 0.229E-02 -.165E+00
   -.550E-03 -.939E-03 0.413E+02   -.330E-13 0.263E-12 -.364E-11   -.774E-15 0.669E-15 -.494E+02   0.346E-02 0.272E-02 0.860E+01

 POSITION                                       TOTAL-FORCE (eV/Angst)
      0.00000      0.00000      5.28038        -0.000000      0.000000     -0.166020
      2.93784      0.00000      5.28038         0.004808      0.005576     -0.083402
      5.87568      0.00000      5.28038        -0.004808      0.005576     -0.083402
      1.46892      2.54424      5.28038         0.007233      0.001376     -0.083402
      4.40676      2.54424      5.28038        -0.000000      0.000000     -0.133706
      7.34459      2.54424      5.28038        -0.007233      0.001376     -0.083402
      2.93784      5.08848      5.28038         0.002424     -0.006952     -0.083402
      5.87568      5.08848      5.28038        -0.002424     -0.006952     -0.083402
      8.81351      5.08848      5.28038        -0.000000      0.000000     -0.105535
      1.46892      0.84808      7.67911        -0.005066     -0.002925      0.134517
      4.40676      0.84808      7.67911        -0.000000     -0.059647      0.037686
      7.34459      0.84808      7.67911         0.005066     -0.002925      0.134517
      2.93784      3.39232      7.67911        -0.051655      0.029823      0.037686
      5.87568      3.39232      7.67911         0.051655      0.029823      0.037686
      8.81351      3.39232      7.67911        -0.000000     -0.063481      0.114998
      4.40676      5.93656      7.67911         0.000000      0.005850      0.134517
      7.34459      5.93656      7.67911        -0.054976      0.031740      0.114998
     10.28243      5.93656      7.67911         0.054976      0.031740      0.114998
      8.81351      1.70181     10.09390        -0.000000     -0.006013      0.048436
      2.93906      1.69686     10.04479        -0.152055     -0.087789     -0.207163
      5.87446      1.69686     10.04479         0.152055     -0.087789     -0.207163
     10.26694      4.24935     10.06849         0.032973     -0.019037      0.009529
      4.40676      4.23900     10.04479         0.000000      0.175578     -0.207163
      7.36009      4.24935     10.06849        -0.032973     -0.019037      0.009529
     11.74646      6.78182     10.09390         0.005208      0.003007      0.048436
      5.88057      6.78182     10.09390        -0.005208      0.003007      0.048436
      8.81351      6.76675     10.06849         0.000000      0.038073      0.009529
      0.00000      0.00000     12.49934        -0.000000      0.000000     -0.059450
      2.98260      0.07565     12.53968        -0.042868     -0.100243     -0.060679
      5.83091      0.07565     12.53968         0.042868     -0.100243     -0.060679
      1.55682      2.54518     12.53968        -0.108247      0.012997     -0.060679
      7.25669      2.54518     12.53968         0.108247      0.012997     -0.060679
      2.98097      5.01189     12.53968        -0.065379      0.087246     -0.060679
      5.83254      5.01189     12.53968         0.065379      0.087246     -0.060679
      8.81351      5.08848     12.49853        -0.000000      0.000000     -0.015891
      4.40676      2.54424     12.23451        -0.000000      0.000000      0.958583
      4.40676      2.54424     14.21743        -0.000000      0.000000     -0.026051
      4.40676      2.54424     15.38510        -0.000000      0.000000     -0.001456
    total drift:                                0.002913      0.001783      0.516278

  FREE ENERGIE OF THE ION-ELECTRON SYSTEM (eV)
  free  energy   TOTEN  =      -132.29787673 eV

  energy  without entropy=     -132.29787673  energy(sigma->0) =     -132.29787673

 stress matrix after NEB project (eV)
    -21.73788     -0.00000      0.00000
     -0.00000    -21.73787      0.00000
     -0.00000      0.00000      3.73385
  FORCES: max atom, RMS     0.026051    0.004233
  FORCE total and by dimension    0.026092    0.026051
  Stress total and by dimension   30.967919   21.737876
|           W    W    AA    RRRRR   N    N  II  N    N   GGGG   !!!           |
|           W    W   A  A   R    R  NN   N  II  NN   N  G    G  !!!           |
|           W    W  A    A  R    R  N N  N  II  N N  N  G       !!!           |
|           W WW W  AAAAAA  RRRRR   N  N N  II  N  N N  G  GGG   !            |
|           WW  WW  A    A  R   R   N   NN  II  N   NN  G    G                |
|           W    W  A    A  R    R  N    N  II  N    N   GGGG   !!!           |
|     Tetrahedron method does not include variations of the Fermi             |
|     occupations, so forces and stress will be inaccurate. We suggest        |
|     using a different smearing scheme ISMEAR = 1 or 2 for metals in         |
|     relaxations.                                                            |

 total charge

# of ion       s       p       d       tot
    1        0.545   0.237   8.769   9.551
    2        0.543   0.240   8.765   9.549
    3        0.543   0.240   8.765   9.549
    4        0.543   0.240   8.765   9.549
    5        0.545   0.241   8.759   9.545
    6        0.543   0.240   8.765   9.549
    7        0.543   0.240   8.765   9.549
    8        0.543   0.240   8.765   9.549
    9        0.542   0.238   8.770   9.550
   10        0.525   0.307   8.766   9.598
   11        0.526   0.306   8.780   9.611
   12        0.525   0.307   8.766   9.598
   13        0.526   0.306   8.780   9.611
   14        0.526   0.306   8.780   9.611
   15        0.515   0.308   8.775   9.598
   16        0.525   0.307   8.766   9.598
   17        0.515   0.308   8.775   9.598
   18        0.515   0.308   8.775   9.598
   19        0.516   0.295   8.773   9.584
   20        0.565   0.333   8.741   9.640
   21        0.565   0.333   8.741   9.640
   22        0.505   0.306   8.778   9.589
   23        0.565   0.333   8.741   9.640
   24        0.505   0.306   8.778   9.589
   25        0.516   0.295   8.773   9.584
   26        0.516   0.295   8.773   9.584
   27        0.505   0.306   8.778   9.589
   28        0.538   0.227   8.760   9.524
   29        0.572   0.245   8.740   9.557
   30        0.572   0.245   8.740   9.557
   31        0.572   0.245   8.740   9.557
   32        0.572   0.245   8.740   9.557
   33        0.572   0.245   8.740   9.557
   34        0.572   0.245   8.740   9.557
   35        0.536   0.227   8.759   9.522
   36        0.416   0.464   4.230   5.110
   37        0.965   1.546   0.000   2.510
   38        1.613   3.531   0.000   5.144
tot         21.847  15.186 310.916 347.949

 BZINTS: Fermi energy:    0.681379;  401.000000 electrons
         Band energy:-0.127183E+04;  BLOECHL correction:   -0.044636