 vasp.6.2.0 18Jan21 (build Jun 12 2021 23:27:24) complex

 executed on             LinuxIFC date 2022.05.27  05:50:15

 INCAR:
   ISMEAR = -5
   SIGMA = 0.1
   ISPIN = 1
   EDIFF = 1.d-5
   EDIFFG = -0.01
   NSW = 0
   NELM = 150
   ENCUT = 500
   ISIF = 2
   IBRION = 2
   LREAL = Auto
   ALGO = Fast
   ICHARG = 11
   LORBIT = 10
   LCHARG = .F.
   LWAVE = .F.

 POTCAR:    PAW_PBE Ag 02Apr2005
 POTCAR:    PAW_PBE W 08Apr2002
 POTCAR:    PAW_PBE H 15Jun2001
|           W    W    AA    RRRRR   N    N  II  N    N   GGGG   !!!           |
|           W    W   A  A   R    R  NN   N  II  NN   N  G    G  !!!           |
|           W    W  A    A  R    R  N N  N  II  N N  N  G       !!!           |
|           W WW W  AAAAAA  RRRRR   N  N N  II  N  N N  G  GGG   !            |
|           WW  WW  A    A  R   R   N   NN  II  N   NN  G    G                |
|           W    W  A    A  R    R  N    N  II  N    N   GGGG   !!!           |
|     For optimal performance we recommend to set                             |
|       NCORE = 2 up to number-of-cores-per-socket                            |
|     This setting can greatly improve the performance of VASP for DFT.       |
|     The default, NCORE=1 might be grossly inefficient on modern             |
|     multi-core architectures or massively parallel machines. Do your        |
|     Unfortunately you need to use the default for GW and RPA                |
|     calculations (for HF NCORE is supported but not extensively tested      |
|     yet).                                                                   |

 POTCAR:    PAW_PBE Ag 02Apr2005
   VRHFIN =Ag : s1 d10

   TITEL  = PAW_PBE Ag 02Apr2005
   POMASS =  107.868; ZVAL   =   11.000    mass and valenz
   ENMAX  =  249.844; ENMIN  =  187.383 eV

 POTCAR:    PAW_PBE W 08Apr2002
   VRHFIN =W : 6s5d

   TITEL  = PAW_PBE W 08Apr2002
   POMASS =  183.850; ZVAL   =    6.000    mass and valenz
   ENMAX  =  223.057; ENMIN  =  167.293 eV

 POTCAR:    PAW_PBE H 15Jun2001
   VRHFIN =H: ultrasoft test

   TITEL  = PAW_PBE H 15Jun2001
   POMASS =    1.000; ZVAL   =    1.000    mass and valenz
   ENMAX  =  250.000; ENMIN  =  200.000 eV

 Optimization of the real space projectors (new method)

 maximal supplied QI-value         = 15.12
 optimisation between [QCUT,QGAM] = [ 11.34, 22.83] = [ 36.00,145.93] Ry
 Optimized for a Real-space Cutoff    1.43 Angstroem

   l    n(q)    QCUT    max X(q) W(low)/X(q) W(high)/X(q)  e(spline)
   2      9    11.338    53.897    0.16E-03    0.20E-03    0.28E-06
   2      9    11.338    52.416    0.16E-03    0.20E-03    0.29E-06
   0     10    11.338   122.045    0.31E-04    0.76E-04    0.15E-06
   0     10    11.338    73.629    0.30E-04    0.72E-04    0.15E-06
   1      9    11.338    15.255    0.20E-03    0.19E-04    0.17E-06
   1      9    11.338     9.562    0.16E-03    0.15E-04    0.14E-06
 Optimization of the real space projectors (new method)

[...]

   l    n(q)    QCUT    max X(q) W(low)/X(q) W(high)/X(q)  e(spline)
   2     10    11.429   130.855    0.22E-03    0.64E-03    0.11E-05
   2     10    11.429   114.007    0.22E-03    0.64E-03    0.11E-05
   0     11    11.429    84.709    0.39E-04    0.67E-04    0.23E-06
   0     11    11.429    49.163    0.35E-04    0.62E-04    0.21E-06
   1     10    11.429    15.765    0.84E-04    0.15E-03    0.24E-06
   1     10    11.429    10.638    0.58E-04    0.12E-03    0.19E-06
 Optimization of the real space projectors (new method)

 maximal supplied QI-value         = 34.20
 optimisation between [QCUT,QGAM] = [ 11.29, 22.57] = [ 35.68,142.71] Ry
 Optimized for a Real-space Cutoff    1.16 Angstroem

   l    n(q)    QCUT    max X(q) W(low)/X(q) W(high)/X(q)  e(spline)
   0      8    11.287    19.460    0.40E-03    0.73E-03    0.16E-06
   0      8    11.287    12.209    0.38E-03    0.70E-03    0.15E-06
   1      7    11.287     4.655    0.22E-03    0.25E-04    0.22E-06
  PAW_PBE Ag 02Apr2005                  :
  PAW_PBE W 08Apr2002                   :
  PAW_PBE H 15Jun2001                   :

 POSCAR: Ag-W-H2
  positions in direct lattice
  velocities in cartesian coordinates
 exchange correlation table for  LEXCH =        8
   RHO(1)=    0.500       N(1)  =     2000
   RHO(2)=  100.500       N(2)  =     4000

 VTST: version 3.2, (02/03/18)

 CHAIN: initializing optimizer

 OPT: Using VASP Conjugate-Gradient optimizer
 CHAIN: Read ICHAIN            0

 POSCAR: Ag-W-H2
  positions in direct lattice
  velocities in cartesian coordinates

 ion  position               nearest neighbor table
   1  0.000  0.000  0.238-   2 2.93   8 2.93   7 2.93   6 2.93   4 2.93  12 2.93  16 2.93  10 2.93
                             3 2.93
   2  0.333  0.000  0.238-   1 2.93   8 2.93   9 2.93   3 2.93   4 2.93   5 2.93  10 2.93  17 2.93
                            11 2.93
   3  0.667  0.000  0.238-   9 2.93   2 2.93   5 2.93  11 2.93   7 2.93  18 2.93   1 2.93   6 2.93
                            12 2.93
   4  0.000  0.333  0.238-   5 2.93   6 2.93   2 2.93   1 2.93   7 2.93  13 2.93  15 2.93   9 2.93
                            10 2.93
   5  0.333  0.333  0.238-   4 2.93   3 2.93   7 2.93   2 2.93   8 2.93  14 2.93  13 2.93  11 2.93
                             6 2.93
   6  0.667  0.333  0.238-   4 2.93   9 2.93   1 2.93  15 2.93   8 2.93  12 2.93   3 2.93   5 2.93
                            14 2.93
   7  0.000  0.667  0.238-   8 2.93   1 2.93   5 2.93   3 2.93   4 2.93  16 2.93  18 2.93  13 2.93
                             9 2.93
   8  0.333  0.667  0.238-   7 2.93   1 2.93   2 2.93   9 2.93   5 2.93  16 2.93   6 2.93  17 2.93
                            14 2.93
   9  0.667  0.667  0.238-   3 2.93   2 2.93   8 2.93   6 2.93  17 2.93   4 2.93  15 2.93   7 2.93
                            18 2.93
  10  0.111  0.111  0.346-  20 2.89  12 2.93  16 2.93  15 2.93  17 2.93  13 2.93  11 2.93   2 2.93
                             1 2.93   4 2.93  19 2.93  26 2.93
  11  0.444  0.111  0.346-  21 2.90  20 2.90  14 2.93  17 2.93  18 2.93   3 2.93  12 2.93  13 2.93
                            10 2.93   5 2.93   2 2.93  27 2.93
  12  0.778  0.111  0.346-  21 2.89  10 2.93  16 2.93  18 2.93  15 2.93  11 2.93   1 2.93  14 2.93
                             6 2.93   3 2.93  25 2.93  19 2.93
  13  0.111  0.444  0.346-  20 2.90  23 2.90  15 2.93  14 2.93  18 2.93  10 2.93  11 2.93  16 2.93
                             4 2.93   5 2.93   7 2.93  22 2.93
  14  0.444  0.444  0.346-  23 2.90  21 2.90  13 2.93  11 2.93  16 2.93   5 2.93  12 2.93  17 2.93
                             8 2.93  15 2.93   6 2.93  24 2.93
  15  0.778  0.444  0.346-  24 2.93  22 2.93  13 2.93  10 2.93  12 2.93  17 2.93  18 2.93   4 2.93
                             6 2.93   9 2.93  14 2.93  19 2.93
  16  0.111  0.778  0.346-  23 2.89  18 2.93  12 2.93  10 2.93  14 2.93  17 2.93  13 2.93   7 2.93
                             8 2.93   1 2.93  26 2.93  25 2.93
  17  0.444  0.778  0.346-  27 2.93  24 2.93  11 2.93  10 2.93   9 2.93  18 2.93  15 2.93  16 2.93
                             2 2.93  14 2.93   8 2.93  26 2.93
  18  0.778  0.778  0.346-  22 2.93  27 2.93  16 2.93  12 2.93  13 2.93  11 2.93  17 2.93  15 2.93
                             7 2.93   3 2.93   9 2.93  25 2.93
  19  0.889  0.223  0.454-  28 2.92  20 2.93  21 2.93  24 2.93  22 2.93  15 2.93  10 2.93  12 2.93
                            26 2.94  25 2.94  32 2.98  31 2.98
  20  0.222  0.222  0.452-  36 2.76  10 2.89  13 2.90  11 2.90  19 2.93  26 2.93  27 2.94  22 2.94
                            21 2.94  23 2.94  31 2.96  29 2.96
  21  0.556  0.222  0.452-  36 2.76  12 2.89  11 2.90  14 2.90  25 2.93  19 2.93  27 2.94  24 2.94
                            20 2.94  23 2.94  30 2.96  32 2.96
  22  0.888  0.556  0.454-  35 2.92  24 2.92  27 2.92  18 2.93  15 2.93  25 2.93  19 2.93  13 2.93
                            23 2.94  20 2.94  33 2.96  31 2.96
  23  0.222  0.556  0.452-  36 2.76  16 2.89  14 2.90  13 2.90  26 2.93  25 2.93  22 2.94  24 2.94
                            21 2.94  20 2.94  34 2.96  33 2.96
  24  0.556  0.556  0.454-  35 2.92  27 2.92  22 2.92  15 2.93  17 2.93  19 2.93  26 2.93  14 2.93
                            23 2.94  21 2.94  32 2.96  34 2.96
  25  0.889  0.889  0.454-  28 2.92  23 2.93  21 2.93  22 2.93  27 2.93  18 2.93  16 2.93  12 2.93
                            26 2.94  19 2.94  33 2.98  30 2.98
  26  0.223  0.889  0.454-  28 2.92  23 2.93  20 2.93  27 2.93  24 2.93  17 2.93  16 2.93  10 2.93
                            25 2.94  19 2.94  34 2.98  29 2.98
  27  0.556  0.888  0.454-  35 2.92  24 2.92  22 2.92  17 2.93  18 2.93  26 2.93  25 2.93  11 2.93
                            20 2.94  21 2.94  29 2.96  30 2.96
  28  0.000  0.000  0.562-  26 2.92  25 2.92  19 2.92  29 2.96  34 2.96  33 2.96  32 2.96  31 2.96
                            30 2.96
  29  0.333  0.007  0.563-  31 2.86  30 2.87  36 2.88  20 2.96  27 2.96  28 2.96  35 2.96  26 2.98
                            34 3.06
  30  0.659  0.007  0.563-  32 2.86  29 2.87  36 2.88  21 2.96  27 2.96  28 2.96  35 2.96  25 2.98
                            33 3.06
  31  0.007  0.333  0.563-  29 2.86  33 2.87  36 2.88  20 2.96  22 2.96  28 2.96  35 2.96  19 2.98
                            32 3.06
  32  0.659  0.333  0.563-  30 2.86  34 2.87  36 2.88  21 2.96  24 2.96  28 2.96  35 2.96  19 2.98
                            31 3.06
  33  0.007  0.659  0.563-  34 2.86  31 2.87  36 2.88  23 2.96  22 2.96  28 2.96  35 2.96  25 2.98
                            30 3.06
  34  0.333  0.659  0.563-  33 2.86  32 2.87  36 2.88  23 2.96  24 2.96  28 2.96  35 2.96  26 2.98
                            29 3.06
  35  0.667  0.667  0.561-  24 2.92  27 2.92  22 2.92  30 2.96  32 2.96  29 2.96  34 2.96  31 2.96
                            33 2.96
  36  0.333  0.333  0.550-  38 1.75  37 1.75  21 2.76  20 2.76  23 2.76  31 2.88  30 2.88  33 2.88
                            29 2.88  34 2.88  32 2.88
  37  0.254  0.273  0.613-  36 1.75
  38  0.473  0.273  0.613-  36 1.75

  LATTYP: Found a hexagonal cell.
 ALAT       =     8.7913665772
 C/A-ratio  =     2.5227160501

  Lattice vectors:

 A1 = (  -4.3956832886,  -7.6135467898,   0.0000000000)
 A2 = (   8.7913665771,   0.0000000000,   0.0000000000)
 A3 = (   0.0000000000,   0.0000000000,  22.1781215668)

Analysis of symmetry for initial positions (statically):
 Subroutine PRICEL returns:
 Original cell was already a primitive cell.

 Routine SETGRP: Setting up the symmetry group for a
 hexagonal supercell.

 Subroutine GETGRP returns: Found  2 space group operations
 (whereof  2 operations were pure point group operations)
 out of a pool of 24 trial point group operations.

The static configuration has the point symmetry C_1h.

Analysis of symmetry for dynamics (positions and initial velocities):
 Subroutine PRICEL returns:
 Original cell was already a primitive cell.

[...]

The dynamic configuration has the point symmetry C_1h.

Analysis of constrained symmetry for selective dynamics:
 Subroutine PRICEL returns:
 Original cell was already a primitive cell.

 Routine SETGRP: Setting up the symmetry group for a
 hexagonal supercell.

 Subroutine GETGRP returns: Found  2 space group operations
[...]
     33      -4.4969      2.00000
     34      -4.4771      2.00000
     35      -4.4553      2.00000
     36      -4.4313      2.00000
     37      -4.4004      2.00000
     38      -4.3743      2.00000
     39      -4.3627      2.00000
     40      -4.3450      2.00000
     41      -4.3449      2.00000
     42      -4.3176      2.00000
     43      -4.2606      2.00000
     44      -4.2303      2.00000
     45      -4.2164      2.00000
     46      -4.1883      2.00000
     47      -4.1816      2.00000
     48      -4.1768      2.00000
     49      -4.1737      2.00000
     50      -4.1731      2.00000
     51      -4.1623      2.00000
     52      -4.1457      2.00000
     53      -4.1328      2.00000
     54      -4.1184      2.00000
     55      -4.0766      2.00000
     56      -4.0694      2.00000
     57      -4.0525      2.00000
     58      -4.0324      2.00000
     59      -4.0245      2.00000
     60      -4.0122      2.00000
[...]
    238       6.8949      0.00000
    239       7.2098      0.00000
    240       7.2292      0.00000
    241       7.2388      0.00000
    242       7.2920      0.00000
    243       7.3031      0.00000
    244       7.3395      0.00000
    245       7.3855      0.00000
    246       7.5628      0.00000
    247       7.5944      0.00000
    248       7.6331      0.00000
    249       7.6729      0.00000
    250       7.8991      0.00000
    251       8.0055      0.00000
    252       8.0415      0.00000

 soft charge-density along one line, spin component           1
         0         1         2         3         4         5         6         7         8         9
 total charge-density along one line

------------------------ aborting loop because EDIFF is reached ----------------------------------------

 total charge

# of ion       s       p       d       tot
    1        0.421   0.200   9.179   9.799
    2        0.417   0.204   9.177   9.797
    3        0.417   0.204   9.177   9.797
    4        0.418   0.203   9.177   9.798
    5        0.419   0.202   9.176   9.796
    6        0.418   0.203   9.177   9.798
    7        0.414   0.204   9.177   9.795
    8        0.414   0.204   9.177   9.795
    9        0.414   0.203   9.178   9.795
   10        0.410   0.269   9.162   9.841
   11        0.408   0.268   9.169   9.845
   12        0.410   0.269   9.162   9.841
   13        0.408   0.268   9.168   9.844
   14        0.408   0.268   9.168   9.844
   15        0.402   0.268   9.166   9.837
   16        0.410   0.269   9.162   9.840
   17        0.402   0.269   9.165   9.836
   18        0.402   0.269   9.165   9.836
   19        0.395   0.267   9.166   9.827
   20        0.442   0.312   9.131   9.885
   21        0.442   0.312   9.131   9.885
   22        0.392   0.274   9.165   9.831
   23        0.450   0.303   9.134   9.887
   24        0.392   0.274   9.165   9.831
   25        0.401   0.262   9.168   9.831
   26        0.401   0.262   9.168   9.831
   27        0.391   0.273   9.167   9.831
   28        0.416   0.193   9.179   9.788
   29        0.422   0.225   9.164   9.811
   30        0.422   0.225   9.164   9.811
   31        0.415   0.237   9.157   9.809
   32        0.415   0.237   9.157   9.809
   33        0.438   0.222   9.151   9.811
   34        0.438   0.222   9.151   9.811
   35        0.403   0.199   9.179   9.781
   36        0.595   0.494   4.003   5.093
   37        0.515   0.015   0.000   0.530
   38        0.515   0.015   0.000   0.530
tot         16.108   9.065 324.786 349.958

  FORCE on cell =-STRESS in cart. coord.  units (eV):
  Direction    XX          YY          ZZ          XY          YZ          ZX
  Alpha Z   749.94505   749.94505   749.94505
  Ewald  119187.97178119175.65223************    -0.00000     2.83707    -0.00000
  Hartree129214.65264129214.15282************    -0.00000     8.11562    -0.00000
  E(xc)   -2060.56198 -2060.53277 -2067.24185    -0.00002     0.39259     0.00000
  Local  ************************259681.93988     0.00030   -11.23838    -0.00003
  n-local  -332.28711  -333.49660  -337.38154     2.49397     0.39151     0.08372
  augment  3224.06111  3224.23910  3237.04766    -0.00009    -0.36080     0.00005
  Kinetic  4854.99588  4857.44171  4890.98904     1.43543    -0.34805     0.02275
  Fock        0.00000     0.00000     0.00000     0.00000     0.00000     0.00000
  Total      -8.76119    -8.45972     0.23400    -0.00000    -0.21043    -0.00000
  in kB      -9.45595    -9.13058     0.25255    -0.00000    -0.22712    -0.00000

 VOLUME and BASIS-vectors are now :
  energy-cutoff  :      500.00
  volume of cell :     1484.46
      direct lattice vectors                 reciprocal lattice vectors
     8.791366577  0.000000000  0.000000000     0.113747958 -0.065672414  0.000000000
     4.395683289  7.613546790  0.000000000     0.000000000  0.131344829  0.000000000
     0.000000000  0.000000000 22.178121567     0.000000000  0.000000000  0.045089481

  length of vectors
     8.791366577  8.791366577 22.178121567     0.131344829  0.131344829  0.045089481

 FORCES acting on ions
    electron-ion (+dipol)            ewald-force                    non-local-force                 convergence-correction
   0.461E-04 0.826E-01 0.248E+04   -.953E-04 -.250E-01 -.248E+04   0.406E-12 0.618E-01 -.210E+01   -.203E-03 -.121E+00 -.798E-01
   -.661E-01 0.266E+00 0.248E+04   -.203E+00 -.291E+00 -.248E+04   0.157E+00 0.139E+00 -.156E+01   0.961E-01 -.107E+00 -.443E-01
   0.662E-01 0.266E+00 0.248E+04   0.203E+00 -.291E+00 -.248E+04   -.157E+00 0.139E+00 -.156E+01   -.965E-01 -.105E+00 -.434E-01
   0.320E+00 -.101E+00 0.248E+04   -.332E+00 -.108E-01 -.248E+04   0.562E-01 -.208E-02 -.157E+01   -.228E-01 0.113E+00 -.392E-02
   -.779E-05 -.241E+00 0.248E+04   0.980E-04 0.326E-01 -.248E+04   0.917E-13 0.140E-01 -.123E+01   0.626E-02 0.192E+00 0.130E-01
   -.320E+00 -.101E+00 0.248E+04   0.332E+00 -.109E-01 -.248E+04   -.562E-01 -.208E-02 -.157E+01   0.214E-01 0.113E+00 -.305E-02
   -.214E+00 -.789E-01 0.248E+04   -.129E+00 0.302E+00 -.248E+04   0.187E+00 -.167E+00 -.150E+01   0.148E+00 -.584E-01 -.846E-01
   0.214E+00 -.789E-01 0.248E+04   0.129E+00 0.302E+00 -.248E+04   -.187E+00 -.167E+00 -.150E+01   -.146E+00 -.595E-01 -.846E-01
   0.362E-04 -.328E-01 0.248E+04   0.792E-04 -.671E-02 -.248E+04   0.249E-13 0.379E-02 -.188E+01   -.658E-02 0.322E-01 -.591E-01
   0.391E+01 0.231E+01 0.810E+03   -.348E+01 -.204E+01 -.810E+03   -.488E+00 -.259E+00 -.928E+00   0.335E-01 -.284E-01 0.206E+00
   -.281E-04 0.231E+01 0.811E+03   0.403E-04 -.274E+01 -.811E+03   0.196E-11 0.298E+00 -.259E+00   0.687E-02 0.552E-01 0.238E+00
   -.391E+01 0.231E+01 0.810E+03   0.348E+01 -.204E+01 -.810E+03   0.488E+00 -.259E+00 -.928E+00   -.356E-01 -.276E-01 0.207E+00
   0.217E+01 -.140E+01 0.811E+03   -.233E+01 0.158E+01 -.811E+03   0.625E-01 -.199E+00 -.317E+00   0.581E-01 0.629E-01 0.189E+00
   -.217E+01 -.140E+01 0.811E+03   0.233E+01 0.158E+01 -.811E+03   -.625E-01 -.199E+00 -.317E+00   -.476E-01 0.614E-01 0.187E+00
   0.157E-04 0.632E+00 0.809E+03   -.108E-03 -.802E+00 -.809E+03   0.316E-12 0.482E-01 -.743E+00   -.173E-02 0.923E-01 0.184E+00
   -.818E-05 -.438E+01 0.810E+03   0.205E-04 0.381E+01 -.809E+03   0.437E-11 0.666E+00 -.628E+00   -.373E-03 -.898E-01 0.202E+00
   0.798E+00 -.173E+00 0.809E+03   -.879E+00 0.325E+00 -.809E+03   0.885E-01 -.676E-01 -.754E+00   -.164E-01 -.652E-01 0.164E+00
   -.798E+00 -.173E+00 0.809E+03   0.879E+00 0.325E+00 -.809E+03   -.885E-01 -.676E-01 -.754E+00   0.170E-01 -.628E-01 0.166E+00
   0.390E-04 -.326E+01 -.884E+03   -.126E-03 0.321E+01 0.883E+03   0.260E-12 0.395E-01 0.883E+00   -.649E-02 0.212E-01 0.589E+00
   -.134E+02 -.863E+01 -.874E+03   0.145E+02 0.919E+01 0.875E+03   -.139E+01 -.764E+00 -.143E+01   0.243E+00 0.125E+00 0.770E+00
   0.134E+02 -.863E+01 -.874E+03   -.145E+02 0.919E+01 0.875E+03   0.139E+01 -.764E+00 -.143E+01   -.241E+00 0.123E+00 0.770E+00
   -.104E+02 0.519E+01 -.879E+03   0.100E+02 -.500E+01 0.878E+03   0.260E+00 -.196E+00 0.509E+00   0.140E+00 -.263E-01 0.476E+00
   -.506E-04 0.151E+02 -.878E+03   0.385E-04 -.161E+02 0.879E+03   0.979E-11 0.149E+01 -.154E+01   -.658E-03 -.195E+00 0.734E+00
   0.104E+02 0.519E+01 -.879E+03   -.100E+02 -.500E+01 0.878E+03   -.260E+00 -.196E+00 0.509E+00   -.128E+00 -.291E-01 0.476E+00
   0.215E+01 0.280E+01 -.885E+03   -.211E+01 -.277E+01 0.884E+03   -.751E-01 0.456E-01 0.874E+00   -.177E-02 -.624E-01 0.509E+00
   -.215E+01 0.280E+01 -.885E+03   0.211E+01 -.277E+01 0.884E+03   0.751E-01 0.456E-01 0.874E+00   -.109E-01 -.628E-01 0.509E+00
   0.196E-04 -.105E+02 -.878E+03   0.109E-03 0.991E+01 0.877E+03   0.365E-11 0.555E+00 0.590E+00   0.732E-02 0.118E+00 0.479E+00
   0.530E-04 0.357E+01 -.248E+04   -.113E-03 -.372E+01 0.248E+04   0.316E-12 0.481E-01 0.181E+01   -.438E-03 0.398E-01 0.268E+00
   -.401E+01 -.272E+01 -.249E+04   0.508E+01 0.323E+01 0.249E+04   -.139E+01 -.105E+01 0.195E+01   0.239E+00 0.355E+00 0.293E+00
   0.401E+01 -.272E+01 -.249E+04   -.508E+01 0.323E+01 0.249E+04   0.139E+01 -.105E+01 0.195E+01   -.239E+00 0.356E+00 0.292E+00
   -.701E+01 -.557E+01 -.249E+04   0.805E+01 0.610E+01 0.249E+04   -.148E+01 -.491E+00 0.211E+01   0.332E+00 0.312E-01 0.333E+00
   0.701E+01 -.557E+01 -.249E+04   -.805E+01 0.610E+01 0.249E+04   0.148E+01 -.491E+00 0.211E+01   -.343E+00 0.305E-01 0.333E+00
   -.130E+02 0.155E+02 -.250E+04   0.136E+02 -.169E+02 0.250E+04   -.970E+00 0.191E+01 0.125E+01   0.273E+00 -.380E+00 0.333E+00
   0.130E+02 0.155E+02 -.250E+04   -.136E+02 -.169E+02 0.250E+04   0.970E+00 0.191E+01 0.125E+01   -.283E+00 -.381E+00 0.334E+00
   0.259E-04 0.469E+00 -.249E+04   0.104E-03 -.618E+00 0.248E+04   0.131E-11 0.199E+00 0.203E+01   -.476E-02 -.378E-01 0.341E+00
   -.260E-04 -.153E+02 -.126E+04   0.578E-04 0.140E+02 0.126E+04   0.841E-11 0.128E+01 -.191E+01   0.112E-02 0.254E-01 0.284E+00
   -.403E+01 -.334E+01 -.274E+03   0.316E+01 0.285E+01 0.275E+03   0.797E+00 0.441E+00 -.174E+01   0.582E-01 0.328E-01 -.555E-01
   0.403E+01 -.334E+01 -.274E+03   -.316E+01 0.285E+01 0.275E+03   -.797E+00 0.441E+00 -.174E+01   -.580E-01 0.329E-01 -.557E-01
   0.310E-03 -.351E+01 0.193E+01   -.204E-13 0.141E-12 -.273E-11   0.223E-10 0.339E+01 -.112E+02   -.111E-01 0.114E+00 0.936E+01

 POSITION                                       TOTAL-FORCE (eV/Angst)
      0.00000      0.00000      5.28219        -0.000000     -0.001687     -0.051329
      2.93046      0.00000      5.28219        -0.015966      0.008033      0.030473
      5.86091      0.00000      5.28219         0.015966      0.008033      0.030473
      1.46523      2.53785      5.28219         0.021591     -0.000379      0.015676
      4.39568      2.53785      5.28219        -0.000000     -0.002300     -0.013307
      7.32614      2.53785      5.28219        -0.021591     -0.000379      0.015676
      2.93046      5.07570      5.28219        -0.007792     -0.002354      0.032787
      5.86091      5.07570      5.28219         0.007792     -0.002354      0.032787
      8.79137      5.07570      5.28219        -0.000000     -0.003413      0.009145
      1.46523      0.84595      7.67490        -0.019652     -0.013129     -0.019668
      4.39568      0.84595      7.67490        -0.000000     -0.077702     -0.078580
      7.32614      0.84595      7.67490         0.019652     -0.013129     -0.019668
      2.93046      3.38380      7.67490        -0.046717      0.045221     -0.062830
      5.86091      3.38380      7.67490         0.046717      0.045221     -0.062830
      8.79137      3.38380      7.67490        -0.000000     -0.029901      0.026328
      4.39568      5.92165      7.67490         0.000000      0.007848     -0.010181
      7.32614      5.92165      7.67490        -0.009543      0.020421      0.047160
     10.25659      5.92165      7.67490         0.009543      0.020421      0.047160
      8.79137      1.69504     10.07204         0.000000      0.012850      0.075909
      2.92602      1.68934     10.02478        -0.068846     -0.077462     -0.124916
      5.86534      1.68934     10.02478         0.068846     -0.077462     -0.124916
     10.25093      4.23302     10.06482         0.048229     -0.030895      0.028118
      4.39568      4.23487     10.02478         0.000000      0.210043     -0.231550
      7.33181      4.23302     10.06482        -0.048229     -0.030895      0.028118
     11.71910      6.76603     10.07204        -0.023262      0.006534      0.022301
      5.86363      6.76603     10.07204         0.023262      0.006534      0.022301
      8.79137      6.76105     10.06482         0.000000      0.039863      0.032649
      0.00000      0.00000     12.45341        -0.000000     -0.069459     -0.025833
      2.96185      0.05622     12.48740        -0.088465     -0.180589     -0.070212
      5.82952      0.05622     12.48740         0.088465     -0.180589     -0.070212
      1.52961      2.53693     12.48740        -0.113477      0.075095     -0.054799
      7.26176      2.53693     12.48740         0.113477      0.075095     -0.054799
      2.96344      5.02040     12.48740        -0.007103      0.102359     -0.122214
      5.82792      5.02040     12.48740         0.007103      0.102359     -0.122214
      8.79137      5.07570     12.44798         0.000000      0.013095      0.019437
      4.39568      2.53785     12.20252         0.000000      0.022798      0.766661
      3.43495      2.08059     13.59804        -0.009829     -0.013873      0.018452
      5.35642      2.08059     13.59804         0.009829     -0.013873      0.018452
    total drift:                               -0.010778     -0.006154      0.106261

  FREE ENERGIE OF THE ION-ELECTRON SYSTEM (eV)
  free  energy   TOTEN  =      -105.60925038 eV

  energy  without entropy=     -105.60925038  energy(sigma->0) =     -105.60925038

 stress matrix after NEB project (eV)
     -8.76119     -0.00000     -0.00000
     -0.00000     -8.45972     -0.21043
     -0.00000     -0.21043      0.23400
  FORCES: max atom, RMS     0.025091    0.005756
  FORCE total and by dimension    0.035484    0.018452
  Stress total and by dimension   12.184768    8.761186
|           W    W    AA    RRRRR   N    N  II  N    N   GGGG   !!!           |
|           W    W   A  A   R    R  NN   N  II  NN   N  G    G  !!!           |
|           W    W  A    A  R    R  N N  N  II  N N  N  G       !!!           |
|           W WW W  AAAAAA  RRRRR   N  N N  II  N  N N  G  GGG   !            |
|           WW  WW  A    A  R   R   N   NN  II  N   NN  G    G                |
|           W    W  A    A  R    R  N    N  II  N    N   GGGG   !!!           |
|     Tetrahedron method does not include variations of the Fermi             |
|     occupations, so forces and stress will be inaccurate. We suggest        |
|     using a different smearing scheme ISMEAR = 1 or 2 for metals in         |
|     relaxations.                                                            |

 total charge

# of ion       s       p       d       tot
    1        0.421   0.200   9.179   9.799
    2        0.417   0.204   9.177   9.797
    3        0.417   0.204   9.177   9.797
    4        0.418   0.203   9.177   9.798
    5        0.419   0.202   9.176   9.796
    6        0.418   0.203   9.177   9.798
    7        0.414   0.204   9.177   9.795
    8        0.414   0.204   9.177   9.795
    9        0.414   0.203   9.178   9.795
   10        0.410   0.269   9.162   9.841
   11        0.408   0.268   9.169   9.845
   12        0.410   0.269   9.162   9.841
   13        0.408   0.268   9.168   9.844
   14        0.408   0.268   9.168   9.844
   15        0.402   0.268   9.166   9.837
   16        0.410   0.269   9.162   9.840
   17        0.402   0.269   9.165   9.836
   18        0.402   0.269   9.165   9.836
   19        0.395   0.267   9.166   9.827
   20        0.442   0.312   9.131   9.885
   21        0.442   0.312   9.131   9.885
   22        0.392   0.274   9.165   9.831
   23        0.450   0.303   9.134   9.887
   24        0.392   0.274   9.165   9.831
   25        0.401   0.262   9.168   9.831
   26        0.401   0.262   9.168   9.831
   27        0.391   0.273   9.167   9.831
   28        0.416   0.193   9.179   9.788
   29        0.422   0.225   9.164   9.811
   30        0.422   0.225   9.164   9.811
   31        0.415   0.237   9.157   9.809
   32        0.415   0.237   9.157   9.809
   33        0.438   0.222   9.151   9.811
   34        0.438   0.222   9.151   9.811
   35        0.403   0.199   9.179   9.781
   36        0.595   0.494   4.003   5.093
   37        0.515   0.015   0.000   0.530
   38        0.515   0.015   0.000   0.530
tot         16.108   9.065 324.786 349.958

 BZINTS: Fermi energy:    0.802690;  393.000000 electrons
         Band energy:-0.128557E+04;  BLOECHL correction:   -0.016416