 vasp.6.2.0 18Jan21 (build Jun 12 2021 23:27:24) complex

 executed on             LinuxIFC date 2022.05.30  15:49:27

 INCAR:
   ISMEAR = -5
   SIGMA = 0.1
   ISPIN = 1
   EDIFF = 1.d-5
   EDIFFG = -0.01
   NSW = 0
   NELM = 150
   ENCUT = 500
   ISIF = 2
   IBRION = 2
   LREAL = Auto
   ALGO = Fast
   ICHARG = 11
   LORBIT = 10
   LCHARG = .F.
   LWAVE = .F.

 POTCAR:    PAW_PBE Au 04Oct2007
 POTCAR:    PAW_PBE Cr 06Sep2000
 POTCAR:    PAW_PBE C 08Apr2002
|           W    W    AA    RRRRR   N    N  II  N    N   GGGG   !!!           |
|           W    W   A  A   R    R  NN   N  II  NN   N  G    G  !!!           |
|           W    W  A    A  R    R  N N  N  II  N N  N  G       !!!           |
|           W WW W  AAAAAA  RRRRR   N  N N  II  N  N N  G  GGG   !            |
|           WW  WW  A    A  R   R   N   NN  II  N   NN  G    G                |
|           W    W  A    A  R    R  N    N  II  N    N   GGGG   !!!           |
|     For optimal performance we recommend to set                             |
|       NCORE = 2 up to number-of-cores-per-socket                            |
|     This setting can greatly improve the performance of VASP for DFT.       |
|     The default, NCORE=1 might be grossly inefficient on modern             |
|     multi-core architectures or massively parallel machines. Do your        |
|     Unfortunately you need to use the default for GW and RPA                |
|     calculations (for HF NCORE is supported but not extensively tested      |
|     yet).                                                                   |

 POTCAR:    PAW_PBE Au 04Oct2007
   VRHFIN =Au: s1d10

   TITEL  = PAW_PBE Au 04Oct2007
   POMASS =  196.966; ZVAL   =   11.000    mass and valenz
   ENMAX  =  229.943; ENMIN  =  172.457 eV

 POTCAR:    PAW_PBE Cr 06Sep2000
   VRHFIN =Cr : d5 s1

   TITEL  = PAW_PBE Cr 06Sep2000
   POMASS =   51.996; ZVAL   =    6.000    mass and valenz
   ENMAX  =  227.080; ENMIN  =  170.310 eV

 POTCAR:    PAW_PBE C 08Apr2002
   VRHFIN =C: s2p2

   TITEL  = PAW_PBE C 08Apr2002
   POMASS =   12.011; ZVAL   =    4.000    mass and valenz
   ENMAX  =  400.000; ENMIN  =  300.000 eV

 Optimization of the real space projectors (new method)

 maximal supplied QI-value         = 15.12
 optimisation between [QCUT,QGAM] = [ 11.34, 22.83] = [ 36.00,145.93] Ry
 Optimized for a Real-space Cutoff    1.39 Angstroem

   l    n(q)    QCUT    max X(q) W(low)/X(q) W(high)/X(q)  e(spline)
   2      9    11.338    60.898    0.39E-03    0.42E-03    0.21E-06
   2      9    11.338    58.894    0.40E-03    0.42E-03    0.22E-06
   0      9    11.338   109.617    0.13E-03    0.20E-04    0.13E-06
   0      9    11.338    75.026    0.13E-03    0.20E-04    0.13E-06
   1      9    11.338    16.344    0.33E-04    0.24E-03    0.18E-06
   1      9    11.338    10.160    0.26E-04    0.19E-03    0.15E-06
 Optimization of the real space projectors (new method)

[...]

   l    n(q)    QCUT    max X(q) W(low)/X(q) W(high)/X(q)  e(spline)
   2      9    11.338    94.395    0.18E-03    0.10E-02    0.64E-06
   2      9    11.338    88.078    0.18E-03    0.10E-02    0.65E-06
   0     10    11.338    50.173    0.13E-03    0.16E-03    0.96E-07
   0     10    11.338    24.906    0.12E-03    0.14E-03    0.88E-07
   1      9    11.338    12.133    0.13E-03    0.15E-03    0.24E-06
   1      9    11.338     7.290    0.10E-03    0.10E-03    0.18E-06
 Optimization of the real space projectors (new method)

 maximal supplied QI-value         = 25.13
 optimisation between [QCUT,QGAM] = [ 11.31, 22.87] = [ 35.82,146.48] Ry
 Optimized for a Real-space Cutoff    1.00 Angstroem

   l    n(q)    QCUT    max X(q) W(low)/X(q) W(high)/X(q)  e(spline)
   0      7    11.310   115.676    0.43E-03    0.13E-02    0.19E-06
   0      7    11.310    87.132    0.43E-03    0.13E-02    0.18E-06
   1      6    11.310     4.429    0.42E-03    0.74E-03    0.11E-06
   1      6    11.310     2.733    0.34E-03    0.55E-03    0.92E-07
  PAW_PBE Au 04Oct2007                  :
  PAW_PBE Cr 06Sep2000                  :
  PAW_PBE C 08Apr2002                   :

 POSCAR: Au-Cr-C
  positions in direct lattice
  velocities in cartesian coordinates
 exchange correlation table for  LEXCH =        8
   RHO(1)=    0.500       N(1)  =     2000
   RHO(2)=  100.500       N(2)  =     4000

 VTST: version 3.2, (02/03/18)

 CHAIN: initializing optimizer

 OPT: Using VASP Conjugate-Gradient optimizer
 CHAIN: Read ICHAIN            0

 POSCAR: Au-Cr-C
  positions in direct lattice
  velocities in cartesian coordinates

 ion  position               nearest neighbor table
   1  0.000  0.000  0.217-  16 2.94  12 2.94   6 2.94   8 2.94   7 2.94   3 2.94  10 2.94   4 2.94
                             2 2.94
   2  0.333  0.000  0.217-   9 2.94  11 2.94  17 2.94  10 2.94   8 2.94   4 2.94   5 2.94   1 2.94
                             3 2.94
   3  0.667  0.000  0.217-   7 2.94  18 2.94  12 2.94   1 2.94  11 2.94   5 2.94   6 2.94   9 2.94
                             2 2.94
   4  0.000  0.333  0.217-  10 2.94   6 2.94   5 2.94  13 2.94   2 2.94  15 2.94   9 2.94   1 2.94
                             7 2.94
   5  0.333  0.333  0.217-  13 2.94   7 2.94  11 2.94   4 2.94   2 2.94  14 2.94   3 2.94   8 2.94
                             6 2.94
   6  0.667  0.333  0.217-  15 2.94  14 2.94   1 2.94  12 2.94   4 2.94   9 2.94   8 2.94   3 2.94
                             5 2.94
   7  0.000  0.667  0.217-  18 2.94   3 2.94  16 2.94   5 2.94   1 2.94  13 2.94   8 2.94   4 2.94
                             9 2.94
   8  0.333  0.667  0.217-   9 2.94  17 2.94   1 2.94   2 2.94  14 2.94  16 2.94   6 2.94   7 2.94
                             5 2.94
   9  0.667  0.667  0.217-   2 2.94   8 2.94  17 2.94   6 2.94  15 2.94   4 2.94   3 2.94  18 2.94
                             7 2.94
  10  0.111  0.111  0.316-  20 2.92  26 2.94  19 2.94  11 2.94  17 2.94   2 2.94   4 2.94   1 2.94
                            12 2.94  16 2.94  13 2.94  15 2.94
  11  0.444  0.111  0.316-  20 2.91  21 2.91  27 2.93  13 2.94   2 2.94  10 2.94  17 2.94   5 2.94
                             3 2.94  18 2.94  14 2.94  12 2.94
  12  0.778  0.111  0.316-  21 2.92  25 2.94  19 2.94  16 2.94  18 2.94   1 2.94  14 2.94  15 2.94
                             3 2.94   6 2.94  10 2.94  11 2.94
  13  0.111  0.444  0.316-  23 2.91  20 2.91  22 2.93   5 2.94  18 2.94  11 2.94   7 2.94   4 2.94
                            16 2.94  10 2.94  14 2.94  15 2.94
  14  0.444  0.444  0.316-  21 2.91  23 2.91  24 2.93  15 2.94   6 2.94  12 2.94   8 2.94  17 2.94
                             5 2.94  16 2.94  13 2.94  11 2.94
  15  0.778  0.444  0.316-  24 2.92  22 2.92  19 2.94  14 2.94   6 2.94  17 2.94  12 2.94   9 2.94
                             4 2.94  10 2.94  13 2.94  18 2.94
  16  0.111  0.778  0.316-  23 2.92  25 2.94  26 2.94  18 2.94  12 2.94   7 2.94   1 2.94   8 2.94
                            13 2.94  10 2.94  14 2.94  17 2.94
  17  0.444  0.778  0.316-  27 2.92  24 2.92  26 2.94   9 2.94  15 2.94   2 2.94  10 2.94  11 2.94
                             8 2.94  14 2.94  16 2.94  18 2.94
  18  0.778  0.778  0.316-  22 2.92  27 2.92  25 2.94  16 2.94   7 2.94  13 2.94  12 2.94   3 2.94
                            11 2.94   9 2.94  15 2.94  17 2.94
  19  0.889  0.222  0.414-  10 2.94  12 2.94  15 2.94  26 2.94  25 2.94  24 2.94  22 2.94  28 2.95
                            21 2.95  20 2.95  32 3.00  31 3.00
  20  0.223  0.223  0.413-  36 2.71  11 2.91  13 2.91  23 2.91  21 2.91  29 2.92  31 2.92  10 2.92
                            26 2.95  19 2.95  27 2.96  22 2.96
  21  0.553  0.223  0.413-  36 2.71  14 2.91  11 2.91  20 2.91  23 2.91  30 2.92  32 2.92  12 2.92
                            25 2.95  19 2.95  27 2.96  24 2.96
  22  0.886  0.557  0.414-  24 2.90  27 2.90  18 2.92  15 2.92  13 2.93  25 2.94  19 2.94  23 2.96
                            20 2.96  35 2.96  33 2.96  31 2.96
  23  0.223  0.553  0.413-  36 2.71  13 2.91  14 2.91  20 2.91  21 2.91  33 2.92  34 2.92  16 2.92
                            25 2.95  26 2.95  22 2.96  24 2.96
  24  0.557  0.557  0.414-  27 2.90  22 2.90  15 2.92  17 2.92  14 2.93  26 2.94  19 2.94  21 2.96
                            23 2.96  35 2.96  32 2.96  34 2.96
  25  0.889  0.889  0.414-  16 2.94  12 2.94  18 2.94  19 2.94  26 2.94  22 2.94  27 2.94  28 2.95
                            23 2.95  21 2.95  33 3.00  30 3.00
  26  0.222  0.889  0.414-  10 2.94  16 2.94  17 2.94  19 2.94  25 2.94  27 2.94  24 2.94  28 2.95
                            20 2.95  23 2.95  29 3.00  34 3.00
  27  0.557  0.886  0.414-  24 2.90  22 2.90  17 2.92  18 2.92  11 2.93  26 2.94  25 2.94  20 2.96
                            21 2.96  35 2.96  29 2.96  30 2.96
  28  0.000  0.000  0.514-  25 2.95  19 2.95  26 2.95  34 2.99  32 2.99  33 2.99  30 2.99  31 2.99
                            29 2.99
  29  0.334  0.011  0.513-  30 2.84  31 2.84  36 2.86  20 2.92  27 2.96  35 2.99  28 2.99  26 3.00
                            34 3.13
  30  0.655  0.011  0.513-  29 2.84  32 2.84  36 2.86  21 2.92  27 2.96  35 2.99  28 2.99  25 3.00
                            33 3.13
  31  0.011  0.334  0.513-  33 2.84  29 2.84  36 2.86  20 2.92  22 2.96  35 2.99  28 2.99  19 3.00
                            32 3.13
  32  0.655  0.334  0.513-  34 2.84  30 2.84  36 2.86  21 2.92  24 2.96  35 2.99  28 2.99  19 3.00
                            31 3.13
  33  0.011  0.655  0.513-  31 2.84  34 2.84  36 2.86  23 2.92  22 2.96  35 2.99  28 2.99  25 3.00
                            30 3.13
  34  0.334  0.655  0.513-  32 2.84  33 2.84  36 2.86  23 2.92  24 2.96  35 2.99  28 2.99  26 3.00
                            29 3.13
  35  0.667  0.667  0.514-  24 2.96  27 2.96  22 2.96  29 2.99  34 2.99  32 2.99  31 2.99  30 2.99
                            33 2.99
  36  0.333  0.333  0.501-  37 1.65  20 2.71  23 2.71  21 2.71  33 2.86  31 2.86  29 2.86  30 2.86
                            34 2.86  32 2.86
  37  0.333  0.333  0.569-  36 1.65

  LATTYP: Found a hexagonal cell.
 ALAT       =     8.8135128021
 C/A-ratio  =     2.7586513333

  Lattice vectors:

 A1 = (  -4.4067569092,  -7.6327256898,   0.0000000000)
 A2 = (   8.8135128021,   0.0000000000,   0.0000000000)
 A3 = (   0.0000000000,   0.0000000000,  24.3134088421)

Analysis of symmetry for initial positions (statically):
 Subroutine PRICEL returns:
 Original cell was already a primitive cell.

 Routine SETGRP: Setting up the symmetry group for a
 hexagonal supercell.

 Subroutine GETGRP returns: Found  6 space group operations
 (whereof  6 operations were pure point group operations)
 out of a pool of 24 trial point group operations.

The static configuration has the point symmetry C_3v.

Analysis of symmetry for dynamics (positions and initial velocities):
 Subroutine PRICEL returns:
 Original cell was already a primitive cell.

[...]

The dynamic configuration has the point symmetry C_3v.

Analysis of constrained symmetry for selective dynamics:
 Subroutine PRICEL returns:
 Original cell was already a primitive cell.

 Routine SETGRP: Setting up the symmetry group for a
 hexagonal supercell.

 Subroutine GETGRP returns: Found  6 space group operations
[...]
     24      -5.6640      2.00000
     25      -5.6313      2.00000
     26      -5.6064      2.00000
     27      -5.5761      2.00000
     28      -5.5011      2.00000
     29      -5.4719      2.00000
     30      -5.3611      2.00000
     31      -5.3533      2.00000
     32      -5.3328      2.00000
     33      -5.3215      2.00000
     34      -5.3091      2.00000
     35      -5.2661      2.00000
     36      -5.1752      2.00000
     37      -5.1653      2.00000
     38      -5.1176      2.00000
     39      -5.1113      2.00000
     40      -5.0506      2.00000
     41      -4.9884      2.00000
     42      -4.9588      2.00000
     43      -4.9102      2.00000
     44      -4.8887      2.00000
     45      -4.8805      2.00000
     46      -4.8564      2.00000
     47      -4.7629      2.00000
     48      -4.7416      2.00000
     49      -4.7172      2.00000
     50      -4.6886      2.00000
     51      -4.6857      2.00000
     52      -4.6818      2.00000
     53      -4.6562      2.00000
     54      -4.6354      2.00000
     55      -4.5913      2.00000
     56      -4.5673      2.00000
     57      -4.5476      2.00000
     58      -4.5404      2.00000
     59      -4.5188      2.00000
     60      -4.5097      2.00000
[...]
    238       5.9646      0.00000
    239       5.9936      0.00000
    240       6.0121      0.00000
    241       6.1735      0.00000
    242       6.2124      0.00000
    243       6.2822      0.00000
    244       6.2891      0.00000
    245       6.3829      0.00000
    246       6.6482      0.00000
    247       6.6866      0.00000
    248       6.7837      0.00000
    249       6.8526      0.00000
    250       6.9053      0.00000
    251       6.9685      0.00000
    252       7.0622      0.00000

 soft charge-density along one line, spin component           1
         0         1         2         3         4         5         6         7         8         9
 total charge-density along one line

------------------------ aborting loop because EDIFF is reached ----------------------------------------

 total charge

# of ion       s       p       d       tot
    1        0.544   0.241   8.764   9.548
    2        0.545   0.241   8.764   9.550
    3        0.545   0.241   8.764   9.550
    4        0.545   0.241   8.764   9.550
    5        0.542   0.241   8.764   9.547
    6        0.545   0.241   8.764   9.550
    7        0.545   0.241   8.764   9.550
    8        0.545   0.241   8.764   9.550
    9        0.542   0.241   8.767   9.550
   10        0.519   0.309   8.771   9.599
   11        0.522   0.309   8.777   9.607
   12        0.519   0.309   8.771   9.599
   13        0.522   0.309   8.777   9.607
   14        0.522   0.309   8.777   9.607
   15        0.516   0.311   8.773   9.601
   16        0.519   0.309   8.771   9.599
   17        0.516   0.311   8.773   9.601
   18        0.516   0.311   8.773   9.601
   19        0.516   0.298   8.776   9.591
   20        0.545   0.332   8.753   9.630
   21        0.545   0.332   8.753   9.630
   22        0.510   0.312   8.775   9.597
   23        0.545   0.332   8.753   9.630
   24        0.510   0.312   8.775   9.597
   25        0.516   0.298   8.776   9.591
   26        0.516   0.298   8.776   9.591
   27        0.510   0.312   8.775   9.597
   28        0.541   0.222   8.764   9.527
   29        0.554   0.240   8.755   9.549
   30        0.554   0.240   8.755   9.549
   31        0.554   0.240   8.755   9.549
   32        0.554   0.240   8.755   9.549
   33        0.554   0.240   8.755   9.549
   34        0.554   0.240   8.755   9.549
   35        0.541   0.223   8.761   9.525
   36        0.449   0.564   4.613   5.626
   37        1.013   1.215   0.000   2.228
tot         20.151  11.450 311.421 343.022

  FORCE on cell =-STRESS in cart. coord.  units (eV):
  Direction    XX          YY          ZZ          XY          YZ          ZX
  Alpha Z   916.64631   916.64631   916.64631
  Ewald  149692.48011149692.48052************    -0.00032    -0.00009    -0.00014
  Hartree157970.15348157970.15349************     0.00001    -0.00002    -0.00004
  E(xc)   -1766.85442 -1766.85440 -1775.88788    -0.00002    -0.00000    -0.00000
  Local  ************************320191.89059     0.00177     0.00004     0.00005
  n-local   -82.49443   -38.27609   -40.41422    22.31746    -1.56076     1.50758
  augment  2392.18936  2392.19083  2411.28971    -0.00128     0.00002     0.00005
  Kinetic  5444.83427  5454.34116  5504.42746     5.93410    -0.05063     0.52663
  Fock        0.00000     0.00000     0.00000     0.00000     0.00000     0.00000
  Total     -21.85856   -21.85856     1.36584    -0.00000    -0.00000     0.00000
  in kB     -21.41202   -21.41202     1.33794    -0.00000    -0.00000     0.00000

 VOLUME and BASIS-vectors are now :
  energy-cutoff  :      500.00
  volume of cell :     1635.59
      direct lattice vectors                 reciprocal lattice vectors
     8.813512802  0.000000000  0.000000000     0.113462137 -0.065507406  0.000000000
     4.406756909  7.632725690  0.000000000     0.000000000  0.131014796  0.000000000
     0.000000000  0.000000000 24.313408842     0.000000000  0.000000000  0.041129568

  length of vectors
     8.813512802  8.813512802 24.313408842     0.131014796  0.131014796  0.041129568

 FORCES acting on ions
    electron-ion (+dipol)            ewald-force                    non-local-force                 convergence-correction
   -.197E-04 -.163E-04 0.264E+04   0.519E-04 0.433E-04 -.264E+04   -.732E-17 -.213E-17 -.633E+00   -.216E-03 -.138E-03 -.122E+00
   0.556E+00 0.647E-01 0.264E+04   -.530E+00 -.134E+00 -.264E+04   -.128E-01 0.765E-02 -.294E+00   -.120E-01 0.581E-01 -.556E-01
   -.556E+00 0.647E-01 0.264E+04   0.530E+00 -.134E+00 -.264E+04   0.128E-01 0.765E-02 -.294E+00   0.123E-01 0.600E-01 -.550E-01
   0.334E+00 0.449E+00 0.264E+04   -.381E+00 -.392E+00 -.264E+04   0.223E-03 -.149E-01 -.294E+00   0.444E-01 -.395E-01 -.556E-01
   0.792E-05 -.236E-04 0.264E+04   0.951E-04 0.174E-05 -.264E+04   0.866E-18 0.430E-18 -.338E+00   0.422E-02 0.257E-02 -.784E-02
   -.334E+00 0.449E+00 0.264E+04   0.381E+00 -.392E+00 -.264E+04   -.223E-03 -.149E-01 -.294E+00   -.459E-01 -.386E-01 -.548E-01
   -.222E+00 -.514E+00 0.264E+04   0.149E+00 0.526E+00 -.264E+04   0.130E-01 0.726E-02 -.294E+00   0.581E-01 -.194E-01 -.549E-01
   0.222E+00 -.514E+00 0.264E+04   -.149E+00 0.526E+00 -.264E+04   -.130E-01 0.726E-02 -.294E+00   -.563E-01 -.204E-01 -.549E-01
   0.197E-04 -.415E-04 0.264E+04   0.166E-03 -.200E-04 -.264E+04   -.175E-17 -.134E-17 -.485E+00   -.455E-02 -.235E-02 -.136E+00
   0.341E+01 0.197E+01 0.871E+03   -.335E+01 -.193E+01 -.870E+03   -.173E+00 -.100E+00 -.543E+00   0.107E+00 0.616E-01 0.295E+00
   0.150E-04 0.325E+01 0.877E+03   0.147E-03 -.344E+01 -.877E+03   0.296E-09 0.444E-02 -.581E+00   0.388E-02 0.146E+00 0.425E+00
   -.341E+01 0.197E+01 0.871E+03   0.335E+01 -.193E+01 -.870E+03   0.173E+00 -.100E+00 -.543E+00   -.108E+00 0.623E-01 0.294E+00
   0.282E+01 -.163E+01 0.877E+03   -.298E+01 0.172E+01 -.877E+03   0.385E-02 -.222E-02 -.581E+00   0.129E+00 -.694E-01 0.425E+00
   -.282E+01 -.163E+01 0.877E+03   0.298E+01 0.172E+01 -.877E+03   -.385E-02 -.222E-02 -.581E+00   -.122E+00 -.704E-01 0.423E+00
   0.317E-04 0.433E+01 0.875E+03   0.236E-03 -.433E+01 -.875E+03   0.734E-09 0.110E-01 -.489E+00   -.191E-02 -.435E-01 0.301E+00
   -.212E-04 -.393E+01 0.871E+03   0.162E-03 0.386E+01 -.870E+03   0.133E-07 0.200E+00 -.543E+00   -.278E-03 -.125E+00 0.294E+00
   0.375E+01 -.216E+01 0.875E+03   -.375E+01 0.216E+01 -.875E+03   0.955E-02 -.552E-02 -.489E+00   -.384E-01 0.205E-01 0.301E+00
   -.375E+01 -.216E+01 0.875E+03   0.375E+01 0.216E+01 -.875E+03   -.955E-02 -.552E-02 -.489E+00   0.388E-01 0.222E-01 0.302E+00
   -.412E-04 0.246E+00 -.924E+03   0.551E-04 -.447E+00 0.922E+03   0.598E-08 0.898E-01 0.778E+00   0.824E-03 0.963E-01 0.656E+00
   0.728E+01 0.420E+01 -.898E+03   -.727E+01 -.420E+01 0.898E+03   -.821E+00 -.474E+00 -.735E+00   0.588E+00 0.339E+00 0.131E+01
   -.728E+01 0.420E+01 -.898E+03   0.727E+01 -.420E+01 0.898E+03   0.821E+00 -.474E+00 -.735E+00   -.594E+00 0.339E+00 0.131E+01
   -.456E+01 0.263E+01 -.908E+03   0.387E+01 -.224E+01 0.907E+03   0.438E+00 -.253E+00 0.745E+00   0.307E+00 -.177E+00 0.715E+00
   -.890E-05 -.841E+01 -.898E+03   0.140E-03 0.839E+01 0.898E+03   0.631E-07 0.948E+00 -.735E+00   -.374E-02 -.684E+00 0.131E+01
   0.456E+01 0.263E+01 -.908E+03   -.387E+01 -.224E+01 0.907E+03   -.438E+00 -.253E+00 0.745E+00   -.306E+00 -.177E+00 0.715E+00
   -.213E+00 -.123E+00 -.924E+03   0.387E+00 0.224E+00 0.922E+03   -.778E-01 -.449E-01 0.778E+00   -.836E-01 -.483E-01 0.656E+00
   0.213E+00 -.123E+00 -.924E+03   -.387E+00 0.223E+00 0.922E+03   0.778E-01 -.449E-01 0.778E+00   0.842E-01 -.474E-01 0.656E+00
   0.107E-04 -.526E+01 -.908E+03   0.197E-03 0.447E+01 0.907E+03   0.337E-07 0.506E+00 0.745E+00   -.272E-03 0.355E+00 0.715E+00
   -.119E-04 -.124E-04 -.264E+04   0.290E-04 0.326E-04 0.264E+04   -.127E-17 -.894E-18 0.491E+00   0.123E-03 0.544E-04 0.390E+00
   0.182E+02 0.268E+02 -.262E+04   -.180E+02 -.268E+02 0.262E+04   -.661E+00 -.985E+00 0.861E+00   0.442E+00 0.777E+00 0.218E+00
   -.182E+02 0.268E+02 -.262E+04   0.180E+02 -.268E+02 0.262E+04   0.661E+00 -.985E+00 0.861E+00   -.442E+00 0.778E+00 0.218E+00
   0.323E+02 0.235E+01 -.262E+04   -.322E+02 -.225E+01 0.262E+04   -.118E+01 -.799E-01 0.861E+00   0.894E+00 -.588E-02 0.218E+00
   -.323E+02 0.235E+01 -.262E+04   0.322E+02 -.225E+01 0.262E+04   0.118E+01 -.799E-01 0.861E+00   -.894E+00 -.503E-02 0.218E+00
   0.141E+02 -.292E+02 -.262E+04   -.141E+02 0.290E+02 0.262E+04   -.523E+00 0.107E+01 0.861E+00   0.453E+00 -.772E+00 0.218E+00
   -.141E+02 -.292E+02 -.262E+04   0.141E+02 0.290E+02 0.262E+04   0.523E+00 0.107E+01 0.861E+00   -.451E+00 -.772E+00 0.218E+00
   0.352E-04 -.306E-04 -.264E+04   0.141E-03 -.480E-04 0.264E+04   -.357E-17 -.394E-17 0.489E+00   -.422E-02 -.214E-02 0.350E+00
   -.211E-04 -.393E-05 -.126E+04   0.635E-04 0.589E-05 0.126E+04   -.409E-17 -.265E-17 0.275E+01   0.140E-02 0.857E-03 0.176E+00
   0.439E-04 -.269E-04 -.117E+04   0.183E-04 0.118E-05 0.118E+04   0.646E-18 -.512E-18 -.669E+01   0.656E-03 0.400E-03 -.830E+00
   -.744E-03 -.798E-03 -.813E+01   -.357E-13 0.311E-12 0.637E-11   -.562E-15 -.711E-17 -.348E+01   0.218E-05 0.608E-03 0.119E+02

 POSITION                                       TOTAL-FORCE (eV/Angst)
      0.00000      0.00000      5.28038        -0.000000     -0.000000     -0.053710
      2.93784      0.00000      5.28038         0.001941     -0.002691     -0.049920
      5.87568      0.00000      5.28038        -0.001941     -0.002691     -0.049920
      1.46892      2.54424      5.28038        -0.001360      0.003026     -0.049920
      4.40676      2.54424      5.28038        -0.000000     -0.000000     -0.098093
      7.34459      2.54424      5.28038         0.001360      0.003026     -0.049920
      2.93784      5.08848      5.28038        -0.003301     -0.000336     -0.049920
      5.87568      5.08848      5.28038         0.003301     -0.000336     -0.049920
      8.81351      5.08848      5.28038        -0.000000     -0.000000     -0.042499
      1.46892      0.84808      7.67911        -0.004939     -0.002852      0.076101
      4.40676      0.84808      7.67911        -0.000000     -0.042762     -0.013364
      7.34459      0.84808      7.67911         0.004939     -0.002852      0.076101
      2.93784      3.39232      7.67911        -0.037033      0.021381     -0.013364
      5.87568      3.39232      7.67911         0.037033      0.021381     -0.013364
      8.81351      3.39232      7.67911        -0.000000     -0.036019      0.069775
      4.40676      5.93656      7.67911         0.000000      0.005704      0.076101
      7.34459      5.93656      7.67911        -0.031193      0.018010      0.069775
     10.28243      5.93656      7.67911         0.031193      0.018010      0.069775
      8.81351      1.69581     10.07501        -0.000000     -0.014823      0.051492
      2.95207      1.70438     10.04871        -0.217755     -0.125721     -0.143586
      5.86144      1.70438     10.04871         0.217755     -0.125721     -0.143586
     10.26527      4.25031     10.05786         0.061185     -0.035325      0.050870
      4.40676      4.22397     10.04871         0.000000      0.251441     -0.143586
      7.36176      4.25031     10.05786        -0.061185     -0.035325      0.050870
     11.75166      6.78482     10.07501         0.012837      0.007412      0.051492
      5.87537      6.78482     10.07501        -0.012837      0.007412      0.051492
      8.81351      6.76483     10.05786         0.000000      0.070650      0.050870
      0.00000      0.00000     12.48798        -0.000000     -0.000000     -0.093331
      2.98892      0.08359     12.48152        -0.073459     -0.155073     -0.082276
      5.82460      0.08359     12.48152         0.073459     -0.155073     -0.082276
      1.56685      2.54668     12.48152        -0.171027      0.013919     -0.082276
      7.24666      2.54668     12.48152         0.171027      0.013919     -0.082276
      2.98469      5.00245     12.48152        -0.097568      0.141154     -0.082276
      5.82882      5.00245     12.48152         0.097568      0.141154     -0.082276
      8.81351      5.08848     12.49580        -0.000000     -0.000000     -0.020617
      4.40676      2.54424     12.17616        -0.000000     -0.000000      0.752074
      4.40676      2.54424     13.82821        -0.000000     -0.000000      0.075494
    total drift:                               -0.000742     -0.000190      0.284754

  FREE ENERGIE OF THE ION-ELECTRON SYSTEM (eV)
  free  energy   TOTEN  =      -120.84892494 eV

  energy  without entropy=     -120.84892494  energy(sigma->0) =     -120.84892494

 stress matrix after NEB project (eV)
    -21.85856     -0.00000      0.00000
     -0.00000    -21.85856      0.00000
     -0.00000     -0.00000      1.36584
  FORCES: max atom, RMS     0.075494    0.012411
  FORCE total and by dimension    0.075494    0.075494
  Stress total and by dimension   30.942832   21.858561
|           W    W    AA    RRRRR   N    N  II  N    N   GGGG   !!!           |
|           W    W   A  A   R    R  NN   N  II  NN   N  G    G  !!!           |
|           W    W  A    A  R    R  N N  N  II  N N  N  G       !!!           |
|           W WW W  AAAAAA  RRRRR   N  N N  II  N  N N  G  GGG   !            |
|           WW  WW  A    A  R   R   N   NN  II  N   NN  G    G                |
|           W    W  A    A  R    R  N    N  II  N    N   GGGG   !!!           |
|     Tetrahedron method does not include variations of the Fermi             |
|     occupations, so forces and stress will be inaccurate. We suggest        |
|     using a different smearing scheme ISMEAR = 1 or 2 for metals in         |
|     relaxations.                                                            |

 total charge

# of ion       s       p       d       tot
    1        0.544   0.241   8.764   9.548
    2        0.545   0.241   8.764   9.550
    3        0.545   0.241   8.764   9.550
    4        0.545   0.241   8.764   9.550
    5        0.542   0.241   8.764   9.547
    6        0.545   0.241   8.764   9.550
    7        0.545   0.241   8.764   9.550
    8        0.545   0.241   8.764   9.550
    9        0.542   0.241   8.767   9.550
   10        0.519   0.309   8.771   9.599
   11        0.522   0.309   8.777   9.607
   12        0.519   0.309   8.771   9.599
   13        0.522   0.309   8.777   9.607
   14        0.522   0.309   8.777   9.607
   15        0.516   0.311   8.773   9.601
   16        0.519   0.309   8.771   9.599
   17        0.516   0.311   8.773   9.601
   18        0.516   0.311   8.773   9.601
   19        0.516   0.298   8.776   9.591
   20        0.545   0.332   8.753   9.630
   21        0.545   0.332   8.753   9.630
   22        0.510   0.312   8.775   9.597
   23        0.545   0.332   8.753   9.630
   24        0.510   0.312   8.775   9.597
   25        0.516   0.298   8.776   9.591
   26        0.516   0.298   8.776   9.591
   27        0.510   0.312   8.775   9.597
   28        0.541   0.222   8.764   9.527
   29        0.554   0.240   8.755   9.549
   30        0.554   0.240   8.755   9.549
   31        0.554   0.240   8.755   9.549
   32        0.554   0.240   8.755   9.549
   33        0.554   0.240   8.755   9.549
   34        0.554   0.240   8.755   9.549
   35        0.541   0.223   8.761   9.525
   36        0.449   0.564   4.613   5.626
   37        1.013   1.215   0.000   2.228
tot         20.151  11.450 311.421 343.022

 BZINTS: Fermi energy:    0.115130;  395.000000 electrons
         Band energy:-0.142697E+04;  BLOECHL correction:   -0.058614