 vasp.6.2.0 18Jan21 (build Jun 12 2021 23:27:24) complex

 executed on             LinuxIFC date 2022.05.28  00:37:34

 INCAR:
   ISMEAR = -5
   SIGMA = 0.1
   ISPIN = 1
   EDIFF = 1.d-5
   EDIFFG = -0.01
   NSW = 0
   NELM = 150
   ENCUT = 500
   ISIF = 2
   IBRION = 2
   LREAL = Auto
   ALGO = Fast
   ICHARG = 11
   LORBIT = 10
   LCHARG = .F.
   LWAVE = .F.

 POTCAR:    PAW_PBE Au 04Oct2007
 POTCAR:    PAW_PBE V 08Apr2002
 POTCAR:    PAW_PBE H 15Jun2001
 POTCAR:    PAW_PBE O 08Apr2002
|           W    W    AA    RRRRR   N    N  II  N    N   GGGG   !!!           |
|           W    W   A  A   R    R  NN   N  II  NN   N  G    G  !!!           |
|           W    W  A    A  R    R  N N  N  II  N N  N  G       !!!           |
|           W WW W  AAAAAA  RRRRR   N  N N  II  N  N N  G  GGG   !            |
|           WW  WW  A    A  R   R   N   NN  II  N   NN  G    G                |
|           W    W  A    A  R    R  N    N  II  N    N   GGGG   !!!           |
|     For optimal performance we recommend to set                             |
|       NCORE = 2 up to number-of-cores-per-socket                            |
|     This setting can greatly improve the performance of VASP for DFT.       |
|     The default, NCORE=1 might be grossly inefficient on modern             |
|     multi-core architectures or massively parallel machines. Do your        |
|     Unfortunately you need to use the default for GW and RPA                |
|     calculations (for HF NCORE is supported but not extensively tested      |
|     yet).                                                                   |

 POTCAR:    PAW_PBE Au 04Oct2007
   VRHFIN =Au: s1d10

   TITEL  = PAW_PBE Au 04Oct2007
   POMASS =  196.966; ZVAL   =   11.000    mass and valenz
   ENMAX  =  229.943; ENMIN  =  172.457 eV

 POTCAR:    PAW_PBE V 08Apr2002
   VRHFIN =V: p6 d4 s1

   TITEL  = PAW_PBE V 08Apr2002
   POMASS =   50.941; ZVAL   =    5.000    mass and valenz
   ENMAX  =  192.543; ENMIN  =  144.408 eV

 POTCAR:    PAW_PBE H 15Jun2001
   VRHFIN =H: ultrasoft test

   TITEL  = PAW_PBE H 15Jun2001
   POMASS =    1.000; ZVAL   =    1.000    mass and valenz
   ENMAX  =  250.000; ENMIN  =  200.000 eV

 POTCAR:    PAW_PBE O 08Apr2002
   VRHFIN =O: s2p4

   TITEL  = PAW_PBE O 08Apr2002
   POMASS =   16.000; ZVAL   =    6.000    mass and valenz
   ENMAX  =  400.000; ENMIN  =  300.000 eV

 Optimization of the real space projectors (new method)

 maximal supplied QI-value         = 15.12
 optimisation between [QCUT,QGAM] = [ 11.34, 22.83] = [ 36.00,145.93] Ry
 Optimized for a Real-space Cutoff    1.39 Angstroem

   l    n(q)    QCUT    max X(q) W(low)/X(q) W(high)/X(q)  e(spline)
   2      9    11.338    60.898    0.39E-03    0.42E-03    0.21E-06
   2      9    11.338    58.894    0.40E-03    0.42E-03    0.22E-06
   0      9    11.338   109.617    0.13E-03    0.20E-04    0.13E-06
   0      9    11.338    75.026    0.13E-03    0.20E-04    0.13E-06
   1      9    11.338    16.344    0.33E-04    0.24E-03    0.18E-06
   1      9    11.338    10.160    0.26E-04    0.19E-03    0.15E-06
 Optimization of the real space projectors (new method)

[...]

   l    n(q)    QCUT    max X(q) W(low)/X(q) W(high)/X(q)  e(spline)
   0      8    11.287    19.460    0.40E-03    0.73E-03    0.16E-06
   0      8    11.287    12.209    0.38E-03    0.70E-03    0.15E-06
   1      7    11.287     4.655    0.22E-03    0.25E-04    0.22E-06
 Optimization of the real space projectors (new method)

 maximal supplied QI-value         = 24.76
 optimisation between [QCUT,QGAM] = [ 11.39, 22.77] = [ 36.31,145.25] Ry
 Optimized for a Real-space Cutoff    1.00 Angstroem

   l    n(q)    QCUT    max X(q) W(low)/X(q) W(high)/X(q)  e(spline)
   0      7    11.387    20.381    0.39E-03    0.13E-02    0.15E-06
   0      7    11.387    15.268    0.42E-03    0.14E-02    0.17E-06
   1      6    11.387     5.964    0.41E-03    0.11E-02    0.17E-06
   1      6    11.387     5.382    0.39E-03    0.87E-03    0.15E-06
  PAW_PBE Au 04Oct2007                  :
  PAW_PBE V 08Apr2002                   :
  PAW_PBE H 15Jun2001                   :
  PAW_PBE O 08Apr2002                   :

 POSCAR: Au-V-H2O
  positions in direct lattice
  velocities in cartesian coordinates
 exchange correlation table for  LEXCH =        8
   RHO(1)=    0.500       N(1)  =     2000
   RHO(2)=  100.500       N(2)  =     4000

 VTST: version 3.2, (02/03/18)

 CHAIN: initializing optimizer

 OPT: Using VASP Conjugate-Gradient optimizer
 CHAIN: Read ICHAIN            0

 POSCAR: Au-V-H2O
  positions in direct lattice
  velocities in cartesian coordinates

 ion  position               nearest neighbor table
   1  0.000  0.000  0.213-  16 2.94  12 2.94   6 2.94   8 2.94   7 2.94   3 2.94  10 2.94   4 2.94
                             2 2.94
   2  0.333  0.000  0.213-   9 2.94  11 2.94  17 2.94  10 2.94   8 2.94   4 2.94   5 2.94   1 2.94
                             3 2.94
   3  0.667  0.000  0.213-   7 2.94  18 2.94  12 2.94   1 2.94  11 2.94   5 2.94   6 2.94   9 2.94
                             2 2.94
   4  0.000  0.333  0.213-  10 2.94   6 2.94   5 2.94  13 2.94   2 2.94  15 2.94   9 2.94   1 2.94
                             7 2.94
   5  0.333  0.333  0.213-  13 2.94   7 2.94  11 2.94   4 2.94   2 2.94  14 2.94   3 2.94   8 2.94
                             6 2.94
   6  0.667  0.333  0.213-  15 2.94  14 2.94   1 2.94  12 2.94   4 2.94   9 2.94   8 2.94   3 2.94
                             5 2.94
   7  0.000  0.667  0.213-  18 2.94   3 2.94  16 2.94   5 2.94   1 2.94  13 2.94   8 2.94   4 2.94
                             9 2.94
   8  0.333  0.667  0.213-   9 2.94  17 2.94   1 2.94   2 2.94  14 2.94  16 2.94   6 2.94   7 2.94
                             5 2.94
   9  0.667  0.667  0.213-   2 2.94   8 2.94  17 2.94   6 2.94  15 2.94   4 2.94   3 2.94  18 2.94
                             7 2.94
  10  0.111  0.111  0.310-  20 2.93  26 2.94  19 2.94  11 2.94  17 2.94   2 2.94   4 2.94   1 2.94
                            12 2.94  16 2.94  13 2.94  15 2.94
  11  0.444  0.111  0.310-  20 2.92  21 2.92  27 2.94  13 2.94   2 2.94  10 2.94  17 2.94   5 2.94
                             3 2.94  18 2.94  14 2.94  12 2.94
  12  0.778  0.111  0.310-  21 2.93  25 2.94  19 2.94  16 2.94  18 2.94   1 2.94  14 2.94  15 2.94
                             3 2.94   6 2.94  10 2.94  11 2.94
  13  0.111  0.444  0.310-  23 2.92  20 2.92  22 2.94   5 2.94  18 2.94  11 2.94   7 2.94   4 2.94
                            16 2.94  10 2.94  14 2.94  15 2.94
  14  0.444  0.444  0.310-  21 2.92  23 2.92  24 2.94  15 2.94   6 2.94  12 2.94   8 2.94  17 2.94
                             5 2.94  16 2.94  13 2.94  11 2.94
  15  0.778  0.444  0.310-  24 2.92  22 2.92  19 2.93  14 2.94   6 2.94  17 2.94  12 2.94   9 2.94
                             4 2.94  10 2.94  13 2.94  18 2.94
  16  0.111  0.778  0.310-  23 2.93  25 2.94  26 2.94  18 2.94  12 2.94   7 2.94   1 2.94   8 2.94
                            13 2.94  10 2.94  14 2.94  17 2.94
  17  0.444  0.778  0.310-  27 2.92  24 2.92  26 2.93   9 2.94  15 2.94   2 2.94  10 2.94  11 2.94
                             8 2.94  14 2.94  16 2.94  18 2.94
  18  0.778  0.778  0.310-  22 2.92  27 2.92  25 2.93  16 2.94   7 2.94  13 2.94  12 2.94   3 2.94
                            11 2.94   9 2.94  15 2.94  17 2.94
  19  0.889  0.222  0.407-  15 2.93  10 2.94  12 2.94  24 2.94  22 2.94  28 2.94  26 2.94  25 2.94
                            21 2.95  20 2.95  32 3.03  31 3.03
  20  0.223  0.223  0.407-  36 2.72  23 2.92  21 2.92  11 2.92  13 2.92  10 2.93  29 2.95  31 2.95
                            26 2.95  19 2.95  27 2.95  22 2.95
  21  0.554  0.223  0.407-  36 2.72  20 2.92  23 2.92  14 2.92  11 2.92  12 2.93  30 2.95  32 2.95
                            25 2.95  19 2.95  27 2.95  24 2.95
  22  0.887  0.557  0.407-  24 2.91  27 2.91  18 2.92  15 2.92  25 2.94  19 2.94  13 2.94  23 2.95
                            20 2.95  35 2.96  33 2.99  31 2.99
  23  0.223  0.554  0.407-  36 2.72  20 2.92  21 2.92  13 2.92  14 2.92  16 2.93  33 2.95  34 2.95
                            25 2.95  26 2.95  22 2.95  24 2.95
  24  0.557  0.557  0.407-  27 2.91  22 2.91  15 2.92  17 2.92  26 2.94  19 2.94  14 2.94  21 2.95
                            23 2.95  35 2.96  32 2.99  34 2.99
  25  0.889  0.889  0.407-  18 2.93  16 2.94  12 2.94  22 2.94  27 2.94  28 2.94  19 2.94  26 2.94
                            23 2.95  21 2.95  33 3.03  30 3.03
  26  0.222  0.889  0.407-  17 2.93  10 2.94  16 2.94  27 2.94  24 2.94  28 2.94  19 2.94  25 2.94
                            20 2.95  23 2.95  29 3.03  34 3.03
  27  0.557  0.887  0.407-  24 2.91  22 2.91  17 2.92  18 2.92  26 2.94  25 2.94  11 2.94  20 2.95
                            21 2.95  35 2.96  29 2.99  30 2.99
  28  0.000  0.000  0.504-  25 2.94  19 2.94  26 2.94  34 2.99  32 2.99  33 2.99  30 2.99  31 2.99
                            29 2.99
  29  0.334  0.011  0.506-  30 2.83  31 2.85  36 2.86  20 2.95  35 2.98  27 2.99  28 2.99  26 3.03
                            34 3.13
  30  0.655  0.011  0.506-  29 2.83  32 2.85  36 2.86  21 2.95  35 2.98  27 2.99  28 2.99  25 3.03
                            33 3.13
  31  0.011  0.334  0.506-  33 2.83  29 2.85  36 2.86  20 2.95  35 2.98  22 2.99  28 2.99  19 3.03
                            32 3.13
  32  0.655  0.334  0.506-  34 2.83  30 2.85  36 2.86  21 2.95  35 2.98  24 2.99  28 2.99  19 3.03
                            31 3.13
  33  0.011  0.655  0.506-  31 2.83  34 2.85  36 2.86  23 2.95  35 2.98  22 2.99  28 2.99  25 3.03
                            30 3.13
  34  0.334  0.655  0.506-  32 2.83  33 2.85  36 2.86  23 2.95  35 2.98  24 2.99  28 2.99  26 3.03
                            29 3.13
  35  0.667  0.667  0.505-  24 2.96  27 2.96  22 2.96  29 2.98  34 2.98  32 2.98  31 2.98  30 2.98
                            33 2.98
  36  0.333  0.333  0.493-  39 2.15  20 2.72  23 2.72  21 2.72  33 2.86  31 2.86  29 2.86  30 2.86
                            34 2.86  32 2.86
  37  0.279  0.263  0.590-  39 0.98
  38  0.458  0.264  0.590-  39 0.98
  39  0.334  0.333  0.580-  38 0.98  37 0.98  36 2.15

  LATTYP: Found a hexagonal cell.
 ALAT       =     8.8135128021
 C/A-ratio  =     2.8075332270

  Lattice vectors:

 A1 = (  -4.4067569092,  -7.6327256898,   0.0000000000)
 A2 = (   8.8135128021,   0.0000000000,   0.0000000000)
 A3 = (   0.0000000000,   0.0000000000,  24.7442300386)

Analysis of symmetry for initial positions (statically):
 Subroutine PRICEL returns:
 Original cell was already a primitive cell.

 Routine SETGRP: Setting up the symmetry group for a
 hexagonal supercell.

 Subroutine GETGRP returns: Found  1 space group operations
 (whereof  1 operations were pure point group operations)
 out of a pool of 24 trial point group operations.

The static configuration has the point symmetry C_1 .

Analysis of symmetry for dynamics (positions and initial velocities):
 Subroutine PRICEL returns:
 Original cell was already a primitive cell.

[...]

The dynamic configuration has the point symmetry C_1 .

Analysis of constrained symmetry for selective dynamics:
 Subroutine PRICEL returns:
[...]
     41      -4.8603      2.00000
     42      -4.8210      2.00000
     43      -4.7730      2.00000
     44      -4.7246      2.00000
     45      -4.7058      2.00000
     46      -4.6486      2.00000
     47      -4.6451      2.00000
     48      -4.6189      2.00000
     49      -4.6050      2.00000
     50      -4.5125      2.00000
     51      -4.4825      2.00000
     52      -4.4671      2.00000
     53      -4.4424      2.00000
     54      -4.4402      2.00000
     55      -4.4389      2.00000
     56      -4.4088      2.00000
     57      -4.3889      2.00000
     58      -4.3437      2.00000
     59      -4.3203      2.00000
     60      -4.3028      2.00000
[...]
    238       5.7935      0.00000
    239       6.0004      0.00000
    240       6.0420      0.00000
    241       6.0712      0.00000
    242       6.1229      0.00000
    243       6.3229      0.00000
    244       6.3634      0.00000
    245       6.4041      0.00000
    246       6.4698      0.00000
    247       6.5553      0.00000
    248       6.6038      0.00000
    249       6.6374      0.00000
    250       6.7001      0.00000
    251       6.8051      0.00000
    252       6.8646      0.00000

 soft charge-density along one line, spin component           1
         0         1         2         3         4         5         6         7         8         9
 total charge-density along one line

------------------------ aborting loop because EDIFF is reached ----------------------------------------

 total charge

# of ion       s       p       d       tot
    1        0.548   0.237   8.767   9.552
    2        0.543   0.241   8.764   9.548
    3        0.543   0.241   8.764   9.548
    4        0.543   0.241   8.765   9.548
    5        0.546   0.241   8.762   9.548
    6        0.543   0.241   8.765   9.548
    7        0.542   0.241   8.765   9.548
    8        0.542   0.241   8.765   9.548
    9        0.543   0.240   8.766   9.549
   10        0.526   0.307   8.768   9.600
   11        0.521   0.306   8.779   9.606
   12        0.526   0.307   8.768   9.600
   13        0.519   0.307   8.779   9.605
   14        0.519   0.307   8.779   9.605
   15        0.516   0.308   8.775   9.599
   16        0.526   0.307   8.768   9.600
   17        0.516   0.308   8.775   9.599
   18        0.516   0.308   8.775   9.599
   19        0.520   0.297   8.772   9.590
   20        0.566   0.335   8.733   9.633
   21        0.566   0.335   8.733   9.633
   22        0.509   0.307   8.776   9.591
   23        0.565   0.334   8.733   9.632
   24        0.509   0.307   8.776   9.591
   25        0.518   0.297   8.773   9.588
   26        0.519   0.297   8.773   9.588
   27        0.511   0.307   8.775   9.592
   28        0.541   0.230   8.752   9.523
   29        0.583   0.248   8.737   9.568
   30        0.583   0.248   8.737   9.568
   31        0.583   0.247   8.738   9.567
   32        0.583   0.247   8.738   9.567
   33        0.577   0.240   8.743   9.559
   34        0.577   0.240   8.743   9.559
   35        0.538   0.228   8.757   9.522
   36        0.395   0.475   3.235   4.104
   37        0.598   0.117   0.000   0.716
   38        0.598   0.117   0.000   0.716
   39        1.568   3.617   0.000   5.185
tot         22.084  13.995 309.869 345.948

  FORCE on cell =-STRESS in cart. coord.  units (eV):
  Direction    XX          YY          ZZ          XY          YZ          ZX
  Alpha Z   907.67192   907.67192   907.67192
  Ewald  154450.80490154384.04471************     0.16549   -13.20258     0.10242
  Hartree162836.01176162823.79535************     0.03446     3.24268    -0.02148
  E(xc)   -1784.78952 -1784.88441 -1792.41619     0.00032    -0.02489     0.00104
  Local  ************************329521.04012    -0.15477     2.84902    -0.03298
  n-local   -78.55204   -79.39156   -49.92309     0.00193    -0.13352    -0.00238
  augment  2389.50605  2390.27159  2409.40458    -0.00356     0.36577    -0.00396
  Kinetic  5511.34057  5529.84804  5591.48168    -0.04316     6.77374    -0.04802
  Fock        0.00000     0.00000     0.00000     0.00000     0.00000     0.00000
  Total     -22.34534   -22.43437     0.90950     0.00071    -0.12978    -0.00536
  in kB     -21.50774   -21.59344     0.87541     0.00069    -0.12491    -0.00516

 VOLUME and BASIS-vectors are now :
  energy-cutoff  :      500.00
  volume of cell :     1664.57
      direct lattice vectors                 reciprocal lattice vectors
     8.813512802  0.000000000  0.000000000     0.113462137 -0.065507406  0.000000000
     4.406756909  7.632725690  0.000000000     0.000000000  0.131014796  0.000000000
     0.000000000  0.000000000 24.744230039     0.000000000  0.000000000  0.040413462

  length of vectors
     8.813512802  8.813512802 24.744230039     0.131014796  0.131014796  0.040413462

 FORCES acting on ions
    electron-ion (+dipol)            ewald-force                    non-local-force                 convergence-correction
   0.182E-02 -.676E-02 0.267E+04   0.995E-04 -.103E-01 -.267E+04   -.279E-04 0.781E-02 -.675E+00   -.193E-02 0.113E-01 -.129E+00
   0.253E+00 -.257E+00 0.267E+04   -.298E+00 0.912E-01 -.267E+04   0.450E-01 0.131E+00 -.229E+00   -.574E-02 0.260E-01 -.143E+00
   -.255E+00 -.268E+00 0.267E+04   0.298E+00 0.911E-01 -.267E+04   -.451E-01 0.131E+00 -.229E+00   0.770E-02 0.369E-01 -.139E+00
   -.972E-01 0.328E+00 0.267E+04   -.608E-01 -.291E+00 -.267E+04   0.130E+00 -.366E-01 -.237E+00   0.170E-01 -.377E-02 -.147E+00
   -.145E-01 -.423E-01 0.267E+04   -.212E-04 0.172E-01 -.267E+04   0.123E-03 -.591E-02 0.974E-01   0.146E-01 0.254E-01 -.102E+00
   0.107E+00 0.324E+00 0.267E+04   0.608E-01 -.292E+00 -.267E+04   -.130E+00 -.365E-01 -.237E+00   -.269E-01 0.597E-03 -.142E+00
   -.373E+00 -.562E-01 0.267E+04   0.237E+00 0.200E+00 -.267E+04   0.956E-01 -.993E-01 -.275E+00   0.333E-01 -.325E-01 -.154E+00
   0.364E+00 -.493E-01 0.267E+04   -.237E+00 0.200E+00 -.267E+04   -.956E-01 -.994E-01 -.275E+00   -.240E-01 -.395E-01 -.153E+00
   0.137E-01 0.353E-01 0.267E+04   0.232E-03 -.660E-02 -.267E+04   -.542E-04 -.142E-02 -.369E+00   -.141E-01 -.260E-01 -.539E-01
   0.184E+01 0.105E+01 0.894E+03   -.136E+01 -.776E+00 -.893E+03   -.335E+00 -.205E+00 -.656E+00   -.117E+00 -.526E-01 -.221E+00
   -.121E-01 0.850E+00 0.896E+03   -.441E-03 -.752E+00 -.896E+03   0.625E-04 -.155E-01 -.152E+00   0.127E-01 -.120E+00 -.197E+00
   -.183E+01 0.104E+01 0.894E+03   0.136E+01 -.777E+00 -.893E+03   0.335E+00 -.205E+00 -.656E+00   0.109E+00 -.448E-01 -.222E+00
   0.749E+00 -.546E+00 0.896E+03   -.653E+00 0.482E+00 -.895E+03   0.875E-04 0.798E-02 -.166E+00   -.122E+00 0.776E-01 -.197E+00
   -.769E+00 -.542E+00 0.896E+03   0.652E+00 0.483E+00 -.895E+03   -.292E-03 0.779E-02 -.166E+00   0.143E+00 0.737E-01 -.200E+00
   0.111E-01 0.327E+01 0.898E+03   0.103E-02 -.343E+01 -.897E+03   -.594E-04 0.174E-01 -.566E+00   -.122E-01 0.936E-01 -.151E+00
   -.118E-02 -.200E+01 0.894E+03   -.606E-04 0.145E+01 -.893E+03   -.151E-03 0.401E+00 -.676E+00   0.142E-02 0.116E+00 -.206E+00
   0.294E+01 -.156E+01 0.898E+03   -.306E+01 0.166E+01 -.897E+03   0.454E-02 -.285E-02 -.581E+00   0.711E-01 -.730E-01 -.139E+00
   -.294E+01 -.157E+01 0.898E+03   0.306E+01 0.166E+01 -.897E+03   -.453E-02 -.271E-02 -.581E+00   -.724E-01 -.615E-01 -.136E+00
   -.195E-03 -.288E+01 -.903E+03   0.502E-02 0.281E+01 0.902E+03   -.506E-04 0.370E-01 0.497E+00   -.481E-02 0.427E-01 0.300E+00
   -.240E+01 -.200E+01 -.893E+03   0.361E+01 0.272E+01 0.894E+03   -.114E+01 -.649E+00 -.119E+01   -.726E-01 -.621E-01 0.353E+00
   0.240E+01 -.200E+01 -.893E+03   -.362E+01 0.271E+01 0.894E+03   0.114E+01 -.649E+00 -.119E+01   0.778E-01 -.592E-01 0.349E+00
   -.813E+01 0.439E+01 -.892E+03   0.798E+01 -.435E+01 0.891E+03   0.337E+00 -.169E+00 0.565E+00   -.162E+00 0.104E+00 0.259E+00
   0.102E-02 0.256E+01 -.895E+03   -.515E-02 -.400E+01 0.895E+03   0.461E-04 0.135E+01 -.110E+01   0.410E-02 0.108E+00 0.364E+00
   0.813E+01 0.439E+01 -.892E+03   -.797E+01 -.434E+01 0.891E+03   -.337E+00 -.169E+00 0.565E+00   0.158E+00 0.102E+00 0.257E+00
   0.202E+01 0.202E+01 -.903E+03   -.196E+01 -.194E+01 0.902E+03   -.180E-01 -.502E-01 0.598E+00   -.405E-01 -.262E-01 0.318E+00
   -.202E+01 0.202E+01 -.903E+03   0.196E+01 -.194E+01 0.902E+03   0.180E-01 -.505E-01 0.597E+00   0.419E-01 -.316E-01 0.320E+00
   0.141E-02 -.847E+01 -.891E+03   -.275E-03 0.832E+01 0.890E+03   0.164E-03 0.371E+00 0.514E+00   -.132E-02 -.188E+00 0.282E+00
   -.934E-02 0.211E+01 -.260E+04   0.909E-02 -.217E+01 0.260E+04   0.109E-03 0.527E-01 0.449E+00   0.105E-03 -.136E-01 0.239E+00
   0.246E+02 0.339E+02 -.259E+04   -.237E+02 -.323E+02 0.259E+04   -.108E+01 -.168E+01 -.643E+00   0.480E-01 -.612E-02 0.226E+00
   -.246E+02 0.339E+02 -.259E+04   0.237E+02 -.324E+02 0.259E+04   0.108E+01 -.167E+01 -.641E+00   -.477E-01 0.261E-03 0.225E+00
   0.380E+02 0.102E+01 -.259E+04   -.361E+02 -.921E+00 0.260E+04   -.204E+01 -.121E+00 -.639E+00   0.196E-01 0.281E-01 0.229E+00
   -.381E+02 0.102E+01 -.259E+04   0.362E+02 -.926E+00 0.260E+04   0.204E+01 -.121E+00 -.639E+00   -.228E-01 0.321E-01 0.228E+00
   0.115E+02 -.317E+02 -.260E+04   -.108E+02 0.302E+02 0.260E+04   -.797E+00 0.165E+01 -.143E+00   0.260E-02 -.247E-01 0.230E+00
   -.115E+02 -.317E+02 -.260E+04   0.108E+02 0.303E+02 0.260E+04   0.797E+00 0.165E+01 -.143E+00   0.502E-02 -.265E-01 0.229E+00
   -.904E-03 0.124E+01 -.262E+04   0.132E-01 -.125E+01 0.262E+04   -.133E-03 -.193E-02 0.586E+00   -.123E-01 0.117E-01 0.186E+00
   0.316E-01 -.396E+01 -.104E+04   -.321E-01 0.402E+01 0.104E+04   -.361E-03 -.663E-01 0.667E+00   0.224E-02 -.272E-02 0.174E+00
   0.663E+02 0.414E+02 -.291E+03   -.730E+02 -.457E+02 0.293E+03   0.672E+01 0.427E+01 -.198E+01   -.836E-02 -.692E-02 -.161E-02
   -.664E+02 0.412E+02 -.291E+03   0.731E+02 -.454E+02 0.293E+03   -.673E+01 0.424E+01 -.199E+01   0.858E-02 -.680E-02 -.171E-02
   0.112E+00 -.551E+02 -.162E+04   -.190E+00 0.966E+02 0.161E+04   0.752E-01 -.415E+02 0.822E+01   0.920E-03 0.601E-03 -.135E-02
   -.649E-01 0.333E+02 0.219E+01   0.849E-13 -.313E-12 0.159E-11   0.578E-01 -.333E+02 -.367E+01   0.991E-02 -.169E-01 0.193E+01

 POSITION                                       TOTAL-FORCE (eV/Angst)
      0.00000      0.00000      5.28038        -0.000106      0.002002     -0.101394
      2.93784      0.00000      5.28038        -0.005654     -0.008426     -0.004359
      5.87568      0.00000      5.28038         0.005539     -0.008397     -0.004285
      1.46892      2.54424      5.28038        -0.011512     -0.003544     -0.001936
      4.40676      2.54424      5.28038         0.000123     -0.005609     -0.012855
      7.34459      2.54424      5.28038         0.011368     -0.003575     -0.001757
      2.93784      5.08848      5.28038        -0.007199      0.012066      0.000200
      5.87568      5.08848      5.28038         0.007082      0.012071      0.000331
      8.81351      5.08848      5.28038        -0.000269      0.001264     -0.025016
      1.46892      0.84808      7.67911         0.028278      0.015701      0.081969
      4.40676      0.84808      7.67911         0.000164     -0.037483      0.007616
      7.34459      0.84808      7.67911        -0.028419      0.015777      0.081988
      2.93784      3.39232      7.67911        -0.025755      0.021829      0.007212
      5.87568      3.39232      7.67911         0.026079      0.021860      0.007134
      8.81351      3.39232      7.67911        -0.000164     -0.055804      0.060843
      4.40676      5.93656      7.67911        -0.000043     -0.029975      0.071706
      7.34459      5.93656      7.67911        -0.047971      0.028392      0.063114
     10.28243      5.93656      7.67911         0.047799      0.028485      0.063150
      8.81351      1.69782     10.07545        -0.000105      0.004653     -0.014444
      2.94790      1.70197     10.06171        -0.004369      0.005053     -0.033364
      5.86562      1.70197     10.06171         0.004189      0.005091     -0.033331
     10.26824      4.24860     10.06503         0.027697     -0.021107      0.015190
      4.40676      4.22879     10.06171        -0.000052      0.020272      0.008232
      7.35878      4.24860     10.06503        -0.027825     -0.021055      0.015113
     11.74991      6.78381     10.07545         0.000825      0.003137     -0.018716
      5.87712      6.78381     10.07545        -0.000891      0.003019     -0.018641
      8.81351      6.76826     10.06503        -0.000089      0.035037      0.003529
      0.00000      0.00000     12.47281        -0.000115     -0.016900     -0.009891
      2.99055      0.08121     12.52138        -0.094557     -0.142320     -0.113818
      5.82296      0.08121     12.52138         0.094525     -0.142973     -0.114421
      1.56560      2.54929     12.52138        -0.139308      0.002482     -0.112539
      7.24791      2.54929     12.52138         0.139889      0.002700     -0.112977
      2.98181      5.00223     12.52138        -0.095891      0.134381     -0.163383
      5.83171      5.00223     12.52138         0.095854      0.134410     -0.163530
      8.81351      5.08848     12.50032        -0.000273     -0.000387      0.047298
      4.40676      2.54424     12.20130         0.001328     -0.003278      0.535727
      3.62028      2.00854     14.59799        -0.002062      0.000421     -0.000891
      5.19618      2.01178     14.59957         0.004368     -0.001146     -0.002806
      4.40744      2.54287     14.35570        -0.002484     -0.008122     -0.005997
    total drift:                                0.002747      0.001097      0.454536

  FREE ENERGIE OF THE ION-ELECTRON SYSTEM (eV)
  free  energy   TOTEN  =      -129.40101231 eV

  energy  without entropy=     -129.40101231  energy(sigma->0) =     -129.40101231

 stress matrix after NEB project (eV)
    -22.34534      0.00071     -0.00536
      0.00071    -22.43437     -0.12978
     -0.00536     -0.12978      0.90950
  FORCES: max atom, RMS     0.010397    0.001905
  FORCE total and by dimension    0.011899    0.008122
  Stress total and by dimension   31.677690   22.434373
|           W    W    AA    RRRRR   N    N  II  N    N   GGGG   !!!           |
|           W    W   A  A   R    R  NN   N  II  NN   N  G    G  !!!           |
|           W    W  A    A  R    R  N N  N  II  N N  N  G       !!!           |
|           W WW W  AAAAAA  RRRRR   N  N N  II  N  N N  G  GGG   !            |
|           WW  WW  A    A  R   R   N   NN  II  N   NN  G    G                |
|           W    W  A    A  R    R  N    N  II  N    N   GGGG   !!!           |
|     Tetrahedron method does not include variations of the Fermi             |
|     occupations, so forces and stress will be inaccurate. We suggest        |
|     using a different smearing scheme ISMEAR = 1 or 2 for metals in         |
|     relaxations.                                                            |

 total charge

# of ion       s       p       d       tot
    1        0.548   0.237   8.767   9.552
    2        0.543   0.241   8.764   9.548
    3        0.543   0.241   8.764   9.548
    4        0.543   0.241   8.765   9.548
    5        0.546   0.241   8.762   9.548
    6        0.543   0.241   8.765   9.548
    7        0.542   0.241   8.765   9.548
    8        0.542   0.241   8.765   9.548
    9        0.543   0.240   8.766   9.549
   10        0.526   0.307   8.768   9.600
   11        0.521   0.306   8.779   9.606
   12        0.526   0.307   8.768   9.600
   13        0.519   0.307   8.779   9.605
   14        0.519   0.307   8.779   9.605
   15        0.516   0.308   8.775   9.599
   16        0.526   0.307   8.768   9.600
   17        0.516   0.308   8.775   9.599
   18        0.516   0.308   8.775   9.599
   19        0.520   0.297   8.772   9.590
   20        0.566   0.335   8.733   9.633
   21        0.566   0.335   8.733   9.633
   22        0.509   0.307   8.776   9.591
   23        0.565   0.334   8.733   9.632
   24        0.509   0.307   8.776   9.591
   25        0.518   0.297   8.773   9.588
   26        0.519   0.297   8.773   9.588
   27        0.511   0.307   8.775   9.592
   28        0.541   0.230   8.752   9.523
   29        0.583   0.248   8.737   9.568
   30        0.583   0.248   8.737   9.568
   31        0.583   0.247   8.738   9.567
   32        0.583   0.247   8.738   9.567
   33        0.577   0.240   8.743   9.559
   34        0.577   0.240   8.743   9.559
   35        0.538   0.228   8.757   9.522
   36        0.395   0.475   3.235   4.104
   37        0.598   0.117   0.000   0.716
   38        0.598   0.117   0.000   0.716
   39        1.568   3.617   0.000   5.185
tot         22.084  13.995 309.869 345.948

 BZINTS: Fermi energy:    0.360163;  398.000000 electrons
         Band energy:-0.140063E+04;  BLOECHL correction:   -0.025185